time,ASR_ext,ASR_strain,ASR_strain_xx,ASR_strain_yy,ASR_strain_zz,disp_x_101,disp_x_102,disp_x_103,disp_x_104,disp_x_105,disp_x_106,disp_x_p10_neg,disp_x_p10_pos,disp_x_p11_neg,disp_x_p11_pos,disp_x_p12_neg,disp_x_p12_pos,disp_x_p13_neg,disp_x_p13_pos,disp_x_p14_neg,disp_x_p14_pos,disp_x_p15_neg,disp_x_p15_pos,disp_x_p16_neg,disp_x_p16_pos,disp_x_p1_neg,disp_x_p1_pos,disp_x_p2_neg,disp_x_p2_pos,disp_x_p3_neg,disp_x_p3_pos,disp_x_p4_neg,disp_x_p4_pos,disp_x_p5_neg,disp_x_p5_pos,disp_x_p6_neg,disp_x_p6_pos,disp_x_p7_neg,disp_x_p7_pos,disp_x_p8_neg,disp_x_p8_pos,disp_x_p9_neg,disp_x_p9_pos,disp_y_101,disp_y_102,disp_y_103,disp_y_104,disp_y_105,disp_y_106,disp_y_p10_neg,disp_y_p10_pos,disp_y_p11_neg,disp_y_p11_pos,disp_y_p12_neg,disp_y_p12_pos,disp_y_p1_neg,disp_y_p1_pos,disp_y_p2_neg,disp_y_p2_pos,disp_y_p3_neg,disp_y_p3_pos,disp_y_p4_neg,disp_y_p4_pos,disp_y_p5_neg,disp_y_p5_pos,disp_y_p6_neg,disp_y_p6_pos,disp_y_p7_neg,disp_y_p7_pos,disp_y_p8_neg,disp_y_p8_pos,disp_y_p9_neg,disp_y_p9_pos,disp_z_101,disp_z_102,disp_z_103,disp_z_104,disp_z_105,disp_z_106,disp_z_p10_neg,disp_z_p10_pos,disp_z_p11_neg,disp_z_p11_pos,disp_z_p12_neg,disp_z_p12_pos,disp_z_p13_neg,disp_z_p13_pos,disp_z_p14_neg,disp_z_p14_pos,disp_z_p15_neg,disp_z_p15_pos,disp_z_p16_neg,disp_z_p16_pos,disp_z_p1_neg,disp_z_p1_pos,disp_z_p2_neg,disp_z_p2_pos,disp_z_p3_neg,disp_z_p3_pos,disp_z_p4_neg,disp_z_p4_pos,disp_z_p5_neg,disp_z_p5_pos,disp_z_p6_neg,disp_z_p6_pos,disp_z_p7_neg,disp_z_p7_pos,disp_z_p8_neg,disp_z_p8_pos,disp_z_p9_neg,disp_z_p9_pos,humidity,ndof,nelem,strain_xx,strain_yy,strain_zz,temp,thermal_strain_xx,thermal_strain_yy,thermal_strain_zz,vonmises,vstrain
14391759,0,0,0,0,0,0,0,0,0,0,0,0,0,0,0,0,0,0,0,0,0,0,0,0,0,0,0,0,0,0,0,0,0,0,0,0,0,0,0,0,0,0,0,0,0,0,0,0,0,0,0,0,0,0,0,0,0,0,0,0,0,0,0,0,0,0,0,0,0,0,0,0,0,0,0,0,0,0,0,0,0,0,0,0,0,0,0,0,0,0,0,0,0,0,0,0,0,0,0,0,0,0,0,0,0,0,0,0,0,0,0,0,0,0,0,0,0,0,0,0,0,0,0
14891759,0.063460448475201,0.0011439745147301,0.00038132483824335,0.00038132483824335,0.00038132483824335,-0.00012576632273248,0.00012575283209916,-5.9149232857825e-09,-5.9149233187851e-09,-4.4907429161806e-09,-7.2000726315911e-09,-0.00011353562740189,0.0001135185128938,-0.0001237744538022,0.00012375962935346,-0.00012377576472996,0.00012376094028137,-0.00011353153374403,0.00011351947237493,-0.00011353311129371,0.00011352104992452,-0.00012377188207251,0.00012376226175855,-0.00012377318679742,0.00012376356648349,-0.00013049558287049,0.00013048454772652,-0.0001304961082058,0.00013048507306174,-0.00013049647127532,0.00013048362254294,-0.00013049699942016,0.00013048415068785,-0.0001217326061725,0.00012171933922982,-0.00012173309430901,0.00012171982736626,-0.0001217317311151,0.00012172023232816,-0.00012173221326239,0.00012172071447533,-0.00011353403758954,0.00011351692308138,-8.3839431948566e-10,1.7451475783525e-09,6.555096818608e-10,2.1357508471453e-10,-0.0001318156380374,0.00013181651091559,-0.00012913960889163,0.00012913916269201,-0.00012783156886504,0.00012783008983448,-0.00012782994644335,0.00012783351832474,-0.00013345783245243,0.00013345794095071,-0.00013345822842043,0.00013345802676038,-0.00013345727904975,0.00013345920801538,-0.0001334576750177,0.0001334592938251,-0.00012913746517572,0.00012913964187252,-0.00012913907100824,0.00012914038799573,-0.00012783142148181,0.0001278296428072,-0.0001278297990599,0.00012783307129742,-0.00012913800305914,0.00012913841656881,-6.9047482034688e-10,-6.9047477027763e-10,-0.00012607404148516,0.00012607027542654,-1.0795373398569e-09,-6.2310666716977e-10,-0.00011901339611419,0.00011901074822813,-0.00011991573037335,0.00011991146677245,-0.00011991544055565,0.00011991117695466,-0.00011901493936906,0.00011901143732478,-0.00011901376403472,0.00011901026199011,-0.00011991619018406,0.00011991104918269,-0.00011991584909018,0.0001199107080887,-0.00013054601639229,0.00013054465134995,-0.00013054587482447,0.00013054481882314,-0.00013054644678896,0.00013054508174665,-0.00013054628166819,0.00013054522566679,-0.00012611176087465,0.00012611088476898,-0.00012611074403231,0.00012610986792657,-0.00012611086558691,0.00012610968939827,-0.00012611193422713,0.00012611075803856,-0.00011901446333921,0.00011901181545302,0.72243549536071,123579,2954,0.00052386026804069,0.00054908138831833,0.00052516165328937,30.459285251733,0.00015887428201386,0.00015887428201386,0.00015887428201386,1229853.3640342,0.001599385585356
15391759,0.11437353019827,0.0020660331781801,0.00068195946810483,0.00070189378325485,0.00068217992682042,-0.00018743957518671,0.00018743125996526,-3.8425078709707e-09,-3.8425150070284e-09,-2.0805958116011e-09,-5.4916161799137e-09,-0.00016418061725985,0.00016416981530144,-0.00018598408615461,0.00018597297466934,-0.00018598488062016,0.00018597376919077,-0.00016417675524904,0.00016417241023518,-0.00016417741075989,0.0001641730657561,-0.0001859808113562,0.0001859763363589,-0.00018598160114765,0.00018597712621563,-0.0001984340612379,0.00019842702435267,-0.00019843447214023,0.00019842743508429,-0.00019843517277059,0.00019842586152727,-0.00019843558532833,0.00019842627394482,-0.00018005313977627,0.00018004411538828,-0.00018005350034389,0.00018004447594956,-0.00018005203923294,0.00018004523792062,-0.00018005239649132,0.00018004559517266,-0.00016417995312966,0.00016416915115609,-8.1951110575009e-10,2.4249903306273e-09,9.4606463242636e-10,6.0057560075044e-10,-0.0002036796998811,0.00020368125279526,-0.00019896538795855,0.00019896548896732,-0.00019555862178736,0.00019555714662641,-0.00019555592222034,0.00019556081804286,-0.00020824733820381,0.00020824787579543,-0.00020824809032618,0.00020824839356481,-0.00020824671509323,0.0002082494848181,-0.00020824746717991,0.00020825000256076,-0.00019896333625373,0.00019896631555725,-0.00019896463610732,0.00019896693796049,-0.00019555881823194,0.00019555711150855,-0.00019555611877471,0.00019556078301043,-0.0001989640881417,0.0001989648666002,-3.7408419044248e-10,-3.7409115688408e-10,-0.00018798930964986,0.00018798759675253,-5.8222543442366e-10,-2.2659908777584e-10,-0.00017520856122671,0.00017520799209696,-0.00017607161952138,0.00017607017533125,-0.00017607137297276,0.00017606992879108,-0.000175209048507,0.00017520779704593,-0.00017520881923631,0.00017520756775172,-0.00017607199495896,0.00017606985419936,-0.00017607168148397,0.00017606954073255,-0.00019886664385204,0.00019886554325314,-0.00019886653915777,0.00019886567780685,-0.0001988671429271,0.00019886604234463,-0.00019886701076246,0.00019886614942535,-0.00019057574158834,0.00019057514289518,-0.00019057524845923,0.00019057464976575,-0.0001905753286567,0.00019057449626656,-0.00019057588450228,0.00019057505211395,-0.00017520864503184,0.0001752080759148,0.74328681656446,123579,2954,0.00078067566192628,0.0008483039350101,0.00078297646980964,27.264932805261,0.00013331946244209,0.00013331946244209,0.00013331946244209,1765914.8928865,0.0024148812612348
15891759,0.1603880723233,0.0029300848609456,0.00095927071735278,0.0010112643699077,0.00095954977368515,-0.00024732616854901,0.0002473207576504,-2.4697283153923e-09,-2.4697345439998e-09,-7.890771284192e-10,-4.048445358663e-09,-0.00021418317618267,0.00021417545359654,-0.00024874200267218,0.00024873387136209,-0.0002487424264041,0.00024873429511957,-0.00021417994168416,0.00021417843308569,-0.00021418009122086,0.00021417858265581,-0.00024873885280973,0.00024873709817934,-0.00024873927406659,0.00024873751946552,-0.00026371671794187,0.00026371226304437,-0.00026371698414214,0.00026371252909832,-0.00026371778380183,0.00026371115225978,-0.00026371805081614,0.0002637114191527,-0.00023814118966314,0.00023813503123548,-0.00023814140295449,0.00023813524451562,-0.00023814013529135,0.00023813610502445,-0.00023814034681212,0.00023813631653508,-0.00021418302178604,0.0002141752991659,-6.7245494781955e-10,2.4263178003497e-09,9.7021522878927e-10,7.2652560718553e-10,-0.00027708724394468,0.00027708894560359,-0.00027200553685418,0.00027200594138331,-0.00026566614174843,0.00026566492468017,-0.0002656632152835,0.00026566808382301,-0.00028309826870642,0.00028309897776553,-0.00028309887795453,0.00028309942222911,-0.00028309752393405,0.00028310034659741,-0.00028309813315316,0.00028310079104106,-0.00027200437032002,0.00027200734568035,-0.00027200470006804,0.00027200719758315,-0.00026566640734318,0.00026566502788789,-0.0002656634809447,0.00026566818708211,-0.00027200520714338,0.0002720060895175,-2.2030564533582e-10,-2.203116587477e-10,-0.00024799831926657,0.00024799725275013,-2.9968793681277e-10,-4.8844433994158e-11,-0.00023288778087734,0.00023288773622077,-0.0002309663411562,0.0002309658725029,-0.00023096619622622,0.00023096572758193,-0.00023288798350174,0.00023288745318331,-0.00023288794897091,0.00023288741867497,-0.00023096661211358,0.00023096564940506,-0.00023096641210296,0.00023096544940424,-0.00026474984013131,0.00026474896525511,-0.00026474976670434,0.00026474906052102,-0.00026475017332469,0.00026474929846077,-0.00026475007801386,0.00026474937184081,-0.00025608309714134,0.00025608263678483,-0.000256082956276,0.00025608249591866,-0.00025608300584367,0.00025608238037224,-0.0002560832013719,0.00025608257590083,-0.00023288768654818,0.0002328876418671,0.7772745974968,123579,2954,0.0010299879562008,0.0011538590439707,0.001032789790935,25.412649713521,0.00011850119770816,0.00011850119770816,0.00011850119770816,1868068.6271356,0.0032218341479143
16391759,0.20532112007033,0.0037744358966169,0.0012262539118841,0.0013217547546076,0.0012264272301251,-0.00030602561469858,0.00030602170670918,-1.7532957309528e-09,-1.7533015686274e-09,-2.4262890728725e-10,-3.1752799080108e-09,-0.00025773137258445,0.00025772559119487,-0.00031160270090662,0.0003115963461433,-0.00031160298281596,0.00031159662807136,-0.00025772869408835,0.00025772852270238,-0.00025772858746796,0.00025772841612643,-0.00031159985613952,0.00031159925387059,-0.00031160013661632,0.0003115995343683,-0.00032814263607224,0.00032813949610462,-0.00032814282095247,0.0003281396808447,-0.00032814359940578,0.00032813849620648,-0.00032814378468184,0.00032813868136614,-0.00029492877056562,0.00029492420185932,-0.00029492885351,0.00029492428479086,-0.00029492781989292,0.00029492516924002,-0.00029492790177733,0.00029492525111274,-0.00025773147621818,0.00025772569478481,-5.3046132684044e-10,2.2552764185428e-09,9.1763602220971e-10,7.5727736565218e-10,-0.00035238066243353,0.00035238233986245,-0.00034733235662994,0.00034733292904437,-0.00033658235492867,0.00033658139218913,-0.00033657961339968,0.00033658411661256,-0.00035934152402609,0.00035934229111658,-0.00035934202705833,0.00035934268547421,-0.00035934079030076,0.00035934344999311,-0.00035934129330756,0.00035934384433389,-0.00034733158359954,0.00034733434831923,-0.00034733155688236,0.00034733400707058,-0.00033658259173233,0.00033658152261402,-0.00033657985025867,0.00033658424708001,-0.00034733238337812,0.00034733327032408,-1.3337307041925e-10,-1.3337872477041e-10,-0.00030671941003526,0.00030671863652306,-1.751660344523e-10,-9.3244919078787e-12,-0.00029017289987676,0.00029017304705241,-0.00028373616927634,0.00028373601964789,-0.00028373607706023,0.00028373592743605,-0.00029017292329094,0.00029017274726161,-0.00029017299877625,0.00029017282276127,-0.00028373635448243,0.00028373587638339,-0.00028373621773216,0.0002837357396383,-0.00032991055796083,0.00032990982123669,-0.00032991050926591,0.00032990988422587,-0.00032991080502187,0.00032991006830909,-0.00032991073950383,0.00032991011447333,-0.00032131938730877,0.00032131903986358,-0.0003213193903563,0.00032131904291025,-0.00032131941663873,0.00032131896007813,-0.00032131945912587,0.00032131900256532,-0.00029017271800711,0.00029017286516806,0.77589297110258,123579,2954,0.00127430012232,0.0014671634785587,0.0012771823241009,24.44824098087,0.00011078592784696,0.00011078592784696,0.00011078592784696,2153170.4422467,0.0040267553674595
16891759,0.24988750875752,0.0046340618979014,0.0014945731996371,0.0016462791670514,0.001493209531213,-0.00036558926108629,0.00036558634154126,-1.2896333984232e-09,-1.2896392002827e-09,4.8175764322293e-11,-2.5546813070559e-09,-0.00029917351534343,0.00029916908822218,-0.00037881824448923,0.00037881314481366,-0.00037881844228258,0.00037881334262623,-0.00029917127605013,0.00029917183794311,-0.00029917103869073,0.00029917160063939,-0.00037881571257929,0.00037881572797706,-0.00037881590966545,0.00037881592508466,-0.00039327011659081,0.00039326781004614,-0.00039327025218754,0.00039326794550528,-0.00039327097606084,0.00039326692235091,-0.00039327111182671,0.00039326705800245,-0.00035259213429146,0.00035258863745706,-0.00035259212192767,0.00035258862507924,-0.00035259129000517,0.00035258949637883,-0.00035259127679405,0.00035258948315483,-0.00029917375053989,0.00029916932336397,-4.1790002177208e-10,2.0529043166437e-09,8.5430522190748e-10,7.3829792278466e-10,-0.00043120026041256,0.00043120185308211,-0.0004273904060027,0.00042739104858511,-0.00040970873850383,0.00040970798370176,-0.00040970628117213,0.00040971037060688,-0.00043869249155678,0.00043869326591066,-0.00043869292803314,0.00043869362351579,-0.00043869179913078,0.00043869425168397,-0.0004386922355809,0.00043869460927159,-0.00042738979687171,0.00042739232728547,-0.00042738966203911,0.00042739196486573,-0.00040970894642659,0.00040970811507326,-0.00040970648914031,0.00040971050201291,-0.00042739054086264,0.00042739141103225,-9.1862376840239e-11,-9.1867979216884e-11,-0.00036585300823272,0.00036585239481177,-1.2839514010925e-10,-7.8446358113196e-12,-0.00034938331483622,0.00034938351327078,-0.00033674666965666,0.00033674662684668,-0.00033674659946259,0.00033674655665445,-0.0003493832339117,0.00034938319602987,-0.00034938338075392,0.00034938334288569,-0.00033674680701693,0.00033674652403137,-0.00033674670428224,0.00033674642129949,-0.00039556550994933,0.00039556485056507,-0.00039556547320616,0.00039556489520707,-0.00039556570433577,0.00039556504496275,-0.00039556565501647,0.00039556507702685,-0.00038901724343615,0.00038901696834319,-0.00038901730135065,0.00038901702625618,-0.00038901731691832,0.00038901696260081,-0.00038901729678177,0.00038901694246482,-0.00034938308071342,0.00034938327913419,0.79749073725253,123579,2954,0.0015221545440436,0.001795032072263,0.0015232342604441,23.815263703503,0.00010572210962802,0.00010572210962802,0.00010572210962802,2475575.5046301,0.0048521814091537
17391759,0.29000119471322,0.0053589692932042,0.0017161392851456,0.001928671633812,0.0017141583742466,-0.00041203719757992,0.00041203594790701,-5.3333163366557e-10,-5.3333729712491e-10,5.4012776129118e-10,-1.5562443792436e-09,-0.00032464446950728,0.00032464230764488,-0.00043046964824864,0.00043046658154317,-0.00043046970538636,0.00043046663870038,-0.00032464287486466,0.00032464473714771,-0.00032464247160836,0.00032464433395081,-0.00043046760143642,0.00043046866715021,-0.00043046765850363,0.00043046872423911,-0.00044666977114387,0.00044666883373176,-0.00044666984059426,0.00044666890304445,-0.00044667046776159,0.0004466681177423,-0.00044667053710069,0.00044666818696697,-0.00039474471758022,0.00039474296493719,-0.00039474462547117,0.0003947428728144,-0.00039474403748027,0.00039474365653695,-0.00039474394499232,0.00039474356403632,-0.00032464487182338,0.0003246427099025,-2.6623574719538e-10,1.716631853987e-09,7.2599780653006e-10,6.9114227632788e-10,-0.00049812406819559,0.00049812548365384,-0.00049464198577732,0.00049464269846025,-0.00046994504441236,0.00046994456052177,-0.00046994300679102,0.0004699464068512,-0.00050689140634436,0.00050689214278324,-0.00050689175988527,0.00050689247244545,-0.00050689080955036,0.00050689289320409,-0.00050689116306452,0.00050689322284828,-0.00049464166977,0.00049464378070211,-0.00049464135003161,0.0004946433918379,-0.00046994523316143,0.00046994472717226,-0.00046994319558221,0.00046994657353343,-0.00049464230554117,0.00049464308734998,-2.7213150678985e-11,-2.7218928614606e-11,-0.000412152384445,0.00041215212514644,-1.9624469879298e-11,1.8267915243905e-11,-0.00039170044824378,0.00039170083029337,-0.00037375494394417,0.00037375524467694,-0.00037375490878162,0.0003737552095151,-0.00039170017711459,0.00039170048105446,-0.00039170044621021,0.00039170075016262,-0.00037375499816904,0.00037375521916655,-0.00037375493991985,0.00037375516091903,-0.00044974107231545,0.0004497405544446,-0.0004497410608569,0.00044974056890521,-0.00044974120078165,0.00044974068292198,-0.0004497411807822,0.00044974068883994,-0.00044318476354933,0.00044318456956032,-0.0004431849232333,0.00044318472924341,-0.00044318491646326,0.00044318469788495,-0.00044318478577359,0.00044318456719519,-0.0003917001107738,0.00039170049281071,0.74995420156392,123579,2954,0.0017154004158498,0.0020733267287175,0.0017158455781702,22.123235210845,9.2185881686759e-05,9.2185881686759e-05,9.2185881686759e-05,2756820.5593737,0.0055197895811764
17891759,0.32362662530568,0.0059197730760295,0.0018858222076303,0.0021516689243403,0.0018822819440589,-0.00044539720011045,0.00044539756440825,1.9681302460014e-10,1.968073769712e-10,9.7811667454524e-10,-5.5431877767714e-10,-0.00034307615963149,0.00034307615601162,-0.00046723366242964,0.00046723264077421,-0.00046723358287881,0.00046723256124367,-0.00034307521685108,0.00034307816125057,-0.00034307469575351,0.00034307764021325,-0.00046723215571422,0.00046723417052808,-0.00046723207675445,0.00046723409159081,-0.00048595603904115,0.00048595643681054,-0.00048595604189618,0.00048595643952816,-0.00048595655439534,0.00048595591248687,-0.00048595655685906,0.00048595591483644,-0.00042363361562199,0.00042363357316903,-0.00042363345527571,0.00042363341280932,-0.000423633118338,0.00042363407816106,-0.000423632958109,0.00042363391791955,-0.00034307668098651,0.000343076677307,-1.2308530038739e-10,1.3182713219568e-09,5.5790836672354e-10,6.1461158293509e-10,-0.00054761405837458,0.00054761522740098,-0.00054118504024793,0.00054118578211092,-0.00051170690590424,0.00051170667071898,-0.00051170535651974,0.00051170794064018,-0.00056029022598523,0.00056029087136071,-0.00056029047981042,0.00056029116326917,-0.00056028973674668,0.00056029136097966,-0.0005602899905446,0.00056029165286964,-0.00054118500942268,0.00054118660398863,-0.00054118452916901,0.00054118623358985,-0.00051170706526184,0.00051170686928146,-0.00051170551591691,0.00051170813923217,-0.00054118552052545,0.00054118615253361,2.9846293966207e-11,2.9840266665042e-11,-0.00044509070356562,0.00044509076189998,8.2178937758244e-11,2.6909263300772e-11,-0.00041985460669025,0.00041985508414447,-0.00039971509249813,0.00039971565541406,-0.00039971509056043,0.00039971565347583,-0.00041985417529641,0.00041985475391085,-0.00041985452645445,0.00041985510508024,-0.00039971505274323,0.00039971571737128,-0.0003997150374366,0.0003997157020651,-0.00048979874285558,0.00048979838294887,-0.00048979876015719,0.00048979836368591,-0.00048979880264284,0.00048979844274713,-0.00048979881564578,0.0004897984191838,-0.00047978692171721,0.00047978680070819,-0.00047978714592671,0.00047978702491774,-0.00047978711379764,0.00047978702979573,-0.00047978690925301,0.0004797868252501,-0.00041985420693911,0.00041985468438192,0.69743113532981,123579,2954,0.0018541738798012,0.0022790690161422,0.0018528506088509,19.639563178429,7.2316505427431e-05,7.2316505427431e-05,7.2316505427431e-05,3101261.8689228,0.0060041027422103
18391759,0.35252448802173,0.0064039872325235,0.0020320885545484,0.0023453798959107,0.0020265187820644,-0.00047420457126743,0.00047420564299979,5.274370342783e-10,5.2743073127967e-10,1.1198171908241e-09,-4.4314545397527e-11,-0.0003603587159419,0.00036035972406226,-0.00050026065309575,0.00050026065478836,-0.00050026050609856,0.00050026050781173,-0.00036035814578798,0.00036036139090881,-0.00036035760404376,0.00036036084922402,-0.00050025950130973,0.00050026181790417,-0.00050025935522384,0.00050026167184107,-0.00051946662593701,0.00051946762578197,-0.00051946659587966,0.00051946759558642,-0.00051946702374919,0.00051946722669403,-0.00051946699319434,0.0005194671960243,-0.00044931430072548,0.00044931506397157,-0.00044931411359992,0.00044931487683149,-0.00044931392301755,0.00044931544662701,-0.00044931373612114,0.00044931525971693,-0.00036035925834761,0.00036036026640903,-5.5929159093758e-11,1.0311345443784e-09,4.190047358547e-10,5.4152988872186e-10,-0.00059007757263475,0.00059007852824333,-0.00058053755360349,0.00058053826799019,-0.00054701586219399,0.00054701573499155,-0.00054701467566343,0.00054701667026571,-0.00060703645707156,0.00060703698771897,-0.0006070366311816,0.00060703724389648,-0.00060703603444861,0.00060703730649089,-0.00060703620853077,0.00060703756264937,-0.00058053767053666,0.0005805388703151,-0.00058053712643377,0.00058053856501684,-0.00054701599283522,0.00054701594869713,-0.00054701480634222,0.00054701688399909,-0.00058053809772914,0.00058053857331128,4.1189100252731e-11,4.1183484442673e-11,-0.00047334179838343,0.00047334192283485,1.1144784321989e-10,-1.0304103871112e-11,-0.00044575307489845,0.00044575346793111,-0.00042351608227027,0.00042351661299976,-0.00042351609369162,0.0004235166244192,-0.00044575257784235,0.0004457532016353,-0.00044575293708862,0.00044575356089045,-0.00042351597580951,0.00042351673856375,-0.00042351597916351,0.00042351674191666,-0.00052394793735252,0.00052394765166409,-0.0005239479755,0.00052394760880875,-0.00052394795594216,0.00052394767026507,-0.00052394799219202,0.00052394762551038,-0.00051083268553523,0.00051083257509654,-0.00051083290046013,0.00051083279002117,-0.00051083284970594,0.00051083282036829,-0.00051083264906107,0.00051083261972275,-0.00044575267874397,0.00044575307176745,0.70636194947041,123579,2954,0.0019739930981654,0.0024555637556641,0.0019703441655177,17.515917174166,5.5327337393329e-05,5.5327337393329e-05,5.5327337393329e-05,3378727.0538147,0.0064204962271639
18891759,0.38045724326921,0.0068873907068275,0.0021779293639283,0.0025392416300832,0.002170219712816,-0.00050551111781899,0.00050551169879507,3.2701584662565e-10,3.27009459909e-10,9.1689630607959e-10,-2.365144912917e-10,-0.00037614433083041,0.0003761448260448,-0.00053716645753774,0.00053716603882041,-0.00053716633985389,0.00053716592115772,-0.0003761437035368,0.00037614640148477,-0.00037614323426022,0.00037614593226893,-0.00053716531895548,0.00053716718624201,-0.00053716520194351,0.00053716706925352,-0.00055607647842712,0.00055607708258188,-0.00055607646330044,0.0005560770673165,-0.00055607687391121,0.00055607668690652,-0.00055607685842082,0.00055607667130084,-0.0004778379361527,0.00047783827719863,-0.00047783776619582,0.00047783810722724,-0.00047783756215512,0.00047783865559617,-0.00047783739203071,0.00047783848545803,-0.00037614480009197,0.00037614529524605,-8.1270918295409e-11,9.9289075579543e-10,3.7859295381867e-10,5.2032619275963e-10,-0.00063766935521735,0.00063767024845114,-0.00062726392544567,0.00062726460072434,-0.00058823997967406,0.00058823979606157,-0.00058823886179236,0.00058824077252305,-0.00065709703499502,0.00065709749794883,-0.0006570971782783,0.00065709773497413,-0.00065709659727645,0.00065709780174097,-0.00065709674053132,0.00065709803874685,-0.00062726401730338,0.00062726513329452,-0.00062726349963261,0.0006272648924148,-0.00058824009120878,0.00058824000314491,-0.00058823897336347,0.00058824097963317,-0.00062726444313846,0.00062726484162603,2.0890952972197e-13,2.0325942291709e-13,-0.00050421010870605,0.00050421001627802,6.0832525056646e-11,-7.9407990508045e-11,-0.00047487423025285,0.00047487440300381,-0.00044867662006785,0.00044867684683842,-0.00044867662081813,0.00044867684758578,-0.00047487376774415,0.00047487420973416,-0.00047487407316643,0.00047487451516449,-0.00044867649595313,0.00044867699203699,-0.00044867648727379,0.0004486769833555,-0.00056109115272998,0.00056109080458728,-0.00056109119722829,0.00056109075599905,-0.00056109117306542,0.00056109082493416,-0.00056109121514814,0.0005610907739286,-0.000547371169239,0.00054737099153081,-0.00054737132172534,0.00054737114401722,-0.0005473712645921,0.00054737118049171,-0.00054737112733658,0.00054737104323526,-0.0004748738863699,0.00047487405911242,0.73210601896319,123579,2954,0.0021041969763511,0.002653335433596,0.0020987106877619,16.9084336046,5.0467468836803e-05,5.0467468836803e-05,5.0467468836803e-05,3496479.3091305,0.0068798870915757
19391759,0.4099069732358,0.0074147608032631,0.0023356407226093,0.0027533013248567,0.0023258187557972,-0.00054144205882893,0.0005414418621238,-1.4173169945858e-11,-1.4179601212622e-11,6.9012238214671e-10,-6.8679026485237e-10,-0.00039375572480924,0.0003937551638564,-0.00058022008551183,0.00058021874088012,-0.00058022003725401,0.00058021869264398,-0.00039375479827041,0.00039375686363838,-0.00039375441626711,0.00039375648169743,-0.00058021873221835,0.00058022010566698,-0.0005802186842127,0.00058022005768539,-0.0005978030016881,0.00059780299182669,-0.00059780301385185,0.00059780300385116,-0.00059780347011199,0.00059780252076967,-0.00059780348207447,0.0005978025326164,-0.00051089104692431,0.00051089061000878,-0.00051089089470211,0.00051089045777229,-0.00051089059986932,0.00051089106207763,-0.00051089044710714,0.00051089090930188,-0.00039375610603626,0.00039375554502142,-1.7092846455421e-10,1.1202821960854e-09,4.0637841094791e-10,5.2846674430666e-10,-0.00069286884325988,0.00069286977217501,-0.00068304174608829,0.00068304236451241,-0.00063694924783756,0.0006369488944693,-0.00063694796956702,0.00063695013663507,-0.00071382060706238,0.00071382103632589,-0.00071382076262941,0.00071382127160126,-0.00071382010164469,0.00071382142436117,-0.00071382025718281,0.00071382165961665,-0.00068304165498006,0.00068304289914083,-0.00068304126039122,0.00068304274320504,-0.00063694934534184,0.00063694907407234,-0.00063694806710661,0.00063695031626394,-0.00068304214069817,0.00068304252046913,-4.2201550212786e-11,-4.220728254502e-11,-0.00053970012104762,0.00053969978851355,-1.1758792361524e-11,-1.3157571675364e-10,-0.00050883174259302,0.00050883172540376,-0.00047735383919481,0.00047735376285549,-0.00047735382419337,0.00047735374785007,-0.00050883137627799,0.00050883159049545,-0.00050883160197352,0.0005088318161992,-0.00047735373557085,0.00047735388951065,-0.00047735370859526,0.00047735386253181,-0.00060343990588232,0.00060343947485951,-0.0006034399441591,0.00060343943391766,-0.0006034399428099,0.00060343951179862,-0.00060343997750236,0.00060343946727068,-0.00059076356461446,0.00059076333614268,-0.00059076365909591,0.0005907634306246,-0.00059076360740835,0.00059076345911359,-0.00059076353077055,0.00059076338247449,-0.00050883147335771,0.00050883145615973,0.75731812517196,123579,2954,0.0022536195959717,0.0028826708947863,0.0022462803479428,17.474182553914,5.4993460431315e-05,5.4993460431315e-05,5.4993460431315e-05,3583254.4511793,0.0074099874838956
19891759,0.44225090357398,0.0079708039015826,0.0024994447899929,0.0029834158762203,0.0024879432353694,-0.00057963857571282,0.00057963762614075,-3.5536612655877e-10,-3.5537258147922e-10,4.7831123908174e-10,-1.1555606867231e-09,-0.00041133485087543,0.00041133320973561,-0.00062486733411502,0.00062486503510899,-0.00062486736052892,0.00062486506154511,-0.00041133359347164,0.00041133507047276,-0.00041133329701046,0.00041133477407524,-0.0006248657335879,0.00062486665145516,-0.00062486575990248,0.00062486667779439,-0.00064300510896491,0.0006430044964508,-0.00064300515074972,0.00064300453809587,-0.00064300566109405,0.00064300393879298,-0.00064300570280831,0.0006430039803911,-0.00054472860265026,0.00054472738140358,-0.00054472847019642,0.00054472724893572,-0.00054472807164679,0.0005447279184158,-0.00054472793838205,0.0005447277851377,-0.00041133514597074,0.00041133350476748,-2.6408220045534e-10,1.2773691087873e-09,4.5323486382426e-10,5.4268485373259e-10,-0.00075315261227908,0.00075315360236048,-0.00074310978967386,0.00074311035265135,-0.00068940600405041,0.00068940547866192,-0.0006894045307988,0.00068940701754591,-0.00077644546092832,0.00077644587628568,-0.00077644565026512,0.00077644612304686,-0.00077644489360744,0.00077644637355831,-0.0007764450829149,0.00077644662029917,-0.00074310948125539,0.00074311090233979,-0.00074310924191441,0.00074311083796595,-0.00068940609217789,0.00068940562687515,-0.00068940461896067,0.00068940716578411,-0.00074311002903501,0.0007431104170452,-7.7082032557111e-11,-7.7087796645728e-11,-0.00057751953104728,0.00057751900092542,-7.8738370721823e-11,-1.6528953879746e-10,-0.0005426934063578,0.00054269324848476,-0.00050631344469256,0.0005063131219529,-0.00050631341559139,0.00050631309284682,-0.00054269314610692,0.00054269315611765,-0.00054269329482903,0.00054269330484796,-0.00050631337397456,0.00050631321706793,-0.00050631333049893,0.00050631317358805,-0.00064958689529535,0.00064958639106959,-0.00064958692310726,0.0006495863620245,-0.00064958695468446,0.00064958645047034,-0.00064958697779683,0.00064958641672392,-0.0006367011653027,0.00063670090423507,-0.00063670121121432,0.00063670095014749,-0.00063670116914254,0.0006367009662265,-0.00063670114367024,0.00063670094075256,-0.0005426932091546,0.00054269305127283,0.72797889157256,123579,2954,0.0024124459866885,0.003133064644886,0.0024035150917178,18.684431208668,6.4675449669344e-05,6.4675449669344e-05,6.4675449669344e-05,3710687.1756303,0.0079808221660143
20391759,0.47426404335755,0.0085435816787221,0.0026670500831431,0.0032225407674983,0.0026539908280807,-0.00061676847527292,0.00061676841112433,2.5318794881137e-11,2.5312245610625e-11,7.8794274571351e-10,-7.1734371684774e-10,-0.00043122789222745,0.00043122729519444,-0.00067015959350077,0.00067015820329544,-0.00067015954333161,0.00067015815314902,-0.00043122683135602,0.00043122911784495,-0.00043122645511339,0.0004312287416663,-0.00067015811384639,0.00067015969568242,-0.00067015806393188,0.0006701596457931,-0.00068575597229342,0.00068575609391645,-0.00068575598255885,0.0006857561040417,-0.00068575648231384,0.00068575558072961,-0.0006857564923176,0.00068575559061688,-0.00057851623575882,0.00057851586731999,-0.00057851607239907,0.0005785157039464,-0.00057851574617206,0.00057851636186338,-0.00057851558243963,0.00057851619811768,-0.00043122826790342,0.00043122767080645,-2.2932451636697e-10,1.1917941233201e-09,4.1477921411796e-10,5.3227696284827e-10,-0.00081157704758355,0.00081157798854562,-0.00080135911456465,0.00080135969755941,-0.00073973702926634,0.0007397365609594,-0.00073973562197311,0.00073973793185597,-0.00083782737468318,0.00083782777558369,-0.00083782755678739,0.00083782803521934,-0.00083782684341711,0.0008378282204647,-0.00083782702549155,0.00083782848007964,-0.00080135886018816,0.00080136016395489,-0.00080135859579773,0.00080136012896241,-0.00073973712085468,0.00073973673165067,-0.00073973571359467,0.00073973810257115,-0.00080135937897439,0.00080135973257098,-3.0550879448957e-11,-3.0556760081807e-11,-0.00061404003652221,0.00061403976132056,-1.2278737639317e-11,-1.2800910793168e-10,-0.00057809757841294,0.00057809758506117,-0.00053622185225155,0.00053622178863209,-0.00053622184179846,0.00053622177817326,-0.00057809724557812,0.00057809747421839,-0.00057809744376034,0.00057809767240879,-0.00053622175206479,0.00053622191020787,-0.00053622173058097,0.00053622188871895,-0.00069341494313708,0.00069341453684073,-0.00069341498006796,0.0006934144970504,-0.00069341498021256,0.00069341457392786,-0.00069341501405831,0.00069341453105059,-0.0006809453901153,0.00068094519812346,-0.00068094549930539,0.00068094530731496,-0.00068094544954971,0.00068094533485504,-0.00068094535737214,0.00068094524267527,-0.0005780973389044,0.00057809734554386,0.75819559921871,123579,2954,0.0025668198219539,0.0033756714859032,0.0025553283958358,18.606959561426,6.4055676491408e-05,6.4055676491408e-05,6.4055676491408e-05,3881008.7413592,0.0085341583572665
20891759,0.50333031456503,0.0090443124426998,0.0028118967755028,0.0034345603047822,0.0027978553624147,-0.0006454107457723,0.00064541195435541,5.9177055083059e-10,5.9176399006043e-10,1.1814136950343e-09,1.2242222699676e-11,-0.00043861262789063,0.00043861370700934,-0.00070495664108169,0.00070495674698775,-0.00070495647827012,0.00070495658419922,-0.0004386119835127,0.000438615308185,-0.00043861150795125,0.00043861483268847,-0.0007049554830287,0.00070495791038864,-0.0007049553208738,0.00070495774825923,-0.0007215833164682,0.00072158447581352,-0.00072158328091377,0.00072158444011843,-0.00072158371703648,0.00072158407670086,-0.000721583681022,0.00072158404056948,-0.00060250175439151,0.00060250268258218,-0.00060250155838118,0.0006025024865582,-0.00060250137402957,0.00060250306589114,-0.00060250117805984,0.00060250286990827,-0.00043861310371995,0.0004386141827737,-1.2988490390681e-10,9.6749837517332e-10,3.2330080001484e-10,5.0377172648721e-10,-0.00086331430439134,0.0008633151247995,-0.00085380475895492,0.00085380539344714,-0.00078411853988148,0.00078411824412503,-0.00078411737928912,0.00078411922700993,-0.00089120318466059,0.00089120355622232,-0.00089120331573028,0.0008912038078852,-0.00089120272748478,0.00089120385213403,-0.0008912028585244,0.00089120410377589,-0.00085380473230871,0.00085380574558565,-0.00085380431516744,0.00085380568065394,-0.00078411862893329,0.00078411845454732,-0.00078411746837371,0.0007841194374557,-0.00085380517611493,0.00085380545839732,2.0302577056972e-11,2.0296591412623e-11,-0.00064246981696298,0.00064246985034892,8.5076237255086e-11,-9.485019545046e-11,-0.00060216456925858,0.00060216474911446,-0.0005549449923013,0.0005549452523239,-0.00055494500665621,0.00055494526667248,-0.00060216409865834,0.00060216462320382,-0.00060216437911592,0.00060216490366979,-0.0005549448279015,0.0005549454342281,-0.00055494483592475,0.00055494544224558,-0.00073030932325258,0.00073030903843264,-0.00073030938060668,0.00073030897587468,-0.00073030932064875,0.00073030903584047,-0.00073030937710186,0.00073030897237969,-0.00071843635176847,0.00071843621429112,-0.00071843654348588,0.00071843640601033,-0.00071843647528384,0.00071843645757021,-0.00071843629570131,0.00071843627798514,-0.00060216425776409,0.00060216443761093,0.73179653022988,123579,2954,0.0026859123963162,0.0035904516364882,0.0026735058554408,17.403377303515,5.4427018428118e-05,5.4427018428118e-05,5.4427018428118e-05,3966365.6651175,0.0089901921171159
21391759,0.52807344819626,0.0094670391565772,0.0029333688485219,0.0036154050819189,0.0029182652261364,-0.00066791247470346,0.00066791499414757,1.1796031496247e-09,1.1795965707521e-09,1.5766512893854e-09,7.8081936673962e-10,-0.0004471788838847,0.00044718168280195,-0.00073306976435762,0.00073307144479145,-0.0007330694871873,0.00073307116764443,-0.00044717868336734,0.00044718301920116,-0.00044717811610902,0.00044718245200776,-0.00073306896349264,0.00073307224209143,-0.00073306868742408,0.0007330719660487,-0.00074904570595139,0.00074904795464868,-0.00074904562132063,0.00074904786987699,-0.00074904598518934,0.00074904768237631,-0.00074904589989516,0.00074904759696501,-0.00062150208120634,0.00062150436251821,-0.00062150185124526,0.00062150413254371,-0.00062150182197111,0.00062150462237271,-0.00062150159245742,0.00062150439284601,-0.00044717945227868,0.00044718225113082,-3.199252913549e-11,7.071469878361e-10,2.113702317698e-10,4.5906608336098e-10,-0.00090371510664141,0.0009037157697098,-0.00089314835613617,0.0008931490213657,-0.00081737486387561,0.00081737473560254,-0.00081737399992354,0.00081737531256518,-0.00093464219479012,0.00093464251059256,-0.00093464225536329,0.00093464273750605,-0.00093464181047819,0.00093464263351704,-0.000934641871021,0.00093464286040921,-0.0008931485718194,0.00089314924232573,-0.00089314799102897,0.00089314914495188,-0.00081737494286033,0.00081737498102435,-0.00081737407894036,0.00081737555800981,-0.0008931489369449,0.00089314911875751,6.8352079501184e-11,6.8346011256418e-11,-0.00066452571340108,0.00066452604120305,1.7886699645663e-10,-6.9586543642093e-11,-0.00062185567584936,0.0006218559950762,-0.00057088415663008,0.00057088471536367,-0.00057088419512035,0.00057088475384716,-0.00062185507107578,0.00062185586632121,-0.00062185542670711,0.00062185622196072,-0.00057088392346785,0.00057088496165471,-0.0005708839609652,0.00057088499914578,-0.0007588019289839,0.00075880177379041,-0.00075880200807778,0.00075880168692814,-0.00075880187998207,0.00075880172480025,-0.00075880196060455,0.00075880163946471,-0.00074619817816139,0.00074619809395622,-0.00074619843904891,0.00074619835484598,-0.0007461983514076,0.00074619843228121,-0.00074619809705094,0.00074619817792164,-0.0006218553008745,0.0006218556200925,0.72687224223145,123579,2954,0.0027794629853216,0.0037581330960492,0.002765177126882,15.325842421204,3.7806739369631e-05,3.7806739369631e-05,3.7806739369631e-05,4106340.7494534,0.0093463459629231
21891759,0.55020831992195,0.0098395470495738,0.0030399313215551,0.0037757505950386,0.0030238651329801,-0.00068803527879036,0.00068803765159517,1.1252887123787e-09,1.1252820901987e-09,1.460532533616e-09,7.9362966792312e-10,-0.00045287409467953,0.00045287684068672,-0.00075811905351702,0.00075812074794162,-0.00075811879998129,0.00075812049442825,-0.00045287397752197,0.000452877999437,-0.00045287345586436,0.00045287747784151,-0.00075811837908241,0.00075812141505876,-0.00075811812638153,0.00075812116238257,-0.00077427964367723,0.00077428175509863,-0.00077427956610493,0.00077428167738516,-0.00077427988219326,0.00077428152562327,-0.00077427980408357,0.00077428144739628,-0.00063806538319437,0.00063806759125987,-0.00063806516363308,0.00063806737167516,-0.00063806516650388,0.00063806780791803,-0.00063806494707325,0.00063806758846425,-0.00045287461693181,0.00045287736287618,-9.5977345310924e-12,6.0091678583115e-10,1.5493982045955e-10,4.3419577214662e-10,-0.00094125530329739,0.00094125588463521,-0.00093013211285882,0.00093013277047319,-0.00084849964601587,0.00084849955101472,-0.00084849893744012,0.00084850002878395,-0.00097452900188453,0.00097452926652922,-0.00097452902783658,0.00097452947883241,-0.00097452863748566,0.00097452932970461,-0.00097452866340772,0.00097452954198694,-0.000930132391366,0.00093013290742671,-0.00093013178086795,0.00093013284240103,-0.00084849969913163,0.00084849979129189,-0.00084849899058954,0.00084850026908559,-0.00093013272337698,0.00093013283551872,4.1447374612627e-11,4.1441377281135e-11,-0.0006843390737856,0.00068433928793304,1.6069755846166e-10,-1.1880330494941e-10,-0.00063874602919902,0.00063874620436367,-0.00058412720626617,0.00058412758812086,-0.00058412723941716,0.00058412762126587,-0.0006387454220057,0.0006387461358649,-0.00063874574896413,0.00063874646283432,-0.00058412694250546,0.00058412786544362,-0.00058412697437856,0.00058412789731138,-0.00078496503772019,0.00078496485475782,-0.00078496512716473,0.0007849647577983,-0.00078496498517735,0.00078496480222671,-0.00078496507594165,0.00078496470658517,-0.00077197634741656,0.00077197621257408,-0.00077197658149805,0.00077197644666739,-0.00077197648349797,0.00077197653457044,-0.00077197625622017,0.00077197630728004,-0.00063874568262158,0.00063874585777477,0.71778069434109,123579,2954,0.0028631207418276,0.0039139137437401,0.0028475246872011,13.951473493892,2.6811787951135e-05,2.6811787951135e-05,2.6811787951135e-05,4194256.5121187,0.0096712097780116
22391759,0.57333651048248,0.010233108823273,0.0031520815899941,0.0039459836998333,0.0031350435334453,-0.0007137675147602,0.00071376789280877,2.4448073792833e-10,2.44474073029e-10,7.7830200290806e-10,-2.6577111669835e-10,-0.0004638365268062,0.00046383677659521,-0.00078948260899558,0.00078948212007748,-0.0007894825514894,0.00078948206259345,-0.0004638358584797,0.00046383808251523,-0.00046383553951668,0.00046383776361376,-0.00078948157665565,0.00078948315212377,-0.00078948151899861,0.00078948309449123,-0.00080514659883777,0.00080514705614267,-0.00080514659921852,0.00080514705638195,-0.00080514696161432,0.00080514669766312,-0.00080514696191201,0.00080514669784329,-0.000660251965483,0.0006602522112262,-0.00066025180687564,0.00066025205259285,-0.00066025162691737,0.00066025255196588,-0.0006602514674311,0.0006602523924539,-0.00046383684443653,0.00046383709416339,-1.4221354648113e-10,8.2647379792514e-10,2.2294627324733e-10,4.5456756333179e-10,-0.0009853772687224,0.0009853779387048,-0.00097391396725736,0.00097391454429139,-0.00088585930512234,0.00088585896757931,-0.00088585837554835,0.00088585992446298,-0.0010210937915403,0.0010210940328201,-0.0010210938602684,0.0010210942534241,-0.0010210933332146,0.0010210942585667,-0.0010210934019126,0.0010210944791498,-0.00097391396358193,0.00097391473601705,-0.00097391355358262,0.00097391477917576,-0.00088585932823766,0.00088585914528584,-0.00088585839869764,0.00088586010219422,-0.00097391437727714,0.00097391450115281,-6.5855412463825e-11,-6.5861418659016e-11,-0.00070970893994202,0.00070970857575189,-1.3287252318857e-12,-2.3076726122593e-10,-0.00066160106736363,0.00066160082169225,-0.00060291539097832,0.00060291508323375,-0.00060291538326653,0.00060291507551606,-0.00066160065287654,0.00066160085437731,-0.00066160082477516,0.00066160102628786,-0.00060291517774791,0.00060291531567063,-0.00060291516161987,0.00060291529953724,-0.00081684685760099,0.00081684646022289,-0.00081684693186949,0.00081684638231944,-0.00081684685966216,0.00081684646229583,-0.0008168469318172,0.00081684638227706,-0.00080377451305501,0.00080377423588559,-0.00080377461085298,0.00080377433369683,-0.0008037745251368,0.00080377440114785,-0.00080377444176481,0.00080377431776189,-0.00066160086065044,0.00066160061496653,0.72672675753194,123579,2954,0.0029700769870516,0.0040969781770862,0.002952951635459,14.800893045374,3.3607144362994e-05,3.3607144362994e-05,3.3607144362994e-05,4268525.7342665,0.010070577634028
22891759,0.59685135056298,0.010610841977494,0.0032593100112028,0.0041104933575937,0.0032410386086976,-0.00073713103718762,0.00073713150783284,2.7717769969095e-10,2.7717107171696e-10,8.7745707367106e-10,-3.0580242240179e-10,-0.00047048065882786,0.00047048086708254,-0.00081745445353674,0.00081745389380929,-0.00081745438749443,0.00081745382778904,-0.00047047985476196,0.0004704823173843,-0.00047047953243222,0.00047048199511572,-0.00081745328479702,0.00081745506520039,-0.00081745321869373,0.00081745499912147,-0.00083467226208777,0.00083467283065961,-0.00083467225997922,0.00083467282840932,-0.00083467266911895,0.0008346724261087,-0.00083467266686281,0.00083467242373483,-0.00067923895647211,0.00067923923408125,-0.00067923879717072,0.00067923907475266,-0.0006792385717198,0.00067923962135319,-0.00067923841171595,0.00067923946132251,-0.00047048098009358,0.00047048118828618,-1.9434699374451e-10,9.1423587242018e-10,2.4977516955473e-10,4.6137060635644e-10,-0.0010284045526668,0.0010284052564844,-0.0010160298217083,0.0010160303661558,-0.00092176040993962,0.00092175997546017,-0.00092175933641368,0.00092176106551137,-0.0010667568038516,0.0010667570402799,-0.0010667568878414,0.0010667572635208,-0.0010667563075923,0.0010667573173029,-0.001066756391552,0.0010667575405229,-0.0010160297344486,0.0010160306062823,-0.0010160293632895,0.0010160306488672,-0.00092176044239593,0.00092176014930982,-0.00092175936890426,0.00092176123938599,-0.0010160301928879,0.0010160303235909,-5.488981819785e-11,-5.4895911508027e-11,-0.00073274290635175,0.00073274259617632,1.4053692286995e-12,-2.0839531563674e-10,-0.00067992794970811,0.00067992776712154,-0.00061784544889822,0.00061784521967083,-0.00061784544393727,0.00061784521470409,-0.00067992755099083,0.00067992777583908,-0.00067992772720138,0.00067992795206235,-0.00061784525452919,0.00061784543199067,-0.00061784524145369,0.00061784541890984,-0.00084738262865192,0.00084738224774075,-0.00084738269651292,0.00084738217633343,-0.00084738262976644,0.00084738224886707,-0.0008473826957047,0.00084738217553514,-0.00083335447533052,0.00083335422547723,-0.00083335458797638,0.00083335433813692,-0.00083335450895876,0.00083335439908949,-0.00083335441037007,0.00083335430048641,-0.00067992773956145,0.0006799275569616,0.68736650340388,123579,2954,0.0030671947634452,0.0042754616507292,0.0030486705187108,15.34109297413,3.7928743793042e-05,3.7928743793042e-05,3.7928743793042e-05,4325117.1619038,0.010445735347081
23391759,0.62023140627075,0.01099615689635,0.0033685920090205,0.0042785175285413,0.0033490473587882,-0.00076128083605255,0.00076128148011102,3.4900917495045e-10,3.4900261434205e-10,9.6358239936619e-10,-2.5356312405591e-10,-0.00048303800352304,0.00048303835170501,-0.0008474218323483,0.0008474213857202,-0.00084742175409198,0.00084742130748658,-0.00048303717244058,0.00048303984672265,-0.00048303684159635,0.00048303951594024,-0.00084742062971566,0.00084742259181667,-0.00084742055149044,0.00084742251361486,-0.0008632446312464,0.00086324536265083,-0.00086324462430609,0.00086324535556882,-0.00086324504887201,0.00086324494715071,-0.00086324504172899,0.0008632449398897,-0.00070002710783482,0.0007000275334156,-0.00070002694554526,0.00070002737109715,-0.00070002671171188,0.00070002793206827,-0.00070002654885754,0.00070002776918549,-0.00048303833353559,0.000483038681657,-2.1051000160807e-10,9.3344476600976e-10,2.5316779942692e-10,4.60455144382e-10,-0.0010696610426004,0.0010696617489851,-0.0010551930938145,0.0010551936249019,-0.00095537302088932,0.00095537255520802,-0.00095537190941595,0.00095537367816092,-0.0011121418243974,0.0011121420541062,-0.0011121419144397,0.0011121422810586,-0.0011121413194626,0.0011121423432548,-0.0011121414094742,0.0011121425701861,-0.0010551929766335,0.0010551938667062,-0.001055192622322,0.0010551939175329,-0.00095537305678727,0.00095537272973942,-0.00095537194534834,0.00095537385271698,-0.0010551934481472,0.0010551935740957,-4.444100632835e-11,-4.4447087859476e-11,-0.00075638137279449,0.00075638111859589,1.055937458012e-11,-1.9528768777901e-10,-0.00070198520426236,0.00070198506816669,-0.0006365233675825,0.00063652320425951,-0.00063652336586593,0.00063652320253705,-0.00070198480616225,0.00070198506870562,-0.00070198498670997,0.00070198524926647,-0.00063652317682981,0.00063652341202865,-0.00063652316752446,0.00063652340271797,-0.00087711570667282,0.00087711534853094,-0.00087711577323102,0.00087711527831759,-0.00087711570435202,0.00087711534622162,-0.00087711576925995,0.00087711527435642,-0.00086160839601017,0.00086160816791234,-0.00086160852143897,0.000861608293356,-0.00086160844407895,0.00086160835322951,-0.000861608332114,0.00086160824125063,-0.00070198499097023,0.00070198485485981,0.70578151981238,123579,2954,0.0031675579619228,0.0044465686750479,0.003146883397515,15.634046780175,4.0272374241398e-05,4.0272374241398e-05,4.0272374241398e-05,4440462.8222844,0.010819365272363
23891759,0.64496900326858,0.011426588957716,0.0034902920886076,0.0044664026376496,0.0034698942314592,-0.00078889317005725,0.0007888926150786,-1.8780534920491e-10,-1.8781193029798e-10,5.6815199905231e-10,-9.2119964301266e-10,-0.00049035876189009,0.00049035756581231,-0.00088229758164176,0.00088229576340378,-0.00088229762601143,0.00088229580779516,-0.00049035755525665,0.00049035919535467,-0.00049035734591987,0.00049035898607853,-0.00088229611985334,0.00088229723461388,-0.00088229616371439,0.00088229727849872,-0.0008974779776931,0.00089747770758838,-0.00089747802029571,0.00089747775004883,-0.00089747848450467,0.0008974771992671,-0.00089747852714937,0.00089747724179373,-0.00072354586756919,0.00072354508756994,-0.00072354574399299,0.00072354496396227,-0.00072354538327482,0.00072354557601854,-0.00072354525860657,0.00072354545131901,-0.00049035896939784,0.00049035777325885,-2.9572109171776e-10,1.1079883224857e-09,3.1679766519585e-10,4.8234574293336e-10,-0.0011208490686957,0.0011208498609884,-0.0011083717984455,0.001108372285849,-0.00099963837163088,0.00099963775410791,-0.0009996370713288,0.00099963919676857,-0.0011643554785537,0.0011643557169371,-0.001164355614355,0.0011643559604862,-0.0011643549145184,0.0011643561288265,-0.0011643550502894,0.0011643563723544,-0.0011083714801434,0.0011083725841353,-0.0011083712693115,0.0011083726972465,-0.00099963839573702,0.00099963788860107,-0.00099963709546974,0.00099963933128726,-0.0011083720092985,0.0011083721727585,-1.0264484602041e-10,-1.0265097862351e-10,-0.00078365727143106,0.00078365669580535,-8.4424505404017e-11,-2.471781091652e-10,-0.00072592398479341,0.00072592363328719,-0.00065466851684411,0.00065466798235929,-0.00065466849221769,0.00065466795772709,-0.00072592371487151,0.00072592368113479,-0.00072592380268231,0.00072592376896022,-0.00065466836913321,0.00065466815019673,-0.00065466833268801,0.00065466811374616,-0.00091245903449884,0.00091245855164471,-0.00091245908762204,0.00091245849717555,-0.00091245906897406,0.00091245858613171,-0.00091245911842643,0.00091245852798987,-0.00089893876694127,0.00089893846858371,-0.0008989388232146,0.00089893852487282,-0.00089893875750876,0.00089893856802899,-0.00089893871931769,0.00089893852982176,-0.00072592385513586,0.00072592350361418,0.7456951107065,123579,2954,0.0032823259077569,0.0046588219666944,0.0032602157355908,16.930856452059,5.0646851616469e-05,5.0646851616469e-05,5.0646851616469e-05,4438192.7615077,0.011264603451598
24391759,0.67027044728762,0.011857180695883,0.0036111471124608,0.0046562443295171,0.0035897892539049,-0.00081470474743343,0.00081470431953359,-1.4115318235246e-10,-1.4115907696651e-10,6.6799928737442e-10,-9.3249640922773e-10,-0.00049302822050044,0.00049302703581161,-0.00091437873857036,0.00091437690668557,-0.00091437877586629,0.00091437694400349,-0.00049302689890882,0.00049302877631408,-0.00049302669251788,0.00049302856998557,-0.00091437716779488,0.00091437848971523,-0.00091437720472117,0.00091437852666553,-0.00093109183968733,0.00093109170130029,-0.0009310918803547,0.00093109174182565,-0.00093109238166808,0.00093109115631731,-0.00093109242229578,0.00093109119682708,-0.00074449962270479,0.00074449891098987,-0.00074449950062124,0.00074449878887432,-0.00074449910143317,0.00074449943674291,-0.0007444989784748,0.00074449931375278,-0.00049302842544199,0.00049302724069006,-3.3225223208414e-10,1.1835954357145e-09,3.4768188614527e-10,4.8871302429963e-10,-0.0011726696829552,0.0011726705127983,-0.0011623734479178,0.0011623739113958,-0.0010443918152727,0.001044391133465,-0.0010443903924252,0.0010443926758469,-0.0012167564045146,0.0012167566530844,-0.0012167565617259,0.0012167569024934,-0.0012167558165008,0.0012167571104782,-0.0012167559736816,0.001216757359866,-0.0011623730560879,0.001162374258134,-0.0011623728860777,0.0011623743638823,-0.0010443918506496,0.0010443912630507,-0.0010443904278371,0.0010443928054583,-0.001162373617949,0.001162373805668,-8.7950519995515e-11,-8.7957390329749e-11,-0.00080906925053297,0.00080906874290903,-7.868766307973e-11,-2.1736042974396e-10,-0.00074527157510714,0.00074527129430331,-0.00066879080835686,0.00066879037253463,-0.00066879078753213,0.00066879035170436,-0.00074527132986255,0.00074527131832398,-0.00074527141791207,0.00074527140639004,-0.00066879068375408,0.00066879051583641,-0.00066879065182033,0.00066879048389757,-0.00094718010746813,0.00094717964971104,-0.00094718015258532,0.00094717960307571,-0.00094718014200851,0.00094717968426276,-0.00094718018382678,0.00094717963432662,-0.00093541178425862,0.00093541152212012,-0.00093541185663516,0.00093541159451355,-0.00093541179929085,0.00093541162985248,-0.00093541174430018,0.00093541157484453,-0.0007452714468988,0.00074527116607777,0.72902889017127,123579,2954,0.0033896239211998,0.0048736432723764,0.0033658069430596,17.854402721908,5.8035221775263e-05,5.8035221775263e-05,5.8035221775263e-05,4418769.0621349,0.011697257862479
24891759,0.69518657498442,0.012257537970309,0.0037232867612966,0.0048338773608544,0.0037003738481583,-0.00083840910721522,0.00083840908781058,3.5588364520481e-11,3.558238215912e-11,8.2352971667363e-10,-7.3921545535761e-10,-0.00050081703922559,0.00050081632595407,-0.00094362573477189,0.00094362430520542,-0.00094362573771826,0.00094362430817337,-0.00050081577788011,0.00050081806128633,-0.00050081554418342,0.00050081782765121,-0.00094362419920736,0.00094362585302063,-0.0009436242019754,0.00094362585581248,-0.00096091053659626,0.00096091074634021,-0.00096091056486121,0.00096091077446293,-0.00096091106577069,0.0009609102145052,-0.00096091109389651,0.00096091024251274,-0.0007637463291573,0.00076374600435476,-0.00076374620085846,0.00076374587602248,-0.00076374581997776,0.00076374651780566,-0.00076374569103826,0.00076374638883305,-0.00050081727189417,0.00050081655856006,-3.1681728317006e-10,1.1641940703982e-09,3.4427922247666e-10,4.8821546549971e-10,-0.0012181761158525,0.0012181769418815,-0.0012062831166524,0.0012062835911501,-0.0010815443396377,0.001081543686616,-0.0010815429279211,0.0010815451729092,-0.0012658913330928,0.0012658915903947,-0.0012658914940731,0.0012658918462824,-0.0012658907590242,0.0012658920339494,-0.0012658909199737,0.0012658922898158,-0.001206282752023,0.0012062839353049,-0.0012062825617446,0.0012062840261976,-0.0010815443836623,0.0010815438269739,-0.001081542971981,0.0010815453132932,-0.001206283306952,0.0012062835002784,-6.53906938886e-11,-6.5397505125374e-11,-0.00083205796237787,0.00083205757850757,-4.811288363296e-11,-1.9026132899994e-10,-0.00076346733005964,0.00076346714632785,-0.0006838471229855,0.00068384684017198,-0.00068384710989004,0.00068384682707115,-0.00076346705939904,0.00076346715005336,-0.00076346717161326,0.00076346726228467,-0.00068384699466405,0.00068384698588843,-0.00068384697167375,0.00068384696289297,-0.00097822626149864,0.00097822585156594,-0.00097822630760788,0.00097822580337763,-0.00097822628824152,0.00097822587832043,-0.00097822633166849,0.00097822582744788,-0.00096504904027166,0.00096504881364963,-0.000965049139303,0.00096504891269761,-0.00096504908154988,0.00096504894979317,-0.00096504899858321,0.00096504886680937,-0.00076346718024688,0.00076346699649741,0.68841299877358,123579,2954,0.0034881400971666,0.0050622434188985,0.0034613090260591,18.325643367076,6.1805146936611e-05,6.1805146936611e-05,6.1805146936611e-05,4483732.3288977,0.012084455158852
25391759,0.7211888439412,0.012704715390463,0.0038486687497129,0.0050316124255413,0.0038244342152093,-0.00086748344092774,0.00086748206339317,-5.7277557861395e-10,-5.7278144096427e-10,3.782618267432e-10,-1.4981651474949e-09,-0.00051557324611966,0.00051557079105087,-0.00098065548907415,0.00098065250034112,-0.00098065563096685,0.00098065264225533,-0.00051557157671839,0.00051557270607866,-0.00051557145848148,0.00051557258790281,-0.00098065365483428,0.00098065435405069,-0.000980653795991,0.00098065449523095,-0.00099512465537562,0.00099512373349796,-0.0009951247404702,0.00099512381845019,-0.00099512528733328,0.00099512309463113,-0.0009951253725542,0.00099512317973384,-0.00078919064390517,0.00078918894858879,-0.00078919055393617,0.00078918885858507,-0.00078919003330428,0.00078918956549533,-0.00078918994210883,0.00078918947426535,-0.0005155733622657,0.00051557090713494,-4.0734049232169e-10,1.3724728951452e-09,4.2655397033371e-10,5.1903809597774e-10,-0.0012696413844021,0.0012696423240091,-0.0012570162886125,0.001257016724258,-0.0011245411764642,0.0011245403649217,-0.0011245395462871,0.0011245422178247,-0.0013210582617454,0.0013210585448342,-0.0013210584821436,0.0013210588243099,-0.0013210576209745,0.0013210591306878,-0.0013210578413418,0.001321059410142,-0.0012570157007078,0.0012570171481188,-0.0012570156680826,0.0012570172965185,-0.0011245412122612,0.0011245404623204,-0.0011245395821198,0.0011245423152495,-0.0012570163212591,0.0012570165758791,-1.2791169845894e-10,-1.2791868601018e-10,-0.00086039284876195,0.0008603921034034,-1.561745177698e-10,-2.4533609165081e-10,-0.00079052982859566,0.00079052941958539,-0.00070594781019469,0.00070594711530781,-0.00070594777130926,0.00070594707641704,-0.0007905296967504,0.00079052946227054,-0.00079052971418895,0.00079052947972707,-0.00070594773488717,0.00070594721177995,-0.00070594768134939,0.00070594715823719,-0.0010138361850462,0.00101383563364,-0.001013836214515,0.0010138356046764,-0.0010138362547526,0.0010138357033579,-0.001013836279224,0.001013835669395,-0.0010008142642731,0.0010008139653022,-0.0010008142829383,0.0010008139839842,-0.0010008142396465,0.0010008140006134,-0.0010008142424319,0.0010008140033817,-0.00079052976282958,0.00079052935380065,0.73709758518414,123579,2954,0.0036089394073304,0.0052755013354198,0.0035789991585839,19.829632242634,7.3837057941073e-05,7.3837057941073e-05,7.3837057941073e-05,4558454.1380411,0.012541777985846
25891759,0.74701411548196,0.01314939260002,0.0039725519204961,0.0052295364758981,0.0039473042036263,-0.00089242051994662,0.00089241959607715,-3.7993141326789e-10,-3.7993669468007e-10,5.6731493677104e-10,-1.3082616757391e-09,-0.00051287927966073,0.00051287728469555,-0.001012306791346,0.0010123042018718,-0.0010123068974354,0.0010123043079829,-0.00051287762627292,0.00051287922797217,-0.00051287748623848,0.00051287908800092,-0.0010123049556729,0.001012306057528,-0.0010123050612999,0.0010123061631786,-0.0010292908455374,0.00102929031879,-0.0010292909166605,0.0010292903897709,-0.0010292914763082,0.0010292896812124,-0.0010292915474147,0.0010292897522008,-0.00080854276330947,0.0008085414764331,-0.00080854266850066,0.00080854138158945,-0.00080854215219949,0.00080854209356624,-0.00080854205651798,0.00080854199785008,-0.00051287941824499,0.00051287742321575,-4.0940195940411e-10,1.374163304144e-09,4.3172743772901e-10,5.1327152299553e-10,-0.0013251409277256,0.0013251418669288,-0.0013165719468167,0.0013165723707712,-0.0011731317604412,0.001173130947564,-0.0011731300979574,0.0011731327775187,-0.0013757824190566,0.0013757827074538,-0.0013757826500279,0.0013757829913321,-0.0013757817852143,0.0013757832949241,-0.0013757820161546,0.0013757835787806,-0.001316571348977,0.0013165728069206,-0.001316571323866,0.0013165729411234,-0.0011731318090791,0.0011731310507732,-0.0011731301466315,0.0011731328807544,-0.0013165719719487,0.0013165722365888,-9.8453952799324e-11,-9.8461552504658e-11,-0.00088478000064158,0.00088477940821017,-1.2425096517419e-10,-2.032673434913e-10,-0.00080692149291916,0.00080692120285904,-0.00071631049477674,0.00071630999593551,-0.00071631046582219,0.00071630996697567,-0.00080692135140414,0.00080692121381476,-0.00080692139197923,0.00080692125440935,-0.00071631042864102,0.00071631008092057,-0.0007163103871121,0.00071631003938669,-0.0010491054762035,0.0010491049872455,-0.0010491055019935,0.0010491049610311,-0.0010491055372396,0.0010491050482927,-0.0010491055590453,0.001049105018092,-0.0010392396607558,0.0010392394156889,-0.0010392397112853,0.0010392394662358,-0.0010392396726107,0.0010392394805011,-0.0010392396413599,0.0010392394492326,-0.00080692140870601,0.00080692111862576,0.73853822446995,123579,2954,0.00371261735129,0.0055054111261801,0.0036803331085879,20.751109259975,8.1208874079803e-05,8.1208874079803e-05,8.1208874079803e-05,4478892.182491,0.012982295215114
26391759,0.77053768123807,0.013570383164389,0.0040898280118442,0.005417156130999,0.0040633990215458,-0.00091434853903468,0.00091434926066549,3.5195551732407e-10,3.5195020192763e-10,1.1367609229106e-09,-4.278585848904e-10,-0.00051520545462158,0.00051520550551767,-0.0010415506179614,0.0010415498432904,-0.0010415505709893,0.0010415497963395,-0.00051520419798133,0.00051520726920124,-0.00051520394866943,0.00051520701995272,-0.0010415490778682,0.0010415513980302,-0.0010415490310963,0.0010415513512815,-0.0010578581404159,0.0010578589997663,-0.0010578581510083,0.0010578590102163,-0.0010578586688473,0.0010578584684879,-0.0010578586790891,0.0010578584786115,-0.00082650857228331,0.00082650892086588,-0.00082650844671719,0.0008265087952638,-0.00082650806170847,0.00082650943564469,-0.000826507936022,0.00082650930992251,-0.00051520570382387,0.00051520575465565,-3.1074827341238e-10,1.1771866190363e-09,3.6190794022556e-10,4.8845882959452e-10,-0.0013729862235684,0.0013729870679096,-0.0013667064187682,0.0013667068928423,-0.0012138560088439,0.0012138553724908,-0.0012138545463904,0.0012138568247809,-0.001424484046589,0.0014244843304225,-0.0014244842335892,0.0014244846025108,-0.0014244834876729,0.0014244847818125,-0.0014244836746417,0.001424485053879,-0.0013667060495619,0.0013667072689428,-0.0013667058603142,0.0013667073262644,-0.0012138560739588,0.0012138555227424,-0.0012138546115418,0.0012138569750595,-0.0013667066080368,0.0013667068355408,-2.138632869175e-11,-2.1393870711347e-11,-0.00090574831669731,0.0009057481746337,3.2968610331585e-12,-1.2267638392362e-10,-0.00082321472437807,0.00082321473731621,-0.000727641780649,0.00072764182417766,-0.00072764178131937,0.00072764182484251,-0.00082321444798381,0.00082321469999668,-0.00082321458641465,0.00082321483844767,-0.00072764166727458,0.00072764195180295,-0.00072764166059829,0.00072764194512132,-0.0010787729466462,0.00107877263327,-0.0010787729870776,0.0010787725896588,-0.0010787729649666,0.0010787726516016,-0.0010787730040315,0.0010787726066219,-0.0010710760296087,0.001071075883888,-0.0010710761783917,0.0010710760326879,-0.0010710761275533,0.0010710760655781,-0.0010710759920916,0.0010710759300993,-0.00082321455391937,0.0008232145668367,0.76614364816826,123579,2954,0.0038037761296142,0.0057035581705407,0.0037674459407903,20.418312903854,7.854650323083e-05,7.854650323083e-05,7.854650323083e-05,4477373.0421411,0.01336369595705
26891759,0.79341628413533,0.013969551174036,0.0042007975902738,0.0055958540374817,0.0041728995462805,-0.00093609201461234,0.00093609127466327,-2.9935262027705e-10,-2.9935844602555e-10,5.7218559371111e-10,-1.1508922070037e-09,-0.00051384331000743,0.0005138416383693,-0.0010693297188891,0.0010693274491362,-0.0010693298274789,0.0010693275577469,-0.0005138417964239,0.00051384342159586,-0.00051384166576148,0.00051384329099578,-0.0010693280318127,0.0010693291542673,-0.0010693281399086,0.0010693292623859,-0.001087484596835,0.001087484193676,-0.0010874846686139,0.0010874842653121,-0.001087485178696,0.0010874836069409,-0.0010874852504712,0.0010874836785974,-0.00084345957250505,0.00084345850688989,-0.00084345948623179,0.00084345842057918,-0.00084345901168674,0.00084345907327404,-0.00084345892450946,0.00084345898605946,-0.0005138434392359,0.00051384176753443,-3.6025344687213e-10,1.2719582793859e-09,3.9520772996925e-10,4.983591411468e-10,-0.0014223979479587,0.0014223988356947,-0.0014190534194447,0.0014190538639716,-0.0012565284306412,0.0012565277074983,-0.0012565269139206,0.001256529384695,-0.0014737291585661,0.0014737294392661,-0.0014737293859918,0.0014737297338543,-0.0014737285745577,0.0014737299755073,-0.0014737288019519,0.0014737302700735,-0.0014190529002235,0.0014190542352131,-0.001419052844949,0.0014190543815515,-0.0012565284718353,0.001256527817588,-0.0012565269551517,0.0012565294948117,-0.0014190534747396,0.0014190537176531,-9.7716920079873e-11,-9.7724019829892e-11,-0.00092644323281675,0.00092644266396632,-1.1080592079342e-10,-2.1150056593524e-10,-0.00083625359647382,0.00083625329122804,-0.00073622475642414,0.00073622426824763,-0.00073622472996959,0.00073622424178715,-0.00083625344141315,0.00083625333122772,-0.00083625347543115,0.00083625336526503,-0.0007362246686892,0.00073622437417637,-0.00073622463049515,0.00073622433597667,-0.0011093228332042,0.0011093223662343,-0.001109322866045,0.0011093223326385,-0.001109322893037,0.0011093224260786,-0.0011093229222289,0.0011093223888319,-0.0011038292779449,0.0011038290298279,-0.0011038293339093,0.0011038290858081,-0.0011038292885163,0.0011038291077903,-0.001103829251057,0.0011038290703149,-0.00083625352056077,0.00083625321529513,0.74659954531439,123579,2954,0.0038941770176784,0.0059081473862225,0.0038534324803879,21.226316465315,8.5010531722517e-05,8.5010531722517e-05,8.5010531722517e-05,4421961.4294879,0.013749876816471
27391759,0.81567777204248,0.014353121364338,0.0043077169081585,0.0057674422859794,0.0042779621702005,-0.0009579970312821,0.0009579959210351,-4.6852137303778e-10,-4.6852724606424e-10,4.7335014809554e-10,-1.3889233850499e-09,-0.00051949766378282,0.00051949546293756,-0.0010974647938805,0.0010974620396743,-0.0010974649444693,0.0010974621902837,-0.0005194959908194,0.00051949735433043,-0.00051949588640901,0.00051949724998186,-0.0010974629729765,0.0010974638818785,-0.0010974631229596,0.001097464031884,-0.0011154452783967,0.0011154445799351,-0.0011154453677011,0.0011154446690964,-0.0011154459054195,0.0011154439462113,-0.0011154459947693,0.0011154440354424,-0.00086130522252307,0.0008613037607304,-0.00086130514685658,0.00086130368502594,-0.0008613046162905,0.00086130437325998,-0.00086130453962104,0.00086130429655265,-0.00051949776658967,0.00051949556568156,-4.0315042506066e-10,1.3637279991046e-09,4.3141476145753e-10,5.088460837779e-10,-0.0014683726629487,0.0014683735976192,-0.0014651841419042,0.0014651845625986,-0.0012949683513678,0.0012949675527967,-0.0012949667234954,0.0012949693836944,-0.0015218152671128,0.0015218155574739,-0.0015218155239439,0.0015218158641317,-0.0015218146539771,0.0015218161553307,-0.0015218149107765,0.0015218164619661,-0.0014651835295088,0.001465184981304,-0.0014651835352213,0.0014651851384001,-0.0012949683961695,0.0012949676492897,-0.0012949667683344,0.0012949694802147,-0.0014651841362121,0.0014651844055223,-1.106778470148e-10,-1.1068491485036e-10,-0.00094710702868662,0.00094710637045786,-1.4346383529302e-10,-2.1810034347833e-10,-0.00085203238892596,0.00085203204377863,-0.00074841541801427,0.00074841483511106,-0.00074841538504551,0.00074841480213633,-0.00085203228070339,0.00085203208029961,-0.00085203229162844,0.00085203209124432,-0.00074841535593561,0.0007484149159366,-0.00074841531017338,0.00074841487016867,-0.001138261535846,0.0011382610355419,-0.0011382615602867,0.0011382610110116,-0.0011382616089656,0.001138261108673,-0.0011382616292325,0.001138261079967,-0.0011332008418638,0.0011332005876442,-0.0011332008779697,0.0011332006237656,-0.0011332008404401,0.0011332006363182,-0.0011332008241544,0.0011332006200165,-0.000852032333633,0.00085203198846553,0.73661848560559,123579,2954,0.0039852172960302,0.0060984613981846,0.0039392636586008,22.212922741592,9.2903381932737e-05,9.2903381932737e-05,9.2903381932737e-05,4421803.5553101,0.014122204908424
27891759,0.8366972565766,0.014724792005459,0.0044113615807895,0.0059335386451736,0.0043798917794962,-0.00097802119347708,0.00097802047037755,-2.987799404632e-10,-2.9878568567004e-10,6.2372622265087e-10,-1.2039995456698e-09,-0.00052192232499511,0.00052192056362052,-0.0011237746929642,0.0011237723241746,-0.0011237748110135,0.0011237724422444,-0.00052192070227321,0.00052192244690492,-0.00052192057689002,0.00052192232158365,-0.0011237729040042,0.0011237741342606,-0.0011237730216342,0.0011237742519127,-0.0011417637138821,0.0011417633513867,-0.0011417637908577,0.0011417634282193,-0.0011417643291463,0.0011417627298424,-0.0011417644060673,0.0011417628066446,-0.00087733777016864,0.0008773366774165,-0.00087733769073447,0.00087733659794424,-0.00087733717483013,0.00087733727876101,-0.00087733709463241,0.00087733719852529,-0.00052192244918268,0.00052192068774503,-3.9201215594478e-10,1.343606089793e-09,4.2729225095622e-10,5.0412941489831e-10,-0.0015131226906962,0.0015131236165758,-0.0015113321799609,0.0015113326021961,-0.0013330039731678,0.0013330031960048,-0.0013330023558875,0.0013330049773442,-0.0015676017827858,0.0015676020769987,-0.0015676020415417,0.001567602385952,-0.0015676011817142,0.0015676026612647,-0.0015676014404381,0.0015676029701955,-0.0015113315937029,0.0015113330263475,-0.0015113315790936,0.001511333161708,-0.0013330040269393,0.0013330033012582,-0.0013330024096967,0.0013330050826252,-0.0015113321945904,0.0015113324668552,-8.9403645632936e-11,-8.9410863489642e-11,-0.00096592211117748,0.00096592156988115,-1.15205374849e-10,-1.8984365533311e-10,-0.00086583954534925,0.00086583929205838,-0.00075808135167516,0.00075808092339422,-0.0007580813255976,0.0007580808973107,-0.00086583942098623,0.00086583931076687,-0.00086583945040331,0.00086583934020426,-0.00075808128923131,0.00075808100322505,-0.00075808125166069,0.00075808096564873,-0.0011654504435838,0.0011654499901027,-0.0011654504678247,0.0011654499651311,-0.0011654505091518,0.0011654500556822,-0.0011654505298844,0.0011654500272004,-0.0011619106588082,0.00116191043901,-0.0011619107184489,0.0011619104986663,-0.0011619106817507,0.0011619105118981,-0.0011619106404708,0.0011619104706022,-0.00086583947443425,0.00086583922112266,0.75594140950549,123579,2954,0.0040684573547321,0.0062836652735392,0.0040174270353442,22.881129820616,9.8249038564931e-05,9.8249038564931e-05,9.8249038564931e-05,4394629.6543519,0.014473796171432
28391759,0.85620796319883,0.015082433721416,0.0045110907076405,0.0060932953825258,0.0044780476312498,-0.00099589554874948,0.00099589500842333,-2.1877857947928e-10,-2.1878444310897e-10,6.7822694080898e-10,-1.0996286110419e-09,-0.00051777955578863,0.00051777802880416,-0.0011475993350529,0.0011475971821421,-0.0011475994416487,0.0011475972887582,-0.0005177779846489,0.00051777986925603,-0.00051777785466149,0.00051777973933067,-0.0011475975939525,0.0011475989437039,-0.0011475977001816,0.001147599049955,-0.001167008105977,0.0011670078930368,-0.001167008178519,0.0011670079654354,-0.0011670087050113,0.0011670072883922,-0.0011670087774653,0.0011670073607271,-0.00089097916977506,0.00089097826220003,-0.00089097909177191,0.00089097818415831,-0.00089097859065486,0.00089097884704625,-0.00089097851197476,0.00089097876832758,-0.00051777968473203,0.00051777815768438,-3.780896847079e-10,1.3092699899211e-09,4.1435594762199e-10,4.9717542707315e-10,-0.0015578002730768,0.0015578011790754,-0.0015600396922989,0.0015600401169244,-0.0013721851641891,0.0013721844121388,-0.0013721835870498,0.0013721861390336,-0.001611047875252,0.0016110481646543,-0.0016110481343732,0.0016110484782347,-0.0016110472920385,0.0016110487326169,-0.0016110475511276,0.0016110490461746,-0.0015600391331566,0.0015600405237978,-0.00156003910634,0.0015600406585607,-0.0013721852197354,0.0013721845232035,-0.0013721836426343,0.0013721862501263,-0.0015600397191354,0.0015600399821808,-8.163189142234e-11,-8.1638977279401e-11,-0.00098246166831951,0.00098246117613382,-1.0137230169724e-10,-1.8226260501723e-10,-0.00087503209329999,0.00087503186846456,-0.00076284406927923,0.00076284370144061,-0.00076284404639167,0.00076284367854683,-0.00087503196196394,0.00087503189183053,-0.00087503199348189,0.00087503192336885,-0.00076284400046503,0.00076284378692467,-0.00076284396678709,0.00076284375324063,-0.0011913359388503,0.0011913355092824,-0.0011913359650618,0.0011913354820207,-0.0011913360019078,0.0011913355723515,-0.0011913360249471,0.0011913355419155,-0.0011910053505212,0.0011910051418042,-0.001191005419519,0.0011910052108171,-0.0011910053811947,0.001191005226531,-0.0011910053298052,0.0011910051751261,-0.00087503202188563,0.00087503179702956,0.78325232061433,123579,2954,0.0041428017797955,0.0064685280815941,0.0040861654449319,23.414488479476,0.00010251590783581,0.00010251590783581,0.00010251590783581,4311307.2463719,0.01480658310026
28891759,0.87415914217133,0.015406891493893,0.0046018998088312,0.0062379425475484,0.0045670491375138,-0.0010113550906997,0.0010113545534103,-2.1859643826416e-10,-2.1860233142236e-10,6.6120691508262e-10,-1.0817474717985e-09,-0.00051136400629879,0.00051136251070464,-0.0011681252902206,0.0011681231739043,-0.0011681254025385,0.0011681232862421,-0.00051136246526486,0.00051136431161353,-0.00051136233974274,0.00051136418615391,-0.0011681235832902,0.001168124900885,-0.0011681236952083,0.0011681250128247,-0.001189890675964,0.0011898904552645,-0.0011898907509017,0.0011898905300587,-0.0011898912638768,0.0011898898621923,-0.0011898913387381,0.0011898899369344,-0.00090217882361299,0.00090217792925222,-0.00090217874965196,0.00090217785525229,-0.00090217825603855,0.00090217850242001,-0.00090217818138354,0.00090217842772622,-0.00051136413075718,0.00051136263509949,-3.6852993886922e-10,1.2835530970398e-09,4.0339275359887e-10,4.9233452725344e-10,-0.0015991377194496,0.0015991386096514,-0.0016052259903957,0.0016052264170775,-0.001408310541922,0.0014083098066959,-0.0014083090024651,0.0014083115016091,-0.0016509492419181,0.0016509495253566,-0.0016509495048195,0.0016509498467573,-0.0016509486742528,0.0016509500853167,-0.0016509489371218,0.0016509504066946,-0.0016052254449201,0.0016052268020214,-0.0016052254186942,0.0016052269493683,-0.0014083105960339,0.001408309920373,-0.0014083090566156,0.0014083116153146,-0.0016052260166411,0.0016052262697495,-8.3138365150601e-11,-8.3145435993416e-11,-0.0009963212002832,0.0009963207044792,-1.0051184088814e-10,-1.8749443622515e-10,-0.00088012558176213,0.00088012534534552,-0.00076457354086226,0.00076457316350368,-0.00076457351808038,0.00076457314071537,-0.00088012545120113,0.0008801253815393,-0.00088012547619682,0.00088012540655534,-0.00076457346595909,0.00076457325488914,-0.00076457343253639,0.00076457322146023,-0.0012146459723718,0.0012146455470621,-0.0012146460005966,0.0012146455177611,-0.0012146460375824,0.0012146456122845,-0.0012146460626799,0.0012146455798541,-0.0012170116843514,0.0012170114726862,-0.0012170117519211,0.0012170115402706,-0.0012170117116352,0.0012170115580957,-0.0012170116615913,0.0012170115080367,-0.00088012551720123,0.00088012528076396,0.77096717256502,123579,2954,0.0042071301323553,0.0066395291035198,0.0041437828717918,23.939402274337,0.00010671521819469,0.00010671521819469,0.00010671521819469,4213610.1754492,0.01510395728775
29391759,0.89078369963691,0.015682495129561,0.0046795485438799,0.0063604140067501,0.0046425325789312,-0.0010251513199362,0.0010251503122607,-4.303355907931e-10,-4.3034154640527e-10,4.8752216423841e-10,-1.328355895198e-09,-0.00051107584915326,0.00051107378002349,-0.0011861560545051,0.0011861534305448,-0.0011861562201388,0.0011861535961982,-0.00051107421687503,0.00051107562214626,-0.00051107411648012,0.00051107552181333,-0.0011861542788521,0.0011861552278955,-0.0011861544438893,0.001186155392954,-0.0012093198560371,0.0012093192327479,-0.0012093199523694,0.0012093193289365,-0.0012093204681461,0.0012093186145421,-0.0012093205645024,0.0012093187107792,-0.00091219607383429,0.00091219471407381,-0.00091219600965453,0.00091219464985489,-0.00091219548288096,0.00091219531113013,-0.00091219541778531,0.00091219524599536,-0.00051107594814132,0.00051107387894856,-3.9097366092009e-10,1.3287196453798e-09,4.198314453787e-10,4.9751802290121e-10,-0.0016336377428848,0.001633638654813,-0.0016393973049145,0.0016393977191672,-0.0014367085428471,0.0014367077680185,-0.0014367069651716,0.0014367095565355,-0.0016870125126318,0.0016870127972503,-0.0016870127987087,0.0016870131336776,-0.0016870119349347,0.0016870133958091,-0.0016870122209788,0.0016870137322133,-0.0016393966957155,0.0016393981082961,-0.0016393967240841,0.0016393982884753,-0.0014367085927621,0.0014367078698207,-0.0014367070151256,0.0014367096583665,-0.001639397276565,0.001639397539007,-1.0468051683207e-10,-1.0468754735258e-10,-0.0010084906706863,0.0010084900402013,-1.3858535094501e-10,-2.1366285771695e-10,-0.00088600786728984,0.00088600754037526,-0.00076865798900958,0.00076865744125995,-0.0007686579584488,0.00076865741069251,-0.00088600777322759,0.00088600759142109,-0.00088600777106786,0.0008860075892817,-0.00076865792591946,0.00076865752178531,-0.00076865788354262,0.00076865747940214,-0.001234490986237,0.0012344905140269,-0.0012344910107306,0.0012344904891589,-0.0012344910659379,0.0012344905937396,-0.0012344910866632,0.0012344905651015,-0.0012365640714211,0.001236563835125,-0.0012365641116281,0.0012365638753463,-0.0012365640743837,0.0012365638884308,-0.0012365640532748,0.0012365638673065,-0.0008860078270537,0.00088600750011831,0.70574332860749,123579,2954,0.0042645100908303,0.0067822116293565,0.0041943523563882,24.73367279383,0.00011306938235064,0.00011306938235064,0.00011306938235064,4164727.5824364,0.01535844070708
29891759,0.90593704847064,0.015940301520484,0.0047524875232029,0.0064742855410487,0.0047135284562319,-0.0010391404838806,0.0010391396142839,-3.6953949205747e-10,-3.6954504069679e-10,5.5830185467334e-10,-1.279798472741e-09,-0.00052153799876205,0.00052153605835877,-0.0012053110125787,0.0012053084926522,-0.0012053111677047,0.0012053086477981,-0.00052153635143842,0.00052153793292814,-0.00052153624264464,0.00052153782419645,-0.0012053092147388,0.0012053103130354,-0.0012053093693428,0.001205310467661,-0.00122580456608,0.0012258040744161,-0.0012258046591908,0.0012258041673836,-0.0012258051850562,0.0012258034489824,-0.0012258052781511,0.0012258035419584,-0.00092400511410542,0.000924003876647,-0.00092400504907744,0.00092400381158046,-0.00092400451571539,0.00092400448123204,-0.0009240044498644,0.00092400441534256,-0.00052153810629712,0.00052153616583066,-3.9528743640192e-10,1.3473804475257e-09,4.2926832791195e-10,5.0180626569245e-10,-0.001662500171557,0.0016625010972629,-0.0016643609439781,0.0016643613593468,-0.001459132429565,0.0014591316477345,-0.0014591308223978,0.0014591334527143,-0.0017204098549811,0.001720410148118,-0.0017204101471129,0.0017204104875013,-0.0017204092720294,0.0017204107545825,-0.0017204095641285,0.0017204110939426,-0.0016643603335074,0.0016643617722961,-0.0016643603536865,0.0016643619340967,-0.0014591324853865,0.0014591317521,-0.0014591308782584,0.0014591335571084,-0.0016643609238185,0.0016643611975651,-9.6057820881862e-11,-9.6065269794009e-11,-0.0010213367076643,0.0010213361206916,-1.2894346689501e-10,-1.9913998248376e-10,-0.00089973510612953,0.00089973482421821,-0.00078001903182417,0.00078001855130627,-0.00078001900330709,0.00078001852278314,-0.00089973500761397,0.00089973486051576,-0.00089973501525989,0.00089973486818333,-0.00078001897343327,0.00078001862668449,-0.00078001893343939,0.00078001858668478,-0.0012516352151884,0.0012516347586293,-0.0012516352380143,0.0012516347352523,-0.0012516352930811,0.0012516348365337,-0.0012516353123411,0.0012516348095887,-0.0012521581018869,0.0012521578815425,-0.0012521581519101,0.001252157931581,-0.0012521581164827,0.0012521579431655,-0.0012521580851671,0.0012521579118341,-0.00089973505662702,0.00089973477469359,0.72403000856087,123579,2954,0.0043226176451611,0.0069015623182384,0.0042476814989352,25.429667995395,0.00011863734396316,0.00011863734396316,0.00011863734396316,4198677.8919125,0.015592799840032
30391759,0.91957943560162,0.01615738493503,0.0048139604159676,0.0065701161507368,0.0047733083683253,-0.0010480006573048,0.0010479998457098,-3.4498202212426e-10,-3.4498756158739e-10,5.8126486993369e-10,-1.2546494569674e-09,-0.000511279519707,0.00051127763748898,-0.0012167861798935,0.0012167837140126,-0.0012167863329085,0.0012167838670485,-0.00051127787569661,0.00051127951302733,-0.00051127776467442,0.00051127940206823,-0.0012167843838341,0.0012167855325917,-0.0012167845363528,0.0012167856851326,-0.0012415175399204,0.0012415171003906,-0.0012415176321908,0.0012415171925181,-0.0012415181580691,0.0012415164758174,-0.001241518250306,0.0012415165679353,-0.00092855698148931,0.00092855579679406,-0.00092855691803381,0.00092855573330091,-0.00092855638362465,0.00092855640073892,-0.00092855631939837,0.00092855633647509,-0.00051127962955745,0.00051127774727579,-3.9743365793927e-10,1.3434629997673e-09,4.2673393977694e-10,4.9828634831174e-10,-0.0016924333194569,0.0016924342391395,-0.0016964594802566,0.0016964598893735,-0.0014850353606631,0.0014850345747632,-0.0014850337547563,0.001485036377738,-0.0017494313309168,0.0017494316195031,-0.001749431626959,0.0017494319623188,-0.0017494307517141,0.0017494322272502,-0.0017494310477248,0.0017494325700425,-0.001696458867275,0.0016964603002379,-0.0016964588919623,0.001696460464566,-0.0014850354189095,0.0014850346809273,-0.0014850338130427,0.0014850364839317,-0.0016964594555885,0.0016964597250639,-9.2701376977743e-11,-9.2708976466172e-11,-0.0010288787803394,0.0010288782121525,-1.2557964278988e-10,-1.9490219925395e-10,-0.00089801902273742,0.00089801875428328,-0.00077633094301621,0.00077633048811467,-0.00077633091610631,0.00077633046119977,-0.00089801892721137,0.00089801879151368,-0.00089801893342289,0.00089801879774565,-0.00077633088529141,0.00077633056233159,-0.00077633084729989,0.00077633052433344,-0.0012675868536654,0.0012675864085809,-0.0012675868761638,0.0012675863854015,-0.0012675869314819,0.0012675864864087,-0.0012675869505785,0.0012675864598263,-0.0012691906691106,0.0012691904557946,-0.0012691907210957,0.0012691905077954,-0.0012691906861814,0.0012691905192758,-0.0012691906525337,0.0012691904856122,-0.00089801897556424,0.00089801870708611,0.67708915276705,123579,2954,0.0043595370943438,0.0070253235340683,0.0042790797648231,26.075280314126,0.00012380224251301,0.00012380224251301,0.00012380224251301,4079246.0197302,0.015787950460163
30891759,0.93196827107833,0.016368470197956,0.0048740167088221,0.0066625757157809,0.0048318777733534,-0.0010593132225764,0.001059311748107,-6.4216800754641e-10,-6.4217326166531e-10,3.6263089713972e-10,-1.6256972960635e-09,-0.00051841041415332,0.00051840769374978,-0.001232646467123,0.0012326432384891,-0.0012326466904972,0.0012326434618832,-0.00051840860204769,0.00051840968608011,-0.00051840851713033,0.00051840960122559,-0.0012326445256236,0.0012326452056269,-0.0012326447482545,0.0012326454282793,-0.0012552871177219,0.0012552861199098,-0.0012552872391442,0.001255286241189,-0.0012552877858897,0.0012552854433174,-0.0012552879074049,0.0012552855647137,-0.00093801688405172,0.00093801502841478,-0.00093801683028483,0.00093801497460976,-0.00093801623690774,0.0009380156825457,-0.0009380161820801,0.00093801562767998,-0.00051841049744663,0.00051840777697921,-4.3994280931387e-10,1.4454281281261e-09,4.685085885901e-10,5.137483634578e-10,-0.0017173767906758,0.0017173777677586,-0.0017188701160993,0.0017188705077174,-0.0015049066774639,0.001504905817882,-0.0015049049616167,0.001504907793848,-0.0017777018902184,0.0017777021940617,-0.0017777022228126,0.0017777025550564,-0.0017777012789696,0.0017777028711449,-0.0017777016115308,0.0017777032321162,-0.0017188694017854,0.0017188709662555,-0.0017188694970267,0.0017188711499638,-0.0015049067357211,0.0015049059063346,-0.0015049050199135,0.0015049078823296,-0.0017188700208773,0.0017188703240277,-1.2066094002346e-10,-1.2066871483742e-10,-0.0010391308938014,0.0010391301429351,-1.7943284300864e-10,-2.2157133661099e-10,-0.00090855388539763,0.00090855351890139,-0.00078462814465927,0.00078462747929525,-0.00078462810695134,0.00078462744158145,-0.00090855384321754,0.00090855355832213,-0.0009085538191435,0.00090855353427063,-0.00078462811395842,0.00078462752803007,-0.00078462806332476,0.00078462747739064,-0.0012818376836144,0.0012818371629815,-0.0012818376974139,0.0012818371495359,-0.0012818377811627,0.0012818372605413,-0.0012818377905861,0.0012818372427175,-0.0012827196538389,0.0012827194094848,-0.0012827196741091,0.0012827194297706,-0.0012827196467902,0.0012827194309358,-0.0012827196473003,0.0012827194314299,-0.00090855386388769,0.00090855349736834,0.72443258006482,123579,2954,0.0044065369917085,0.0071284392371513,0.0043216469239874,27.063776109001,0.00013171020887201,0.00013171020887201,0.00013171020887201,4077766.3094024,0.015983698419595
31391759,0.94324791703984,0.016563078622068,0.0049293359148036,0.0067477938194053,0.0048859488878587,-0.0010676451661993,0.0010676430053429,-9.5371684859023e-10,-9.5372200509447e-10,1.7393754894492e-10,-2.0594477324913e-09,-0.00050268870740505,0.0005026850056192,-0.0012432511159683,0.0012432470020906,-0.0012432514134504,0.0012432472995925,-0.00050268663852499,0.00050268721409897,-0.00050268657446465,0.00050268715010285,-0.0012432489379912,0.0012432492097249,-0.0012432492345873,0.0012432495063423,-0.0012713098847121,0.0012713083383396,-0.0012713100344886,0.0012713084879727,-0.0012713106323926,0.0012713075793288,-0.0012713107823378,0.0012713077291548,-0.00094206731274023,0.00094206472569403,-0.0009420672669494,0.00094206467986524,-0.00094206658505302,0.00094206546126669,-0.00094206653803962,0.00094206541421542,-0.00050268876963105,0.00050268506777995,-5.236618563721e-10,1.6002862243984e-09,5.284194750007e-10,5.2196379668783e-10,-0.0017479744923356,0.0017479755378529,-0.0017557903887126,0.0017557907178586,-0.0015335212188865,0.0015335202123577,-0.0015335193075102,0.0015335224617645,-0.0018040941569339,0.0018040944653747,-0.001804094532619,0.0018040948345479,-0.0018040934856465,0.0018040952436014,-0.0018040938612983,0.0018040956127508,-0.0017557895000913,0.0017557912626914,-0.0017557897113226,0.0017557914615108,-0.0015335212827536,0.0015335202718788,-0.0015335193714175,0.001533522521315,-0.0017557901774999,0.0017557905190572,-1.4307072696397e-10,-1.4307859993669e-10,-0.0010459200876269,0.0010459191650026,-2.4444327827123e-10,-2.3421683306446e-10,-0.00090321510902225,0.00090321466665662,-0.00077698625333649,0.0007769853968711,-0.00077698620715171,0.00077698535068012,-0.0009032151559726,0.00090321469408719,-0.00090321509200799,0.00090321463014523,-0.00077698627384225,0.00077698539482404,-0.00077698621369674,0.00077698533467244,-0.0012978235507593,0.001297822965707,-0.0012978235474291,0.0012978229702472,-0.0012978236664898,0.001297823081449,-0.0012978236580828,0.0012978230809103,-0.0013023078821427,0.0013023076302412,-0.0013023078663726,0.0013023076144866,-0.0013023078554913,0.001302307597287,-0.0013023078937082,0.0013023076354878,-0.00090321512497686,0.00090321468258824,0.73350948593833,123579,2954,0.0044413016861546,0.0072549227949354,0.004349953601314,28.357195844189,0.00014205756675351,0.00014205756675351,0.00014205756675351,3898083.2552833,0.016176375340685
31891759,0.95315799965122,0.016735209899516,0.0049787183963659,0.0068224453971093,0.0049340461060404,-0.0010752328737808,0.0010752313948507,-6.4929118848224e-10,-6.4929642927802e-10,4.5313756866421e-10,-1.7369897872131e-09,-0.00049726068079537,0.00049725773884191,-0.0012539142963496,0.0012539108533875,-0.0012539145258144,0.0012539110828719,-0.00049725867583896,0.00049725994428869,-0.00049725858141374,0.0004972598499275,-0.0012539121572516,0.0012539130214027,-0.0012539123861522,0.0012539132503233,-0.001283608581591,0.0012836076436112,-0.0012836087043221,0.0012836077661979,-0.0012836093141403,0.0012836069003159,-0.0012836094368647,0.0012836070229204,-0.00094709169517805,0.00094708976082329,-0.0009470916418461,0.00094708970745407,-0.00094709098061396,0.00094709048271249,-0.00094709092646479,0.00094709042852584,-0.00049726077400523,0.00049725783198521,-5.1284188123844e-10,1.5745332792362e-09,5.2248398085539e-10,5.1336475617673e-10,-0.0017718518849754,0.0017718529159662,-0.0017819170959938,0.0017819174209731,-0.0015543216131715,0.0015543206273885,-0.001554319705406,0.0015543228109023,-0.0018271299671151,0.0018271302773598,-0.0018271303282772,0.0018271306315668,-0.0018271293011655,0.0018271310289072,-0.0018271296622932,0.0018271313830905,-0.0017819162456243,0.00178191798341,-0.0017819164173068,0.0017819181369894,-0.0015543216905309,0.0015543206989535,-0.0015543197828071,0.0015543228824968,-0.0017819169243299,0.0017819172674112,-1.081399938533e-10,-1.0814780836457e-10,-0.0010517435476411,0.0010517428261848,-1.9739408858433e-10,-1.8557360597137e-10,-0.0009022909198482,0.00090229062872829,-0.00077498593171613,0.00077498534137083,-0.00077498589726145,0.00077498530691061,-0.00090229093813976,0.00090229062130786,-0.00090229090834246,0.0009022905915334,-0.0007749859533571,0.00077498533621729,-0.00077498590688646,0.00077498528974055,-0.0013100147758402,0.0013100142711849,-0.0013100147716893,0.0013100142755192,-0.0013100148745256,0.0013100143698813,-0.0013100148663352,0.0013100143701742,-0.0013158101268284,0.0013158099294484,-0.0013158101469428,0.0013158099495789,-0.0013158101380493,0.0013158099330256,-0.0013158101378596,0.0013158099328197,-0.00090229090622201,0.00090229061507869,0.73628229515295,123579,2954,0.004472922822858,0.0073535955696497,0.0043741943958641,29.265873001095,0.00014932698400876,0.00014932698400876,0.00014932698400876,3799658.6899872,0.016333459851302
32391759,0.96139576129519,0.016884400492306,0.0050217523242051,0.0068866938448642,0.0049759543232371,-0.0010802270437856,0.0010802273336283,1.4493067836432e-10,1.4492544609769e-10,1.0620364305455e-09,-7.6867927755218e-10,-0.00049177521641635,0.00049177449231824,-0.0012618686229712,0.0012618671757086,-0.0012618686713799,0.0012618672241368,-0.00049177360342655,0.00049177642049043,-0.00049177345093951,0.00049177626806773,-0.0012618668265205,0.0012618689948755,-0.0012618668749948,0.0012618690433706,-0.0012924403380319,0.001292440902904,-0.0012924403888801,0.0012924409536085,-0.0012924409524307,0.0012924402822354,-0.0012924410029264,0.0012924403326118,-0.00095006794049323,0.00095006778719757,-0.0009500678713611,0.00095006771802726,-0.00095006734226548,0.00095006839070589,-0.00095006727312647,0.00095006832152876,-0.00049177536886108,0.00049177464469754,-4.0344033136599e-10,1.3446785958963e-09,4.3747969508973e-10,4.8233375574073e-10,-0.0017908370636096,0.0017908379782434,-0.0018027558549703,0.0018027562316635,-0.0015707129367935,0.0015707121454974,-0.0015707112756284,0.0015707139119543,-0.0018454406044569,0.0018454409003378,-0.0018454408939486,0.0018454412213763,-0.0018454400208678,0.0018454414939584,-0.0018454403103259,0.0018454418149729,-0.0018027552579132,0.001802756712859,-0.001802755247203,0.0018027567886499,-0.0015707130261352,0.0015707122655693,-0.0015707113650108,0.0015707140320561,-0.0018027558656989,0.0018027561558904,-3.251812187311e-11,-3.2525966523167e-11,-0.0010551575018666,0.0010551572726659,-5.5246431127099e-11,-1.0026616726095e-10,-0.00090061656980157,0.0009006165795573,-0.00077216005508906,0.00077216007834286,-0.00077216004778908,0.00077216007103652,-0.00090061646007037,0.00090061654922027,-0.00090061651134802,0.00090061660052079,-0.00077216002029444,0.00077216012582811,-0.00077216000531186,0.00077216011083924,-0.0013187135614884,0.001318713254493,-0.0013187135754798,0.0013187132381828,-0.0013187136152053,0.0013187133082213,-0.0013187136275575,0.00131871329027,-0.0013258217483825,0.0013258216394268,-0.0013258218572141,0.0013258217482737,-0.0013258218328763,0.0013258217535844,-0.0013258217381142,0.0013258216588065,-0.00090061648545118,0.00090061649518381,0.76665023342128,123579,2954,0.0044937664883808,0.0074320351877728,0.0043884281129924,29.297797340105,0.00014958237872084,0.00014958237872084,0.00014958237872084,3720580.5668395,0.01644886709617
32891759,0.96817722565057,0.016997075736775,0.0050544075298072,0.0069350667142876,0.0050076014926808,-0.0010825337188876,0.0010825343685885,3.0837637679866e-10,3.0837126954292e-10,1.1040704876398e-09,-4.8168924140079e-10,-0.00047987650978893,0.00047987641339152,-0.0012655721759166,0.0012655713112837,-0.0012655721893291,0.0012655713247158,-0.00047987514328099,0.00047987810707356,-0.00047987498383509,0.00047987794769298,-0.0012655706172608,0.0012655728884998,-0.0012655706307248,0.001265572901984,-0.0012995323717985,0.0012995331878776,-0.0012995324091181,0.0012995332250534,-0.0012995329073718,0.001299532649039,-0.0012995329443353,0.0012995326858832,-0.00094974970685779,0.00094974997520685,-0.00094974963741146,0.00094974990572292,-0.0009497491894316,0.00094975049697418,-0.00094974912000162,0.00094975042750632,-0.00047987666919068,0.0004798765727274,-3.2489539947739e-10,1.1799229724499e-09,3.7166021685902e-10,4.6516108188354e-10,-0.001807049872023,0.0018070507034074,-0.0018222558790571,0.0018222563018694,-0.0015852674885765,0.0015852668356494,-0.0015852660484421,0.0015852683435076,-0.0018594289064876,0.0018594291845052,-0.0018594291704474,0.0018594295124584,-0.0018594283959262,0.0018594296895094,-0.0018594286598522,0.0018594300174384,-0.0018222554275747,0.0018222566711424,-0.0018222553445424,0.0018222567696975,-0.001585267568916,0.001585266979089,-0.001585266128823,0.0015852684869768,-0.0018222559621081,0.0018222562033321,-2.6018389891343e-11,-2.6026343648361e-11,-0.0010558915337389,0.0010558913839267,-1.6337862168937e-11,-1.0993857525346e-10,-0.00089286778751973,0.00089286780298971,-0.00076395489141955,0.00076395498693832,-0.00076395488937296,0.00076395498488518,-0.00089286761790512,0.00089286780758843,-0.00089286768270215,0.00089286787240857,-0.00076395480899948,0.00076395508181327,-0.00076395479996711,0.00076395507277466,-0.0013255431660253,0.0013255428952358,-0.0013255431959985,0.0013255428624691,-0.0013255432126015,0.0013255429418235,-0.0013255432413128,0.0013255429077929,-0.001334198145029,0.0013341980237872,-0.0013341982694958,0.0013341981482697,-0.0013341982295507,0.0013341981703387,-0.0013341981183455,0.0013341980591173,-0.00089286769116791,0.00089286770661441,0.701834728256,123579,2954,0.0045034796053658,0.0074990142820536,0.0043915665603183,29.182795163716,0.00014866236130972,0.00014866236130972,0.00014866236130972,3608550.3395873,0.016530064049324
33391759,0.97381357609532,0.017097365042147,0.0050836699835964,0.0069776911499423,0.0050360039086085,-0.0010869935310229,0.0010869938315798,1.5215341256769e-10,1.5214799865955e-10,8.8343482117263e-10,-5.6831118804213e-10,-0.00049052067614769,0.00049052033161043,-0.0012735445545632,0.0012735435018304,-0.0012735446120893,0.0012735435593757,-0.00049051943748462,0.00049052187531053,-0.00049051928838183,0.00049052172627128,-0.001273543128775,0.0012735449438595,-0.0012735431861095,0.0012735450012146,-0.00130328501807,0.0013032854778389,-0.0013032850717562,0.0013032855313814,-0.0013032855115949,0.0013032849828489,-0.0013032855650704,0.0013032850362051,-0.0009544186921562,0.00095441867825157,-0.00095441862456669,0.00095441861062344,-0.00095441821986149,0.00095441915473272,-0.00095441815195093,0.00095441908678357,-0.00049052082476138,0.00049052048015939,-2.8189109400881e-10,1.085957492744e-09,3.2762322404128e-10,4.6012597840838e-10,-0.001815698475295,0.0018156992574184,-0.0018259458085752,0.0018259462659226,-0.0015903045180614,0.0015903039379362,-0.0015903032326256,0.0015903053283033,-0.0018726596422908,0.0018726599017252,-0.0018726599044208,0.0018726602526254,-0.0018726591795054,0.0018726603692638,-0.0018726594416017,0.0018726607201399,-0.0018259454182394,0.0018259465295996,-0.0018259453263215,0.0018259466960545,-0.0015903045752992,0.0015903040839247,-0.0015903032899043,0.0015903054743216,-0.0018259459005116,0.0018259460994856,-5.0013700174614e-11,-5.0021387388304e-11,-0.001059651838178,0.0010596515596053,-3.2160328413749e-11,-1.6397989011515e-10,-0.00090203925567602,0.00090203912922504,-0.00077209875187685,0.0007720986307239,-0.00077209874428488,0.00077209862312548,-0.00090203906419176,0.00090203918959884,-0.0009020391112623,0.00090203923669228,-0.00077209863197835,0.00077209876406298,-0.00077209861678293,0.00077209874886118,-0.0013294251350824,0.00132942482668,-0.0013294251777811,0.0013294247815272,-0.0013294251899692,0.0013294248815785,-0.0013294252310111,0.0013294248347668,-0.0013361925272434,0.0013361923590323,-0.0013361926306306,0.0013361924624344,-0.0013361925773805,0.0013361924969142,-0.0013361924883376,0.001336192407856,-0.00090203917525676,0.00090203904878267,0.75084859087592,123579,2954,0.0045219699379239,0.007534723609842,0.004407136887216,29.274750863601,0.00014939800690881,0.00014939800690881,0.00014939800690881,3649864.535092,0.01660096033616
33891759,0.97863886109563,0.017182618504984,0.0051084622186545,0.0070140470486388,0.0050601092376906,-0.0010897064231894,0.0010897053145472,-4.8097053906254e-10,-4.8097639926586e-10,3.9185962516332e-10,-1.3344550543435e-09,-0.00047530128402521,0.00047529919269961,-0.0012764621740708,0.0012764595428886,-0.00127646237913,0.0012764597479666,-0.00047529975647149,0.00047530095704903,-0.00047529964185436,0.00047530084249572,-0.001276460486769,0.0012764612512154,-0.0012764606910973,0.0012764614555638,-0.001311268274776,0.0013112675309847,-0.0013112683870812,0.0013112676431456,-0.0013112688586456,0.0013112669421615,-0.0013112689710305,0.0013112670544265,-0.00095425669280006,0.00095425526257885,-0.00095425663718461,0.00095425520692395,-0.0009542561316523,0.00095425582945509,-0.0009542560750523,0.00095425577281571,-0.00047530139721732,0.0004752993058268,-3.6607371628749e-10,1.2612739612992e-09,3.8631327312998e-10,4.8910709358462e-10,-0.0018317942286153,0.0018317950986908,-0.0018480010878122,0.0018480015159065,-0.0016065558286822,0.0016065550951437,-0.0016065543579724,0.0016065568075878,-0.0018841702787415,0.0018841705442068,-0.0018841706005128,0.0018841709328253,-0.001884169758092,0.0018841711379086,-0.0018841700798294,0.0018841715265028,-0.0018480005090591,0.0018480018242937,-0.0018480005569688,0.0018480020732563,-0.00160655587495,0.0016065552098688,-0.0016065544042816,0.0016065569223432,-0.0018480010399205,0.0018480012669614,-1.1210881491736e-10,-1.1211608426147e-10,-0.0010612450506341,0.0010612443739767,-1.4248603654645e-10,-2.4257018618408e-10,-0.00089308929356555,0.00089308891314865,-0.00076228248576395,0.00076228185659595,-0.00076228245865025,0.00076228182947519,-0.00089308918980304,0.00089308900428471,-0.00089308917368554,0.00089308898818919,-0.00076228239726325,0.00076228196103272,-0.00076228235953029,0.00076228192329278,-0.0013372299837143,0.0013372295195179,-0.0013372300164221,0.0013372294862816,-0.0013372300760515,0.001337229611867,-0.0013372301052872,0.0013372295751566,-0.0013470955059958,0.0013470952596093,-0.0013470955398851,0.0013470952935125,-0.0013470954945061,0.001347095315195,-0.0013470954794859,0.0013470953001604,-0.0008930892688693,0.00089308888843025,0.74591026401813,123579,2954,0.0045333720653727,0.0076012378073936,0.0044138660093373,30.026968069461,0.00015541574455569,0.00015541574455569,0.00015541574455569,3507828.5639742,0.016687080836273
34391759,0.98284924709362,0.01725524827906,0.0051297443853213,0.0070447724389997,0.0050807314547388,-0.0010944222242558,0.0010944197820112,-1.080623823684e-09,-1.080629629536e-09,-7.1395410301576e-11,-2.0632067547734e-09,-0.00047625642207659,0.00047625266760984,-0.0012828543037315,0.0012828501716809,-0.0012828546516014,0.0012828505195684,-0.00047625462159434,0.0004762546523889,-0.00047625453363938,0.00047625456449887,-0.001282852363449,0.0012828521374685,-0.0012828527101374,0.0012828524841773,-0.0013177158309426,0.001317713950923,-0.0013177159996777,0.0013177141195138,-0.0013177165022406,0.0013177132714842,-0.0013177166713089,0.0013177134404326,-0.0009580641504932,0.00095806137815832,-0.00095806410282185,0.00095806133044732,-0.00095806350341796,0.0009580620324377,-0.00095806345415899,0.00095806198313923,-0.00047625650779932,0.00047625275326785,-4.4789638076419e-10,1.4304694794923e-09,4.4980141661077e-10,5.0967648273331e-10,-0.0018433596047781,0.0018433605591534,-0.0018597071986531,0.0018597075838876,-0.0016163820971262,0.0016163812189382,-0.0016163804454247,0.0016163832414312,-0.0018960593501995,0.0018960596254798,-0.0018960597345593,0.0018960600461929,-0.0018960587720992,0.0018960603395121,-0.0018960591564257,0.0018960607601996,-0.0018597064251721,0.0018597079506991,-0.0018597066185989,0.0018597082619691,-0.0016163821358855,0.001616381297152,-0.0016163804842249,0.001616383319676,-0.0018597070052427,0.0018597072726338,-1.677423020437e-10,-1.677496473046e-10,-0.0010647405402656,0.0010647394858751,-2.5300456712679e-10,-3.0824642160694e-10,-0.00089410148061109,0.00089410087651151,-0.00076330983909108,0.00076330873225842,-0.00076330979335455,0.00076330868651335,-0.00089410146850973,0.00089410097620311,-0.0008941013985439,0.00089410090625995,-0.00076330979483922,0.00076330879480912,-0.0007633097357134,0.00076330873567634,-0.0013434310230554,0.0013434304098668,-0.001343431041357,0.0013434303927838,-0.0013434311496321,0.001343430536455,-0.0013434311628054,0.0013434305142419,-0.0013533148497909,0.0013533145424666,-0.0013533148191189,0.0013533145118078,-0.0013533147862162,0.0013533145165357,-0.001353314839861,0.0013533145701674,-0.00089410150274245,0.00089410089862172,0.72645274353817,123579,2954,0.0045529955518907,0.0076490071793416,0.0044283945705819,31.389265134096,0.00016631412107277,0.00016631412107277,0.00016631412107277,3458446.9547869,0.016770384318439
34891759,0.98657034293039,0.017321509922168,0.0051492189477418,0.0070726726427649,0.0050996183316616,-0.0011006108327391,0.0011006068513015,-1.7720387370947e-09,-1.7720444485379e-09,-5.6245460007452e-10,-2.9472012102025e-09,-0.00048182995479345,0.00048182420871543,-0.0012908081398433,0.0012908021907057,-0.0012908086493026,0.0012908027001821,-0.00048182775585314,0.00048182653653549,-0.00048182769646854,0.00048182647721194,-0.0012908058229562,0.0012908045398359,-0.0012908063307509,0.0012908050476538,-0.0013246785319883,0.0013246753643058,-0.0013246787659889,0.0013246755981623,-0.0013246793318685,0.0013246745514685,-0.0013246795664683,0.0013246747859493,-0.0009637753540254,0.00096377100511648,-0.00096377531608245,0.00096377096713513,-0.00096377457919807,0.00096377178913864,-0.00096377453903086,0.00096377174892775,-0.00048183001107414,0.00048182426493562,-5.6710222710741e-10,1.6866551402844e-09,5.5069471097812e-10,5.406845130475e-10,-0.0018544761754228,0.0018544772620717,-0.0018696157113374,0.0018696160333788,-0.0016257493659059,0.0016257482786153,-0.0016257474169683,0.0016257507400252,-0.0019084542233102,0.0019084545231515,-0.001908454689513,0.0019084549771935,-0.0019084535523241,0.0019084554056152,-0.0019084540184919,0.0019084558596327,-0.0018696146733481,0.001869616524785,-0.0018696150463222,0.0018696168796325,-0.0016257494063491,0.0016257483115757,-0.0016257474574518,0.0016257507730135,-0.0018696153383821,0.0018696156785493,-2.2871849348349e-10,-2.2872596940952e-10,-0.0010701679311052,0.0010701664499215,-3.8501141272445e-10,-3.6820864931675e-10,-0.00089972441845861,0.00089972359390895,-0.00076850857273034,0.00076850695559297,-0.00076850850523626,0.00076850688809107,-0.00089972452791409,0.00089972367892549,-0.00089972439979803,0.00089972355082716,-0.00076850859959241,0.00076850694982061,-0.00076850851530327,0.00076850686552559,-0.0013503227474212,0.0013503219566729,-0.0013503227424018,0.0013503219650131,-0.001350322914273,0.0013503221235375,-0.0013503229021449,0.0013503221247675,-0.0013598393674311,0.0013598389992728,-0.0013598392664606,0.0013598388983152,-0.0013598392545523,0.0013598388765083,-0.0013598393834542,0.0013598390053951,-0.00089972449008709,0.00089972366551657,0.74954793435323,123579,2954,0.0045786920658981,0.0076949303908372,0.0044509188613113,33.428140445556,0.00018262512356445,0.00018262512356445,0.00018262512356445,3432736.2727494,0.016866110805251
35391759,0.98981598098703,0.01737605978132,0.0051652785205641,0.0070956136393197,0.0051151676214365,-0.001106243344744,0.0011062384023143,-2.2088611639988e-09,-2.208866836605e-09,-6.5842093322186e-10,-3.7333718292886e-09,-0.00047830794539719,0.00047830048390672,-0.0012967531065633,0.001296745565078,-0.0012967537169152,0.0012967461754487,-0.00047830506177542,0.00047830348466856,-0.00047830501038281,0.00047830343334031,-0.0012967501189073,0.0012967485960333,-0.0012967507276472,0.0012967492047932,-0.0013331718208876,0.0013331679976061,-0.0013331720930908,0.0013331682696649,-0.0013331728429105,0.0013331669543963,-0.0013331731156979,0.0013331672270639,-0.00096779296565577,0.00096778747728454,-0.00096779292927719,0.00096778744086682,-0.00096779196263124,0.00096778849175062,-0.00096779192405649,0.00096778845313676,-0.00047830799379254,0.00047830053223663,-7.9570205801009e-10,2.1396536168448e-09,7.3675088850138e-10,5.7026275727597e-10,-0.0018677980103492,0.0018677993133772,-0.0018856484163047,0.0018856485728473,-0.0016387227906506,0.0016387213053203,-0.0016387202273426,0.0016387244960886,-0.0019197522555599,0.0019197525958358,-0.0019197528051932,0.0019197530293176,-0.0019197513851422,0.001919753730532,-0.0019197519347413,0.0019197541639893,-0.0018856469438528,0.0018856493901543,-0.001885647551391,0.0018856496735583,-0.0016387228652721,0.001638721268408,-0.0016387203020057,0.0016387244592068,-0.0018856478087843,0.0018856482894605,-2.4327810800609e-10,-2.4328561506352e-10,-0.0010748892117117,0.0010748875185535,-5.029979876391e-10,-3.2920897239922e-10,-0.00089853116875274,0.00089853035624889,-0.00076720127566963,0.00076719948993947,-0.0007672011976302,0.00076719941189299,-0.00089853146827492,0.00089853032389759,-0.0008985313019049,0.00089853015755019,-0.000767201456186,0.00076719933043058,-0.00076720136010241,0.00076719923434001,-0.0013586525770145,0.0013586516929832,-0.0013586525202,0.0013586517542777,-0.0013586527646802,0.0013586518806608,-0.0013586526998953,0.0013586519339829,-0.0013694112682074,0.0013694109508226,-0.0013694111229236,0.001369410805553,-0.0013694111620272,0.0013694107299969,-0.0013694113371349,0.0013694109050898,-0.00089853127582956,0.000898530463303,0.70668892024443,123579,2954,0.0046021398216085,0.0077499776975973,0.0044705693704689,35.836623614929,0.00020189298891944,0.00020189298891944,0.00020189298891944,3343750.8885155,0.016965952326446
35891759,0.99245405987731,0.017421728906773,0.0051787850773351,0.0071146920331467,0.0051282517962911,-0.0011112514288649,0.0011112481598978,-1.4567130281816e-09,-1.4567187345661e-09,5.4758421756038e-11,-2.9556782282943e-09,-0.00048890207634949,0.0004888964646918,-0.0013036974270708,0.0013036915022515,-0.0013036978529279,0.0013036919281273,-0.00048889927032066,0.00048889945983432,-0.00048889918384614,0.00048889937342356,-0.0013036944948203,0.001303694477445,-0.0013036949198759,0.0013036949025207,-0.0013372412366718,0.0013372389177686,-0.0013372414383989,0.0013372391193516,-0.001337242234671,0.0013372378989391,-0.0013372424365254,0.0013372381006738,-0.00097318890825185,0.00097318501685536,-0.0009731888629493,0.00097318497151357,-0.00097318792393673,0.00097318601161544,-0.00097318787747621,0.00097318596511571,-0.00048890216122306,0.00048889654950054,-7.6668804586824e-10,2.1198875050536e-09,7.5968758488928e-10,5.5653030255775e-10,-0.0018739487378002,0.0018739500500315,-0.001887994892021,0.0018879950393492,-0.0016427553200255,0.0016427539009886,-0.0016427527161934,0.001642756961233,-0.0019291817562042,0.0019291821409376,-0.0019291822652848,0.0019291825130554,-0.0019291808770455,0.0019291832169246,-0.001929181386092,0.001929183589018,-0.001887993504295,0.0018879959780621,-0.0018879940012299,0.0018879960777343,-0.0016427554400848,0.0016427538859999,-0.0016427528362942,0.0016427569462747,-0.0018879943951043,0.0018879949396945,-1.5609113589059e-10,-1.5609863557325e-10,-0.0010795759149789,0.0010795747398395,-3.8705588339962e-10,-1.7946386914905e-10,-0.00090755322741686,0.00090755284274831,-0.00077577817495552,0.00077577714313352,-0.00077577812008651,0.0007757770882576,-0.0009075534870935,0.00090755269580304,-0.00090755340181861,0.00090755261055092,-0.0007757783885162,0.00077577694736583,-0.00077577831877368,0.00077577687761647,-0.001362763573062,0.0013627628734026,-0.0013627635045669,0.0013627629443295,-0.0013627637193572,0.0013627630197096,-0.0013627636449034,0.0013627630846758,-0.001371973924991,0.0013719737440385,-0.001371973869522,0.0013719736885837,-0.0013719739228341,0.001371973603965,-0.001371974002976,0.0013719736840922,-0.00090755326132235,0.00090755287663089,0.72723604005313,123579,2954,0.0046228915463807,0.0077753767426181,0.0044899800704718,37.445446273824,0.00021476357019059,0.00021476357019059,0.00021476357019059,3366271.8506266,0.01703260343869
36391759,0.99441796149867,0.017455461737412,0.0051887479874931,0.0071287988847791,0.0051379148651397,-0.0011114865626385,0.0011114867313396,8.7988046055002e-11,8.7982330170795e-11,1.147016247588e-09,-9.7422993079729e-10,-0.00048079305260841,0.00048079191744962,-0.001303910126941,0.0013039082759854,-0.0013039101937083,0.0013039083427713,-0.00048079115181572,0.00048079413690683,-0.00048079099850626,0.00048079398366161,-0.0013039080470902,0.0013039103832759,-0.0013039081141697,0.0013039104503753,-0.0013399420914932,0.0013399426420108,-0.0013399421491807,0.0013399426995539,-0.0013399427989372,0.0013399419249087,-0.0013399428561229,0.0013399419819745,-0.00097205082952491,0.00097205046457972,-0.00097205076466303,0.00097205039967859,-0.0009720501345161,0.00097205116542258,-0.00097205006997799,0.00097205110084526,-0.00048079320631538,0.00048079207109123,-4.9970360322146e-10,1.534889416476e-09,5.4211194341107e-10,4.6771488074909e-10,-0.0018803381094769,0.0018803391144835,-0.0018971473871242,0.0018971476416267,-0.0016492925064325,0.0016492915646589,-0.001649290576651,0.0016492936283795,-0.0019334050678306,0.0019334053991534,-0.0019334054119711,0.0019334056968807,-0.0019334044052574,0.0019334060995551,-0.0019334047493637,0.0019334063972579,-0.0018971465668321,0.0018971483232054,-0.0018971466939366,0.0018971483030768,-0.0016492926353715,0.0016492916453186,-0.0016492907056317,0.0016492937090698,-0.0018971472600377,0.0018971476617726,-1.7484015213572e-11,-1.7491504793594e-11,-0.0010792485549911,0.0010792483369684,-1.0309129785956e-10,-2.902659986024e-11,-0.00090204910142546,0.00090204924687139,-0.00076999342932722,0.00076999357273253,-0.00076999342352003,0.00076999356691827,-0.00090204911238056,0.00090204910103056,-0.00090204916125734,0.00090204914993012,-0.00076999351109364,0.00076999350258947,-0.00076999349794308,0.00076999348943192,-0.0013653793201969,0.001365379013077,-0.0013653792947782,0.0013653790363104,-0.0013653793790943,0.0013653790719862,-0.0013653793521051,0.0013653790936471,-0.0013759734492486,0.001375973417471,-0.0013759735525619,0.0013759735207985,-0.001375973568079,0.0013759734863258,-0.0013759734784555,0.0013759733966876,-0.00090204901996447,0.00090204916538755,0.72169184747065,123579,2954,0.0046239471432394,0.0078017714358409,0.0044886846179174,37.533433168411,0.00021546746534729,0.00021546746534729,0.00021546746534729,3298322.0935068,0.01705923752326
36891759,0.99582911217645,0.017478624602499,0.0051956147067557,0.0071384493917334,0.0051445605040102,-0.0011102777623993,0.001110279799951,9.2911283643179e-10,9.2910711926821e-10,1.7285410767272e-09,1.1867051049148e-10,-0.00047827816060624,0.00047827948710393,-0.0013033727989551,0.0013033731929119,-0.001303372670384,0.0013033730643589,-0.00047827677509928,0.00047828125151819,-0.00047827659056486,0.00047828106704812,-0.0013033712100286,0.0013033748008251,-0.0013033710823022,0.0013033746731184,-0.0013394064488147,0.0013394085523042,-0.0013394064286174,0.0013394085319626,-0.0013394069892769,0.0013394080084007,-0.0013394069682744,0.0013394079872783,-0.00097047445688615,0.00097047602049679,-0.00097047438313747,0.00097047594670896,-0.00097047392860582,0.00097047655215579,-0.00097047385592849,0.00097047647943923,-0.00047827834652077,0.00047827967295305,-3.4123351963844e-10,1.2029576219704e-09,4.1193509322449e-10,4.3086664696675e-10,-0.0018819060541759,0.0018819068916758,-0.0018984977887554,0.001898498132781,-0.0016501460350174,0.0016501453715411,-0.0016501444986971,0.0016501468664826,-0.0019352568852836,0.0019352571882008,-0.0019352571315351,0.0019352574524807,-0.0019352563488407,0.0019352576753221,-0.0019352565950578,0.0019352579395775,-0.0018984973094681,0.0018984986436587,-0.0018984972111177,0.0018984985797514,-0.0016501461611296,0.0016501455119552,-0.001650144624851,0.0016501470069277,-0.0018984978871235,0.0018984981967053,5.3384822056802e-11,5.3377325785808e-11,-0.0010775879411906,0.0010775882310766,5.9043444292718e-11,3.7138757745268e-11,-0.00089965465828926,0.00089965505757704,-0.0007675062024889,0.00076750695192026,-0.00076750622260443,0.00076750697202832,-0.00089965451089541,0.00089965493564401,-0.00089965463239187,0.00089965505716332,-0.00076750618967205,0.00076750697318201,-0.00076750620640465,0.00076750698990764,-0.0013647486821493,0.0013647485867943,-0.0013647486878823,0.0013647485764004,-0.0013647486938747,0.0013647485985314,-0.0013647487003684,0.0013647485888965,-0.0013752912690113,0.0013752913010344,-0.0013752914581165,0.0013752914901538,-0.001375291445127,0.001375291490538,-0.0013752912640863,0.0013752913094827,-0.0008996545140695,0.00089965491333421,0.6885759564347,123579,2954,0.0046189625289075,0.0078082316576629,0.0044818088394328,36.818470507616,0.00020974776406093,0.00020974776406093,0.00020974776406093,3282748.6531856,0.017053750022573
37391759,0.99692027865982,0.017497010530938,0.0052010697361506,0.007146093874246,0.0051498469205413,-0.0011126695933984,0.0011126682929585,-5.6661844504839e-10,-5.6662415903559e-10,3.2284927411747e-10,-1.435781517272e-09,-0.00048586673093253,0.00048586441916085,-0.0013069192609978,0.0013069164233064,-0.0013069194937091,0.0013069166560405,-0.00048586518228951,0.00048586622016884,-0.00048586506005646,0.00048586609800119,-0.0013069175430564,0.0013069181626898,-0.0013069177751868,0.0013069183948371,-0.0013406615454637,0.0013406606352002,-0.0013406616696616,0.0013406607592541,-0.0013406621403514,0.0013406600352454,-0.0013406622645534,0.0013406601593278,-0.00097335832052168,0.00097335670069364,-0.00097335826517186,0.00097335664530874,-0.00097335774898402,0.00097335727786759,-0.00097335769282321,0.00097335722166772,-0.00048586685202258,0.00048586454019015,-3.745423857078e-10,1.2816635533891e-09,4.3568853633781e-10,4.5113554482466e-10,-0.0018837831145757,0.0018837839960925,-0.0018972906925124,0.0018972910366855,-0.0016507254834696,0.0016507247625623,-0.0016507239921593,0.0016507265108052,-0.0019396641718549,0.0019396644669043,-0.0019396645439615,0.0019396648484266,-0.0019396636527003,0.0019396650828454,-0.001939664024777,0.0019396654643456,-0.0018972900066852,0.0018972914285892,-0.0018972901616769,0.0018972916135424,-0.0016507255586899,0.0016507248483174,-0.0016507240674234,0.0016507265965903,-0.0018972905375413,0.001897290851749,-1.0673846522786e-10,-1.0674596236648e-10,-0.0010800425806706,0.0010800418656603,-1.8635526634218e-10,-1.9923360358693e-10,-0.00090614549730816,0.00090614519387827,-0.00077357135052115,0.00077357075013668,-0.00077357132246422,0.00077357072206867,-0.00090614547829436,0.00090614519754586,-0.00090614546313865,0.00090614518240684,-0.00077357134766171,0.00077357076889565,-0.0007735713089435,0.00077357073017232,-0.0013661145816713,0.0013661140930436,-0.001366114585488,0.0013661140888705,-0.0013661146813502,0.0013661141927348,-0.0013661146815748,0.0013661141849659,-0.0013754770126155,0.0013754768123383,-0.0013754770401784,0.0013754768399162,-0.0013754770236684,0.0013754768322151,-0.0013754770154798,0.0013754768240108,-0.00090614547075836,0.00090614516731626,0.70704502190089,123579,2954,0.0046288416877047,0.0078159810499051,0.0044919576914588,37.627217270212,0.0002162177381617,0.0002162177381617,0.0002162177381617,3310849.1610629,0.017081979314887
37891759,0.99772905707282,0.017510055622084,0.0052049364272401,0.0071515253837051,0.0051535938111388,-0.0011123869175511,0.0011123871964028,1.4062522655468e-10,1.4061955121335e-10,9.4933201041167e-10,-6.6099994475836e-10,-0.00047898137438326,0.00047898086375723,-0.0013062130610299,0.001306211830102,-0.001306213123918,0.0013062118930089,-0.00047897998255944,0.00047898257111812,-0.00047897982882316,0.00047898241744645,-0.0013062114804004,0.0013062134297473,-0.0013062115432805,0.0013062134926476,-0.0013422023311306,0.0013422028207945,-0.0013422023868221,0.0013422028763421,-0.001342202875353,0.0013422022732026,-0.0013422029307163,0.0013422023284456,-0.00097204595968834,0.00097204587112088,-0.00097204589498688,0.00097204580637982,-0.00097204543450558,0.00097204640068911,-0.00097204536976759,0.00097204633591164,-0.00047898152800571,0.00047898101731382,-3.3410822566422e-10,1.191053259067e-09,3.9191963683e-10,4.4643766957682e-10,-0.0018874295758032,0.001887430408777,-0.0019034582743073,0.0019034586534774,-0.0016548855476356,0.0016548848902892,-0.0016548841112859,0.0016548864405925,-0.0019412829837803,0.0019412832682604,-0.001941283284507,0.0019412836069738,-0.0019412824814746,0.0019412837974716,-0.0019412827821674,0.0019412841361606,-0.0019034577460947,0.0019034590364081,-0.0019034577476754,0.0019034591434193,-0.0016548856342082,0.0016548850139568,-0.0016548841979001,0.0016548865642906,-0.0019034582727448,0.0019034585464833,-3.6929419610992e-11,-3.6936979409457e-11,-0.0010794619922142,0.0010794617416352,-5.8852993007933e-11,-1.1317157819332e-10,-0.00090126671185421,0.00090126669105161,-0.00076856115472639,0.00076856114086733,-0.0007685611497735,0.00076856113590727,-0.00090126659560919,0.00090126667255852,-0.00090126664486111,0.00090126672183222,-0.00076856111060799,0.00076856119741674,-0.00076856109851505,0.00076856118531659,-0.001367610618245,0.0013676103181411,-0.0013676106352858,0.0013676102986756,-0.0013676106764747,0.0013676103763827,-0.0013676106919947,0.0013676103553946,-0.0013781692932311,0.0013781691797307,-0.0013781693965404,0.0013781692830541,-0.0013781693692933,0.0013781692916501,-0.001378169280049,0.0013781692023908,-0.00090126662998418,0.00090126660915958,0.67665412871945,123579,2954,0.0046277251132924,0.0078310491609308,0.0044895975020065,37.709273909719,0.00021687419127776,0.00021687419127776,0.00021687419127776,3257968.0692885,0.017093796273833
38391759,0.99831314774163,0.017519959791117,0.0052078776219535,0.0071556340133415,0.0051564481558222,-0.0011118089240273,0.0011118106082626,7.7268841553165e-10,7.7268266707491e-10,1.3341546785198e-09,2.1372203264449e-10,-0.00048343787742331,0.00048343930888294,-0.0013066510605108,0.0013066516215914,-0.0013066509807648,0.001306651541864,-0.00048343697849174,0.00048344056953632,-0.00048343680035253,0.00048344039146091,-0.0013066499521127,0.0013066527407203,-0.0013066498726809,0.0013066526613084,-0.0013404643778144,0.0013404660055873,-0.0013404643753878,0.0013404660030164,-0.0013404647628277,0.0013404656233329,-0.0013404647599001,0.0013404656202854,-0.00097202282470879,0.00097202422038382,-0.00097202275194222,0.00097202414757792,-0.00097202245985866,0.00097202458752906,-0.00097202238746897,0.00097202451510004,-0.00048343805603491,0.00048343948742964,-1.8541366937203e-10,8.6621446365449e-10,2.5085414693095e-10,4.1775305575443e-10,-0.0018859460947771,0.0018859467575186,-0.0018991940657183,0.001899194544504,-0.0016522939008096,0.0016522934968494,-0.0016522928658134,0.0016522945180667,-0.0019420926358164,0.0019420928755193,-0.0019420928470286,0.0019420932007442,-0.0019420922604036,0.0019420932079767,-0.0019420924715816,0.0019420935331771,-0.0018991938622676,0.0018991947148988,-0.0018991936598503,0.0018991948372885,-0.0016522939676006,0.0016522936757534,-0.0016522929326459,0.0016522946970012,-0.0018991942681537,0.0018991944221317,9.3625801854844e-12,9.3551023918671e-12,-0.0010789669007227,0.0010789670116298,7.3909686227467e-11,-9.4500891944972e-11,-0.00090459049541467,0.00090459059793498,-0.00077154338519197,0.00077154374937642,-0.00077154339958243,0.00077154376375986,-0.00090459022127976,0.0009045906419655,-0.00090459032260361,0.00090459074331222,-0.00077154322867235,0.00077154391598712,-0.0007715432390714,0.00077154392637926,-0.0013659534010372,0.0013659532638947,-0.0013659534553866,0.0013659532051591,-0.0013659534226372,0.0013659532855066,-0.001365953477301,0.0013659532270833,-0.001375458792886,0.0013754587030618,-0.0013754589573436,0.0013754588675336,-0.0013754588948451,0.0013754589166556,-0.0013754587399,0.0013754587616959,-0.00090459036932219,0.00090459047181956,0.71144338556332,123579,2954,0.0046252977780944,0.0078249077919965,0.0044875126249913,37.199222605617,0.00021279378084493,0.00021279378084493,0.00021279378084493,3292337.7498545,0.017082939230856
38880000,0.99873938152518,0.017527332260702,0.0052100613654381,0.0071587002459513,0.0051585706493122,-0.0011110110728116,0.0011110116313653,2.694796885952e-10,2.6947401440089e-10,8.5688957011183e-10,-3.0332448196882e-10,-0.00047314607562226,0.00047314630917349,-0.0013049446319305,0.0013049441168145,-0.0013049446702126,0.0013049441551152,-0.00047314513174376,0.00047314757027568,-0.00047314497545039,0.00047314741404698,-0.0013049434903338,0.0013049452702056,-0.0013049435283159,0.0013049453082076,-0.0013421365250946,0.001342137128142,-0.0013421365710501,0.0013421371739531,-0.0013421369250725,0.0013421367302013,-0.0013421369708578,0.0013421367758666,-0.00096990223809654,0.00096990256509988,-0.00096990217355986,0.00096990250052405,-0.0009699018622767,0.00096990294408359,-0.00096990179736522,0.00096990287913297,-0.00047314623133047,0.000473146464816,-1.8867775281828e-10,8.8951180328235e-10,2.4135025244487e-10,4.4676437959605e-10,-0.0018897353804709,0.0018897360627318,-0.0019071796545717,0.0019071801805574,-0.0016572106831241,0.0016572102625935,-0.0016572096708897,0.001657211354491,-0.0019425061851243,0.0019425064172066,-0.0019425064290885,0.0019425067982951,-0.0019425058210009,0.0019425067917475,-0.0019425060649309,0.0019425071728113,-0.0019071794282965,0.0019071802726332,-0.001907179270241,0.0019071805155732,-0.0016572107242253,0.0016572104408367,-0.0016572097120327,0.0016572115327649,-0.001907179812645,0.0019071799376345,-5.2316380152851e-11,-5.2323929797214e-11,-0.0010777696420597,0.0010777694042597,5.3694367320995e-12,-1.9949293030439e-10,-0.00089689271014088,0.00089689253252701,-0.00076387594322956,0.00076387581850422,-0.00076387594153903,0.00076387581680654,-0.00089689243869952,0.00089689265644886,-0.00089689249519508,0.00089689271296734,-0.00076387575135873,0.00076387602312242,-0.00076387574303317,0.00076387601478981,-0.0013675123631306,0.0013675120882081,-0.0013675124299862,0.0013675120185221,-0.001367512416602,0.0013675121416913,-0.0013675124821875,0.0013675120707332,-0.0013789183048942,0.001378918104445,-0.0013789184169013,0.0013789182164663,-0.0013789183397892,0.001378918275867,-0.0013789182414963,0.0013789181775595,-0.00089689262193028,0.00089689244429347,0.72623818387667,123579,2954,0.0046220603270066,0.0078405702066548,0.0044826113673751,37.193705576728,0.00021274964461383,0.00021274964461383,0.00021274964461383,3219761.1094584,0.017090631361292
