time,ASR_ext,ASR_strain,ASR_strain_xx,ASR_strain_yy,ASR_strain_zz,disp_x_101,disp_x_102,disp_x_103,disp_x_104,disp_x_105,disp_x_106,disp_x_p1_neg,disp_x_p1_pos,disp_x_p2_neg,disp_x_p2_pos,disp_x_p3_neg,disp_x_p3_pos,disp_x_p4_neg,disp_x_p4_pos,disp_x_p5_neg,disp_x_p5_pos,disp_x_p6_neg,disp_x_p6_pos,disp_y_101,disp_y_102,disp_y_103,disp_y_104,disp_y_105,disp_y_106,disp_y_p1_neg,disp_y_p1_pos,disp_y_p2_neg,disp_y_p2_pos,disp_y_p3_neg,disp_y_p3_pos,disp_y_p4_neg,disp_y_p4_pos,disp_y_p5_neg,disp_y_p5_pos,disp_y_p6_neg,disp_y_p6_pos,disp_y_p7_neg,disp_y_p7_pos,disp_y_p8_neg,disp_y_p8_pos,disp_z_101,disp_z_102,disp_z_103,disp_z_104,disp_z_105,disp_z_106,disp_z_p1_neg,disp_z_p1_pos,disp_z_p2_neg,disp_z_p2_pos,disp_z_p3_neg,disp_z_p3_pos,disp_z_p4_neg,disp_z_p4_pos,disp_z_p5_neg,disp_z_p5_pos,disp_z_p6_neg,disp_z_p6_pos,humidity,ndof,nelem,strain_xx,strain_yy,strain_zz,temp,thermal_strain_xx,thermal_strain_yy,thermal_strain_zz,vonmises,vstrain
2419200,0,0,0,0,0,0,0,0,0,0,0,0,0,0,0,0,0,0,0,0,0,0,0,0,0,0,0,0,0,0,0,0,0,0,0,0,0,0,0,0,0,0,0,0,0,0,0,0,0,0,0,0,0,0,0,0,0,0,0,0,0,0,0,0,0,0,0,0,0,0,0,0,0,0,0
3419200,0.15985851955796,0.0026637872413516,0.00088792908045053,0.00088792908045053,0.00088792908045053,-0.0002373745724605,0.00023737456580002,-2.241224921823e-12,-2.2413767039508e-12,-1.912640114275e-12,-2.5049458910637e-12,-0.00024394215238775,0.00024394214743583,-0.00024394215282703,0.00024394214787501,-0.0002439421529938,0.00024394214766532,-0.00024394215342984,0.00024394214810126,-0.00024094073203045,0.00024094072684775,-0.00024094073222168,0.00024094072703868,-1.340733044915e-12,-8.2034788424775e-13,-1.4683921141702e-12,-7.6007258102819e-13,-0.00024967758381688,0.00024967758034031,-0.00025537892414247,0.00025537892113142,-0.00025537892434357,0.00025537892182257,-0.00025537892475526,0.00025537892212464,-0.00025537892495636,0.0002553789228158,-0.00025060180941591,0.00025060180639876,-0.00025060180894372,0.00025060180730689,-0.00024754533528355,0.00024754533254834,-0.0002475453350342,0.00024754533333765,-1.2373143920711e-12,-1.2371625584742e-12,-0.00024967758395062,0.00024967758020657,-8.7117502223048e-13,-1.5962719335176e-12,-0.00025537892390721,0.00025537892131395,-0.00025537892461885,0.00025537892153673,-0.00025537892474879,0.00025537892215564,-0.00025537892544647,0.00025537892236445,-0.00024754533571148,0.00024754533271205,-0.00024754533539763,0.0002475453323979,0.75746877217741,125301,3014,0.00098857359328412,0.0010397799752739,0.0010397799752739,31.882660332608,0.00017026128266087,0.00017026128266087,0.00017026128266087,1457169.9896259,0.0030728476523725
4419200,0.35074896214414,0.0056678259001201,0.0018071377437064,0.0019303440782069,0.0019303440782069,-0.00044155735422304,0.00044155734195771,-4.5907843282194e-12,-4.5909091332303e-12,-4.0919445380208e-12,-4.8753879352452e-12,-0.00046409759782288,0.00046409758736276,-0.00046409759928618,0.00046409758882598,-0.00046409759946705,0.00046409758852511,-0.00046409760091762,0.00046409758997559,-0.00045905825913859,0.00045905824908444,-0.0004590582600126,0.0004590582499582,-3.1210755892034e-12,-2.5973837601649e-12,-3.9563870022804e-12,-2.1173802361559e-12,-0.00049504761371644,0.00049504760559225,-0.00051923064842674,0.00051923064073873,-0.00051923064957222,0.00051923064315972,-0.00051923065075075,0.00051923064347323,-0.00051923065189623,0.00051923064589421,-0.0005011894455228,0.000501189437481,-0.00050118944492264,0.00050118944047309,-0.0004850539918968,0.00048505398580015,-0.00048505399231985,0.00048505398730177,-3.2459036486951e-12,-3.2457786525137e-12,-0.00049504761402154,0.00049504760528715,-2.3257017822893e-12,-4.2412643366976e-12,-0.00051923064789739,0.00051923064110797,-0.00051923065040233,0.00051923064231662,-0.0005192306505381,0.00051923064374877,-0.00051923065299312,0.00051923064490749,-0.00048505399367624,0.0004850539861093,-0.00048505399258528,0.00048505398501809,0.73992840791513,125301,3014,0.0018381791377273,0.002060556207995,0.002060556207995,33.607449931613,0.0001840595994529,0.0001840595994529,0.0001840595994529,2645299.3133491,0.0059771057453907
5419200,0.55052762283922,0.0086553522953943,0.0026668931218899,0.0029942295867522,0.0029942295867522,-0.00062899370648987,0.00062899370329277,-7.2317626040283e-13,-7.2335299029797e-13,-8.7759739588432e-13,-4.3838657817919e-13,-0.00067841163719319,0.0006784116343667,-0.00067841163808734,0.00067841163526073,-0.00067841163792882,0.00067841163538311,-0.00067841163881567,0.00067841163626982,-0.00066584521926604,0.00066584521742626,-0.0006658452194918,0.00066584521765167,-1.137388022476e-12,-1.799272285305e-12,-1.8893477461075e-12,-9.7491171809278e-13,-0.00074190674638954,0.00074190674204764,-0.00079768217369821,0.00079768216983117,-0.00079768217436525,0.0007976821711093,-0.00079768217508576,0.00079768217075117,-0.00079768217575281,0.0007976821720293,-0.0007574916892212,0.00075749168521474,-0.00075749168801241,0.00075749168581933,-0.00072131202526344,0.00072131202279059,-0.00072131202571136,0.00072131202196654,-1.676000358163e-12,-1.6758241282526e-12,-0.00074190674652004,0.00074190674191714,-1.0130642280538e-12,-2.0094367454397e-12,-0.0007976821735792,0.00079768216988651,-0.0007976821749331,0.00079768217055813,-0.00079768217477351,0.00079768217108095,-0.0007976821760932,0.00079768217171834,-0.0007213120259535,0.00072131202180003,-0.0007213120260983,0.0007213120219445,0.72499638738019,125301,3014,0.0026175924110039,0.0030864504816825,0.0030864504816825,36.2790540873,0.0002054324326984,0.0002054324326984,0.0002054324326984,3337537.1916219,0.0088293278444596
6419200,0.70668538313182,0.010530752249611,0.0031928883412711,0.00366893195417,0.00366893195417,-0.00073062824880873,0.00073062824703053,-3.7987698325421e-13,-3.8000850864797e-13,-6.7584817683153e-13,-3.4299805105675e-14,-0.0008115718841067,0.00081157188238745,-0.00081157188472775,0.00081157188300841,-0.00081157188453289,0.00081157188322128,-0.00081157188515396,0.00081157188384226,-0.00077812273207313,0.00077812273127554,-0.00077812273212799,0.00077812273133015,-5.7475725092977e-13,-1.3369925068996e-12,-1.1844129125868e-12,-7.4470394345231e-13,-0.00088710320593622,0.00088710320308548,-0.00097940928074917,0.00097940927847812,-0.00097940928133587,0.00097940927935262,-0.00097940928174884,0.00097940927895115,-0.00097940928233554,0.00097940927982565,-0.00090589313445206,0.00090589313191111,-0.00090589313378636,0.00090589313213699,-0.00085458404526706,0.00085458404394101,-0.00085458404616198,0.00085458404335361,-1.0419931090022e-12,-1.0418630541518e-12,-0.00088710320597638,0.00088710320304533,-7.3298418136581e-13,-1.2221693400362e-12,-0.00097940928075495,0.00097940927846843,-0.00097940928166214,0.00097940927904058,-0.00097940928149076,0.00097940927920432,-0.00097940928238861,0.00097940927976713,-0.00085458404603167,0.00085458404349031,-0.00085458404588523,0.00085458404334363,0.59839168540088,125301,3014,0.0030401051094297,0.0036893597885619,0.0036893597885619,36.740630765154,0.00020912504612123,0.00020912504612123,0.00020912504612123,3555189.9393441,0.010473469361861
7419200,0.8320995275826,0.011839276624023,0.0035697196102757,0.0041347785068736,0.0041347785068736,-0.00080139708104638,0.00080139707848291,-6.194529290794e-13,-6.1955033786834e-13,-9.3292230868738e-13,-2.6408150602068e-13,-0.0009089206531841,0.00090892065100376,-0.0009089206537663,0.00090892065158589,-0.00090892065356518,0.0009089206518117,-0.00090892065414765,0.0009089206523941,-0.00085598549147276,0.00085598549014707,-0.00085598549150371,0.00085598549017783,-6.6691801346312e-13,-1.4341610660404e-12,-1.1273173732685e-12,-9.583597873918e-13,-0.00098509569210727,0.00098509568894033,-0.0011083970373352,0.0011083970350291,-0.0011083970379636,0.0011083970357678,-0.0011083970383202,0.0011083970354947,-0.0011083970389486,0.0011083970362334,-0.0010060154454061,0.0010060154429194,-0.0010060154449422,0.0010060154428138,-0.00094463649690919,0.00094463649524773,-0.00094463649781032,0.00094463649465884,-1.0659539064281e-12,-1.0658579387716e-12,-0.0009850956920839,0.00098509568896371,-8.8642659674653e-13,-1.1014135584542e-12,-0.0011083970373695,0.0011083970349934,-0.0011083970381343,0.0011083970356068,-0.0011083970380934,0.0011083970357173,-0.0011083970388527,0.0011083970363252,-0.00094463649751521,0.00094463649495793,-0.00094463649736593,0.00094463649480846,0.52694121020036,125301,3014,0.0033342611825111,0.0040960606481648,0.0040960606481648,40.779745463023,0.00024143796370419,0.00024143796370419,0.00024143796370419,3594567.3559494,0.011593347085681
8419200,0.90778092258001,0.012544230262886,0.0037784260264152,0.0043829021182353,0.0043829021182353,-0.00082802150834109,0.00082802150792803,8.8507060875926e-14,8.8382064694474e-14,-2.9367355788616e-13,4.8650547582696e-13,-0.0009557919390759,0.00095579193858145,-0.0009557919394747,0.00095579193898017,-0.0009557919392479,0.00095579193924762,-0.00095579193964819,0.00095579193964782,-0.0008866117116126,0.00088661171194376,-0.00088661171163908,0.00088661171197,-1.3531890329593e-13,-9.7798339533741e-13,-3.9774019443876e-13,-6.5946198515052e-13,-0.0010238670656039,0.0010238670639796,-0.0011686630213201,0.0011686630204313,-0.0011686630219,0.0011686630208275,-0.0011686630220652,0.0011686630205981,-0.0011686630226451,0.0011686630209942,-0.0010472277908528,0.0010472277899146,-0.0010472277907637,0.0010472277893427,-0.00098166476395191,0.00098166476334625,-0.00098166476494042,0.00098166476269005,-5.2324816218664e-13,-5.2312516594409e-13,-0.0010238670655435,0.0010238670640401,-5.6016675493721e-13,-3.3644236897539e-13,-0.0011686630214913,0.0011686630202781,-0.0011686630219037,0.0011686630208344,-0.0011686630219328,0.0011686630207196,-0.0011686630223455,0.0011686630212763,-0.00098166476440514,0.00098166476321154,-0.00098166476425957,0.00098166476306573,0.47156008474719,125301,3014,0.0034449929585982,0.0042569356616257,0.0042569356616257,41.436352882549,0.00024669082306039,0.00024669082306039,0.00024669082306039,3468914.6502138,0.012031030589627
9419200,0.94967735503927,0.012881399293237,0.0038808716633438,0.0045002638149467,0.0045002638149467,-0.0008339546161305,0.00083395461665682,4.0401421646654e-13,4.0388986732415e-13,-1.8611240262915e-14,8.3059221421329e-13,-0.00097529390513532,0.0009752939054024,-0.00097529390543364,0.00097529390570064,-0.00097529390518971,0.00097529390599268,-0.00097529390548983,0.0009752939062927,-0.00089429280558213,0.00089429280665349,-0.00089429280561808,0.0008942928066892,1.5090386482967e-13,-7.4240625749844e-13,7.0429043753558e-14,-5.7889931370211e-13,-0.0010333466350316,0.0010333466341996,-0.0011917967205531,0.001191796720476,-0.0011917967211456,0.0011917967206246,-0.0011917967211826,0.0011917967204898,-0.001191796721775,0.0011917967206384,-0.0010584042556248,0.0010584042556567,-0.0010584042558884,0.0010584042546791,-0.00099175346972931,0.00099175346963358,-0.00099175347078365,0.00099175346893976,-2.304061671321e-13,-2.3028343558735e-13,-0.0010333466349456,0.0010333466342856,-4.5696367242642e-13,1.5691870624124e-13,-0.0011917967208442,0.0011917967202108,-0.0011917967210049,0.0011917967207766,-0.0011917967211456,0.0011917967205124,-0.0011917967213095,0.0011917967210813,-0.00099175347005821,0.00099175346964458,-0.00099175346990358,0.00099175346948971,0.40621133923259,125301,3014,0.0034697367925311,0.0042962752631985,0.0042962752631985,41.144138656271,0.00024435310925017,0.00024435310925017,0.00024435310925017,3317012.6082547,0.012135773133946
10419200,0.97062886874234,0.013064273851179,0.0039377013970008,0.004563286227089,0.004563286227089,-0.00083097014120135,0.00083097014382158,1.1058914216585e-12,1.1057456908164e-12,6.1366032662767e-13,1.5777967993908e-12,-0.00097928056599865,0.00097928056794014,-0.00097928056610471,0.0009792805680461,-0.00097928056583441,0.00097928056838006,-0.00097928056594324,0.00097928056848878,-0.00089271683996127,0.00089271684265992,-0.00089271684001739,0.00089271684271576,7.1172932948061e-13,-2.6378151334701e-13,8.7803568580368e-13,-3.0426856015821e-13,-0.0010315231777341,0.001031523178501,-0.0011968314130822,0.0011968314145227,-0.0011968314136421,0.0011968314142768,-0.0011968314134694,0.001196831414229,-0.0011968314140293,0.0011968314139831,-0.001058116625113,0.0010581166268515,-0.0010581166258692,0.0010581166253253,-0.00099114474966138,0.0009911447506544,-0.00099114475081687,0.00099114474989231,3.4034854376208e-13,3.4049203937839e-13,-0.0010315231776079,0.0010315231786271,-1.5054579798803e-13,1.0031691038725e-12,-0.0011968314135417,0.0011968314141072,-0.0011968314132999,0.0011968314146328,-0.0011968314135554,0.001196831414121,-0.0011968314133219,0.0011968314146548,-0.0009911447498125,0.00099114475085987,-0.00099114474965442,0.00099114475070151,0.43665130715676,125301,3014,0.0034574006800038,0.0042887163317152,0.0042887163317152,38.086342964168,0.00021989074371334,0.00021989074371334,0.00021989074371334,3242654.0225652,0.012108027200626
11419200,0.98273637385492,0.013162326916576,0.0039684270839533,0.0045969499163114,0.0045969499163114,-0.00082883811086249,0.0008288381118452,5.5852549625301e-13,5.5840108828888e-13,9.119209649699e-14,1.0264300550311e-12,-0.00098522973811091,0.00098522973871327,-0.00098522973835044,0.00098522973895271,-0.00098522973808046,0.00098522973927262,-0.00098522973832092,0.00098522973951299,-0.00089107104168287,0.00089107104313982,-0.0008910710417267,0.00089107104318343,3.5440122725522e-13,-6.1707264885415e-13,6.1520096981943e-13,-7.734541769401e-13,-0.0010282284373811,0.0010282284370428,-0.0012009368874081,0.0012009368879975,-0.0012009368881638,0.0012009368878223,-0.0012009368879959,0.0012009368879176,-0.0012009368887515,0.0012009368877424,-0.001056094891715,0.0010560948928367,-0.0010560948926695,0.0010560948910997,-0.00098983174768102,0.0009898317477925,-0.00098983174881975,0.00098983174702593,-2.5048352437086e-14,-2.4926944381313e-14,-0.0010282284372577,0.0010282284371662,-6.0749600023772e-13,7.4031660442414e-13,-0.0012009368879201,0.0012009368875096,-0.001200936887759,0.001200936888241,-0.0012009368881529,0.0012009368877425,-0.001200936887996,0.001200936888478,-0.00098983174776972,0.00098983174805558,-0.00098983174760913,0.00098983174789477,0.40445605707229,125301,3014,0.0034486063814637,0.0042750604223641,0.0042750604223641,37.625922124565,0.00021620737699652,0.00021620737699652,0.00021620737699652,3115374.4640872,0.012071541067926
12419200,0.9896807136005,0.013225773688837,0.0039885531352391,0.0046186102767988,0.0046186102767988,-0.00082720000307326,0.0008272000043722,6.6078084301059e-13,6.606493470277e-13,1.9180216998713e-13,1.1259389562789e-12,-0.00098654836882998,0.00098654836969143,-0.00098654836903571,0.00098654836989708,-0.00098654836876786,0.00098654837021706,-0.00098654836897453,0.00098654837042363,-0.00089001941513962,0.00089001941683322,-0.00089001941518976,0.00089001941688311,4.3618762838065e-13,-5.2807655880009e-13,7.8977376174047e-13,-7.6915789246024e-13,-0.0010262060016081,0.0010262060015394,-0.0012018091583899,0.0012018091592553,-0.0012018091591627,0.0012018091589838,-0.0012018091589324,0.001201809159133,-0.0012018091597052,0.0012018091588614,-0.0010548256212035,0.0010548256226976,-0.0010548256223189,0.001054825620788,-0.00098868332835497,0.00098868332860084,-0.00098868332949349,0.00098868332784721,7.180280647355e-14,7.1932096641471e-14,-0.0010262060014751,0.0010262060016724,-5.9362633571116e-13,9.2453391788814e-13,-0.0012018091589503,0.0012018091587215,-0.0012018091586921,0.0012018091594693,-0.0012018091591371,0.0012018091589084,-0.001201809158884,0.0012018091596612,-0.00098868332837757,0.00098868332894033,-0.00098868332821263,0.00098868332877515,0.45322610794666,125301,3014,0.0034418255720703,0.0042666739865648,0.0042666739865648,36.800418769258,0.00020960335015406,0.00020960335015406,0.00020960335015406,3072294.0628697,0.01204772167767
13419200,0.99355877115722,0.013258213908621,0.003998877208624,0.0046296683499985,0.0046296683499985,-0.00082070011322654,0.00082070011542494,9.5939183829672e-13,9.5922654922854e-13,4.7530843553591e-13,1.4319149765686e-12,-0.00098523858777944,0.0009852385893166,-0.00098523858790682,0.00098523858944387,-0.00098523858763514,0.00098523858977201,-0.00098523858776377,0.00098523858990051,-0.00088370700803782,0.00088370701042452,-0.00088370700809453,0.0008837070104809,6.8114874893302e-13,-2.9665638771864e-13,1.149505926122e-12,-6.3424536751834e-13,-0.001018235504982,0.0010182355056477,-0.0011986039288096,0.0011986039303142,-0.0011986039295693,0.0011986039298775,-0.0011986039292505,0.0011986039300768,-0.0011986039300102,0.0011986039296401,-0.0010476469707241,0.0010476469729962,-0.0010476469720392,0.001047646970847,-0.00098218940510224,0.00098218940583726,-0.00098218940625529,0.00098218940506813,3.1385500018048e-13,3.1401875988361e-13,-0.0010182355048481,0.0010182355057815,-4.6049269697009e-13,1.2844879803621e-12,-0.0011986039294515,0.0011986039297043,-0.0011986039290259,0.0011986039304367,-0.0011986039295261,0.0011986039297789,-0.001198603929107,0.0011986039305178,-0.00098218940505074,0.00098218940624485,-0.00098218940489048,0.00098218940608428,0.4150894025916,125301,3014,0.0034148713204246,0.0042336166048685,0.0042336166048685,34.785275960703,0.00019348220768562,0.00019348220768562,0.00019348220768562,2988214.379988,0.011953576713198
14419200,0.99579837297504,0.013275540995083,0.0040044262689292,0.0046355573630771,0.0046355573630771,-0.00081550857281848,0.00081550857513696,9.9591969298407e-13,9.9575299219431e-13,5.0254351528763e-13,1.4752158302278e-12,-0.00098047491615318,0.00098047491780167,-0.00098047491626408,0.00098047491791246,-0.00098047491598845,0.00098047491824621,-0.00098047491610037,0.00098047491835802,-0.00087883582872086,0.00087883583119808,-0.00087883582878535,0.00087883583126227,7.1407680826077e-13,-2.7533699673198e-13,1.2762860300989e-12,-7.0309458953207e-13,-0.0010130910346015,0.0010130910353632,-0.0011939958500275,0.0011939958516939,-0.0011939958508319,0.001193995851173,-0.0011939958504517,0.0011939958514313,-0.0011939958512561,0.0011939958509103,-0.001042745326259,0.001042745328786,-0.0010427453277688,0.0010427453264476,-0.000977187434295,0.00097718743504122,-0.00097718743546935,0.00097718743427005,3.600226780249e-13,3.6018696712363e-13,-0.0010130910344501,0.0010130910355146,-5.1003321295309e-13,1.4292663221891e-12,-0.0011939958507197,0.0011939958510343,-0.0011939958502102,0.0011939958518117,-0.0011939958507721,0.0011939958510867,-0.0011939958502696,0.0011939958518712,-0.00097718743417477,0.00097718743553584,-0.0009771874340058,0.00097718743536658,0.38312450045663,125301,3014,0.0033933159311437,0.0042122713448892,0.0042122713448892,32.633969295132,0.00017627175436106,0.00017627175436106,0.00017627175436106,2985159.9895043,0.011888564236564
15419200,0.9969640160236,0.013287625821214,0.0040083036949977,0.0046396610631082,0.0046396610631082,-0.00080372882391351,0.00080372882861825,1.789215899506e-12,1.7890383461066e-12,1.2363112315405e-12,2.3020598207115e-12,-0.00096911756947822,0.00096911757300953,-0.00096911756937852,0.0009691175729097,-0.00096911756908458,0.00096911757327844,-0.00096911756898726,0.00096911757318098,-0.00086741752581846,0.00086741753013076,-0.00086741752590957,0.00086741753022154,1.3233535866739e-12,2.7367738934362e-13,2.0624778093547e-12,-2.8849211912248e-13,-0.0010018939128323,0.0010018939153948,-0.0011832232832033,0.0011832232864624,-0.0011832232839079,0.0011832232855843,-0.0011832232833505,0.0011832232858698,-0.0011832232840551,0.0011832232849917,-0.0010318085074091,0.0010318085116366,-0.0010318085092634,0.0010318085089189,-0.00096606425723873,0.00096606425925169,-0.00096606425849336,0.00096606425843397,9.7786918559115e-13,9.7804479787337e-13,-0.0010018939126528,0.0010018939155743,-7.896166130486e-14,2.2412804421857e-12,-0.001183223284021,0.001183223285698,-0.0011832232831453,0.0011832232863664,-0.0011832232837558,0.0011832232854329,-0.0011832232828922,0.0011832232861135,-0.00096606425699513,0.00096606425988517,-0.00096606425682408,0.00096606425971379,0.51103778709309,125301,3014,0.0033444046550639,0.0041658107269939,0.0041658107269939,27.044461053566,0.00013155568842853,0.00013155568842853,0.00013155568842853,2999807.0732316,0.011745059592189
16419200,0.99771304399283,0.013294675683271,0.0040105623657641,0.0046420566587532,0.0046420566587532,-0.0007942604607963,0.00079426046350915,1.1268937800509e-12,1.1266906391979e-12,6.0711095317712e-13,1.6332069448842e-12,-0.00096630914087553,0.00096630914275973,-0.00096630914095474,0.00096630914283881,-0.00096630914066195,0.00096630914318921,-0.00096630914074163,0.00096630914326874,-0.0008579349582991,0.00085793496110233,-0.00085793495836497,0.0008579349611678,8.6409310812084e-13,-1.7925189897753e-13,1.6401743607109e-12,-8.1016298738154e-13,-0.00098989699102407,0.00098989699216511,-0.0011773337463686,0.0011773337484586,-0.0011773337472853,0.0011773337477404,-0.0011773337467721,0.0011773337481391,-0.0011773337476889,0.001177333747421,-0.0010207031904305,0.0010207031937004,-0.001020703192379,0.0010207031908766,-0.00095608123739223,0.00095608123832653,-0.00095608123861419,0.00095608123749437,4.9103299927893e-13,4.9123408137131e-13,-0.00098989699086495,0.00098989699232423,-6.0469435053208e-13,1.8015235235165e-12,-0.0011773337472164,0.0011773337476405,-0.0011773337465119,0.0011773337485328,-0.0011773337472306,0.0011773337476548,-0.001177333746533,0.001177333748554,-0.00095608123712972,0.00095608123895151,-0.00095608123696657,0.00095608123878798,0.46538451425637,125301,3014,0.0033051295194653,0.0041160502619029,0.0041160502619029,24.406322705516,0.00011045058164413,0.00011045058164413,0.00011045058164413,2886002.2274736,0.011604702587083
17419200,0.9982161679762,0.013300048568047,0.0040122977704334,0.0046438753988067,0.0046438753988067,-0.00078820968207402,0.00078820968465307,1.076662902805e-12,1.0764581443544e-12,5.6498519597244e-13,1.5733189655973e-12,-0.00095932811626256,0.00095932811808416,-0.00095932811634486,0.00095932811816632,-0.00095932811605845,0.00095932811851112,-0.00095932811614101,0.00095932811859353,-0.00085225728480734,0.00085225728749245,-0.00085225728488167,0.00085225728756639,8.1395232069515e-13,-2.0870782448687e-13,1.6321539237445e-12,-8.8314145129894e-13,-0.00098422012956164,0.00098422013059584,-0.0011709260605644,0.0011709260626159,-0.0011709260615051,0.0011709260618797,-0.0011709260609683,0.0011709260623104,-0.001170926061909,0.0011709260615742,-0.0010151598074938,0.0010151598107434,-0.0010151598095177,0.0010151598078671,-0.00095026708955458,0.00095026709035729,-0.00095026709076936,0.00095026708955939,4.6646010290522e-13,4.6666303788217e-13,-0.00098422012938811,0.00098422013076937,-6.615955681213e-13,1.8083689467465e-12,-0.0011709260614163,0.0011709260617939,-0.0011709260606941,0.0011709260627106,-0.001170926061437,0.0011709260618147,-0.001170926060722,0.0011709260627385,-0.00095026708925838,0.00095026709104261,-0.00095026708908217,0.00095026709086602,0.52521873377382,125301,3014,0.00327999336722,0.0040924886750144,0.0040924886750144,21.96928988189,9.0954319055117e-05,9.0954319055117e-05,9.0954319055117e-05,2902549.9699257,0.01153159323119
18419200,0.99852874824661,0.013303253014778,0.004013331790696,0.0046449606120411,0.0046449606120411,-0.00077619525100659,0.00077619525503456,1.5553574260747e-12,1.5551116100548e-12,1.0193570505183e-12,2.0632893943959e-12,-0.00095073977991888,0.0009507397828387,-0.00095073977987494,0.00095073978279461,-0.00095073977958294,0.00095073978315285,-0.00095073977954007,0.00095073978310983,-0.00084037287448341,0.00084037287827984,-0.00084037287457274,0.00084037287836866,1.1944540848685e-12,1.5156418415645e-13,2.1099676531498e-12,-5.937379150518e-13,-0.00097108086959718,0.00097108087178445,-0.0011609796999849,0.0011609797029913,-0.0011609797008525,0.0011609797020505,-0.0011609797002235,0.0011609797024997,-0.0011609797010911,0.0011609797015589,-0.0010025537775861,0.0010025537818883,-0.001002553779775,0.0010025537788107,-0.00093814956691181,0.00093814956853041,-0.00093814956815346,0.00093814956771446,8.4126556462035e-13,8.4151108653159e-13,-0.00097108086942422,0.00097108087195742,-3.7973461995626e-13,2.2841388828897e-12,-0.0011609797009136,0.001160979702103,-0.0011609796999822,0.0011609797029415,-0.0011609797007518,0.0011609797019412,-0.0011609796998299,0.0011609797027893,-0.0009381495665592,0.00093814956927185,-0.000938149566386,0.00093814956909816,0.50516361584657,125301,3014,0.0032301188561357,0.0040379744088637,0.0040379744088637,17.466071135665,5.4928569085318e-05,5.4928569085318e-05,5.4928569085318e-05,2851403.9098041,0.011370902232366
19419200,0.99878777144117,0.013306702506679,0.0040144492070464,0.0046461266498164,0.0046461266498164,-0.00077536616244684,0.00077536616333737,5.1529719920075e-13,5.1505205963077e-13,4.4141989727808e-14,9.8952457952686e-13,-0.00094970671954066,0.0009497067200459,-0.00094970671976786,0.00094970672027293,-0.0009497067194934,0.00094970672059365,-0.0009497067197195,0.00094970672081958,-0.00083968884578411,0.00083968884717137,-0.00083968884584733,0.00083968884723411,3.9613654518695e-13,-5.8558459424849e-13,1.2262905326108e-12,-1.2996610957631e-12,-0.00097003080942587,0.00097003080921914,-0.0011597979362327,0.0011597979372892,-0.001159797937325,0.0011597979367076,-0.0011597979368311,0.0011597979372147,-0.0011597979379234,0.001159797936633,-0.0010016220086079,0.0010016220109505,-0.0010016220106568,0.0010016220080741,-0.00093721782823475,0.00093721782807873,-0.00093721782940468,0.00093721782732219,5.428951796308e-14,5.4532392896359e-14,-0.00097003080926,0.00097003080938501,-1.0738970461236e-12,1.3972209040958e-12,-0.0011597979370737,0.001159797936462,-0.0011597979365139,0.0011597979375384,-0.001159797937317,0.0011597979367055,-0.0011597979367608,0.0011597979377855,-0.00093721782793431,0.00093721782877838,-0.00093721782774909,0.0009372178285927,0.65325215552177,125301,3014,0.0032266707753997,0.0040336158718244,0.0040336158718244,17.551719729931,5.5613757839447e-05,5.5613757839447e-05,5.5613757839447e-05,2844942.6573169,0.011358593910308
20419200,0.99901322351228,0.013309917879678,0.0040154910457394,0.0046472134169693,0.0046472134169693,-0.00077349398098004,0.00077349398122496,3.0125000290155e-13,3.0104856787878e-13,-1.2926833035301e-13,7.42395335038e-13,-0.00095373639655696,0.00095373639655242,-0.00095373639684188,0.00095373639683721,-0.00095373639658727,0.00095373639713216,-0.00095373639687108,0.00095373639741583,-0.00083766017194686,0.0008376601728243,-0.00083766017200032,0.00083766017287737,2.2792168415038e-13,-6.9138759917167e-13,9.7796540369954e-13,-1.3350789600607e-12,-0.000964795979329,0.0009647959786801,-0.0011602062964647,0.0011602062970616,-0.0011602062975469,0.0011602062966127,-0.0011602062971262,0.0011602062970946,-0.0011602062982084,0.0011602062966457,-0.00099712003574743,0.00099712003757966,-0.00099712003758444,0.00099712003490793,-0.00093392994245625,0.00093392994199193,-0.00093392994355645,0.00093392994129101,-1.2250208117492e-13,-1.2230196964113e-13,-0.0009647959791989,0.00096479597881021,-1.1444563758786e-12,1.1131699198936e-12,-0.0011602062972551,0.00116020629628,-0.0011602062968294,0.0011602062973481,-0.0011602062975879,0.001160206296613,-0.0011602062971642,0.001160206297683,-0.00093392994223016,0.00093392994260801,-0.00093392994204772,0.00093392994242519,0.70012779305903,125301,3014,0.0032189274069303,0.0040119159010251,0.0040119159010251,18.60007411206,6.4000592896482e-05,6.4000592896482e-05,6.4000592896482e-05,2723122.2267037,0.011306926522125
21419200,0.99916650063347,0.013311950971231,0.0040161543971288,0.0046478982870509,0.0046478982870509,-0.00076320681255144,0.00076320681591033,1.3226141832799e-12,1.3223491031426e-12,8.4287895650881e-13,1.7814604158424e-12,-0.00094560222542196,0.0009456022278145,-0.00094560222542744,0.00094560222781981,-0.00094560222516586,0.00094560222814153,-0.00094560222517229,0.00094560222814777,-0.00082764208320033,0.00082764208645006,-0.00082764208329401,0.00082764208654321,1.0175007016104e-12,7.0043235227244e-14,1.8642212506072e-12,-6.1451498606528e-13,-0.00095317430495248,0.00095317430674836,-0.0011507464052033,0.0011507464077698,-0.0011507464060459,0.0011507464069549,-0.0011507464054958,0.0011507464073983,-0.0011507464063383,0.0011507464065834,-0.00098599855797434,0.0009859985617967,-0.00098599855994896,0.00098599855894493,-0.00092318635780029,0.00092318635911256,-0.00092318635895434,0.00092318635839956,6.7396338146956e-13,6.7423387320622e-13,-0.00095317430481393,0.00095317430688691,-4.3371361799374e-13,2.0042693738876e-12,-0.0011507464060707,0.0011507464069373,-0.0011507464052669,0.0011507464077527,-0.0011507464060004,0.0011507464068672,-0.0011507464052044,0.0011507464076903,-0.00092318635752306,0.00092318635979969,-0.00092318635733719,0.00092318635961331,0.64990944923706,125301,3014,0.0031762105679362,0.0039636923028674,0.0039636923028674,15.216724425071,3.6933795400568e-05,3.6933795400568e-05,3.6933795400568e-05,2681571.0577467,0.011166213951346
22419200,0.99929345110358,0.01331368042052,0.0040167201913339,0.0046484801145933,0.0046484801145933,-0.00076149967911894,0.00076149968038283,6.314442392237e-13,6.3116918880277e-13,1.8365763938518e-13,1.0778667483813e-12,-0.0009425234733698,0.00094252347417636,-0.00094252347355628,0.00094252347436266,-0.00094252347330013,0.00094252347466683,-0.00094252347348609,0.00094252347485261,-0.00082608605734047,0.00082608605898766,-0.00082608605741849,0.00082608605906515,4.8414601119972e-13,-4.4146233531986e-13,1.2839436877068e-12,-1.1154769305856e-12,-0.00095175542798991,0.00095175542815084,-0.0011480027879227,0.0011480027892063,-0.0011480027889287,0.0011480027886187,-0.0011480027884578,0.0011480027891029,-0.0011480027894638,0.0011480027885153,-0.00098457415959391,0.0009845741621101,-0.0009845741615184,0.00098457415935884,-0.00092159250675665,0.00092159250686002,-0.00092159250788664,0.00092159250617309,1.4918620716966e-13,1.4945919882995e-13,-0.00095175542784648,0.00095175542829428,-9.1686490217131e-13,1.4316060301244e-12,-0.0011480027887389,0.001148002788408,-0.0011480027881706,0.0011480027893955,-0.0011480027889344,0.0011480027886036,-0.0011480027883702,0.0011480027895952,-0.00092159250650474,0.00092159250753804,-0.00092159250630654,0.00092159250733933,0.66642562144511,125301,3014,0.0031691060659021,0.0039577972663718,0.0039577972663718,14.857990882184,3.4063927057472e-05,3.4063927057472e-05,3.4063927057472e-05,2693673.3464659,0.011147091702011
23419200,0.9994062059269,0.013315127658574,0.0040171933726524,0.0046489671429609,0.0046489671429609,-0.00076199033028207,0.00076199033070363,3.5379325068257e-13,3.5352258248071e-13,-6.4856268685511e-14,7.797329149888e-13,-0.00094406654169677,0.00094406654185399,-0.00094406654195819,0.00094406654211522,-0.00094406654171377,0.00094406654240164,-0.0009440665419743,0.00094406654266199,-0.00082649548181019,0.00082649548280551,-0.00082649548187746,0.00082649548287226,2.6407129640036e-13,-6.2331552615324e-13,9.9968874144516e-13,-1.2481034344574e-12,-0.00095131445863492,0.00095131445815909,-0.0011485435848161,0.0011485435855338,-0.0011485435858513,0.0011485435850795,-0.001148543585443,0.001148543585552,-0.0011485435864782,0.0011485435850976,-0.00098427542709645,0.00098427542900076,-0.00098427542887766,0.00098427542640195,-0.00092161403390107,0.00092161403354999,-0.00092161403498595,0.00092161403289632,-6.8891483647758e-14,-6.8625021199767e-14,-0.00095131445850479,0.00095131445828922,-1.0592886688701e-12,1.1347452901927e-12,-0.0011485435855823,0.001148543584779,-0.0011485435851499,0.0011485435857985,-0.0011485435858891,0.0011485435850859,-0.0011485435854591,0.0011485435861078,-0.0009216140336942,0.00092161403417705,-0.00092161403349709,0.00092161403397944,0.62875729639221,125301,3014,0.0031711454199169,0.0039559725772363,0.0039559725772363,15.70795110357,4.0863608828559e-05,4.0863608828559e-05,4.0863608828559e-05,2662004.9229319,0.011145474370548
24419200,0.99951266242652,0.013316570050983,0.0040176657506587,0.0046494521501623,0.0046494521501623,-0.00076629289675482,0.00076629289623602,4.2271385108789e-14,4.2013657688068e-14,-3.4345353714196e-13,4.4412190296896e-13,-0.00094745784922412,0.00094745784866195,-0.0009474578495681,0.00094745784900576,-0.00094745784933771,0.00094745784927202,-0.0009474578496804,0.00094745784961452,-0.00083078163190481,0.00083078163216915,-0.00083078163196058,0.00083078163222443,9.0457437931573e-15,-8.3265855549975e-13,6.5347354602291e-13,-1.3837693169569e-12,-0.00095555037381948,0.00095555037261673,-0.0011518902042579,0.001151890204321,-0.0011518902053121,0.0011518902040289,-0.0011518902049846,0.001151890204474,-0.0011518902060388,0.0011518902041818,-0.00098845697791824,0.0009884569790826,-0.00098845697950251,0.00098845697669806,-0.00092577793385172,0.0009257779329876,-0.00092577793488429,0.00092577793237521,-3.1512637310561e-13,-3.1487026328253e-13,-0.00095555037369955,0.00095555037273667,-1.2015214119927e-12,7.7912665409788e-13,-0.00115189020495,0.0011518902036334,-0.0011518902046828,0.0011518902046748,-0.0011518902053789,0.0011518902040624,-0.0011518902051122,0.0011518902051044,-0.00092577793370301,0.0009257779335515,-0.00092577793350649,0.00092577793335451,0.66255127740754,125301,3014,0.003189005663806,0.003973549397451,0.003973549397451,17.887330805996,5.8298646447969e-05,5.8298646447969e-05,5.8298646447969e-05,2662422.0026262,0.011199070448219
25419200,0.99960971040788,0.013318119951141,0.0040181732497305,0.0046499733507053,0.0046499733507053,-0.00076938162079764,0.00076938162037478,7.3834950275304e-14,7.355481177452e-14,-2.9934081122605e-13,4.619449467225e-13,-0.00095221162268193,0.00095221162220003,-0.00095221162301722,0.00095221162253512,-0.0009522116227956,0.00095221162279293,-0.00095221162312998,0.00095221162312712,-0.00083372147050373,0.00083372147083199,-0.00083372147056021,0.00083372147088794,2.6367499034892e-14,-7.88515714695e-13,6.125974647959e-13,-1.2793917994201e-12,-0.00095729765251373,0.00095729765140069,-0.0011552368258363,0.0011552368259118,-0.0011552368268347,0.001155236825658,-0.0011552368265431,0.0011552368260618,-0.0011552368275415,0.0011552368258079,-0.00099037177305472,0.00099037177415638,-0.0009903717744949,0.00099037177191327,-0.00092814876050978,0.00092814875973679,-0.00092814876151636,0.00092814875915112,-2.9944088169837e-13,-2.9915997851507e-13,-0.0009572976524088,0.00095729765150563,-1.1153471474985e-12,7.2262065972899e-13,-0.0011552368264925,0.0011552368252622,-0.001155236826262,0.0011552368262463,-0.0011552368269093,0.0011552368256793,-0.0011552368266796,0.001155236826664,-0.00092814876041041,0.00092814876025087,-0.0009281487602143,0.00092814876005423,0.77991302017261,125301,3014,0.0032018399202012,0.0039808094013528,0.0039808094013528,19.931984405093,7.4655875240741e-05,7.4655875240741e-05,7.4655875240741e-05,2618674.5015959,0.011226747902375
26419200,0.99968926316891,0.013319472129594,0.0040186169806425,0.0046504275744759,0.0046504275744759,-0.00076740708328626,0.00076740708399518,4.4716613349922e-13,4.4689111248915e-13,6.0025136861507e-14,8.3859017576341e-13,-0.00095441238736311,0.00095441238774924,-0.0009544123875982,0.00095441238798414,-0.00095441238737599,0.0009544123882492,-0.00095441238761109,0.00095441238848411,-0.00083165921979636,0.00083165922098799,-0.00083165921986721,0.0008316592210583,3.2134698459824e-13,-4.9814583897186e-13,9.1569698380629e-13,-9.754492570769e-13,-0.00095248804985409,0.00095248804965217,-0.00115458069317,0.001154580693952,-0.0011545806940623,0.0011545806935858,-0.0011545806937435,0.0011545806939595,-0.0011545806946358,0.0011545806935933,-0.00098608577531299,0.00098608577710416,-0.00098608577673977,0.00098608577485223,-0.00092477116910072,0.00092477116901087,-0.00092477117012138,0.0009247711684263,-1.2467854409724e-14,-1.2194598051636e-14,-0.00095248804975891,0.00095248804974736,-8.2920940351603e-13,1.0143517622499e-12,-0.0011545806938457,0.0011545806932924,-0.001154580693498,0.0011545806941653,-0.0011545806941192,0.0011545806935661,-0.0011545806937741,0.0011545806944415,-0.00092477116901365,0.00092477116952026,-0.00092477116881574,0.00092477116932185,0.82922923068302,125301,3014,0.0031936583616717,0.0039608692282333,0.0039608692282333,20.395380521437,7.8363044171494e-05,7.8363044171494e-05,7.8363044171494e-05,2532354.5971268,0.011178187786269
27419200,0.99975865357589,0.013320535790985,0.0040189676577072,0.0046507840666387,0.0046507840666387,-0.00076896968197541,0.00076896968169162,1.1886710398568e-13,1.1852990840443e-13,-2.5114737173784e-13,5.0289700448877e-13,-0.00095759268334284,0.0009575926829648,-0.00095759268366497,0.00095759268328669,-0.00095759268344625,0.00095759268354218,-0.00095759268376778,0.00095759268386348,-0.00083318235475165,0.00083318235518323,-0.00083318235481161,0.0008331823552425,6.7903188328242e-14,-7.3888124202348e-13,6.1509913469513e-13,-1.1856199403958e-12,-0.00095217162639952,0.00095217162542636,-0.001155921250595,0.0011559212507411,-0.0011559212515482,0.0011559212505009,-0.0011559212512847,0.0011559212508785,-0.0011559212522379,0.0011559212506382,-0.00098603771681558,0.00098603771794024,-0.00098603771816125,0.00098603771578229,-0.00092525278088323,0.00092525278023859,-0.00092525278188638,0.00092525277966491,-2.6928156775059e-13,-2.6895028375345e-13,-0.00095217162631027,0.00095217162551562,-1.0398374689732e-12,7.0891040209736e-13,-0.0011559212512366,0.0011559212501076,-0.0011559212510184,0.0011559212510452,-0.0011559212516383,0.0011559212505095,-0.0011559212514209,0.0011559212514479,-0.00092525278082938,0.00092525278071521,-0.00092525278062909,0.00092525278051425,0.74718867332314,125301,3014,0.0032001491076537,0.0039595647129755,0.0039595647129755,22.257776056656,9.326220845325e-05,9.326220845325e-05,9.326220845325e-05,2482632.5214417,0.011182124430236
28419200,0.99981567537447,0.013321532463548,0.0040192970043437,0.0046511177296021,0.0046511177296021,-0.00077128878919332,0.00077128878938687,2.7346520464924e-13,2.7312756790499e-13,-1.0186921149493e-13,6.5671696715921e-13,-0.00095762444187932,0.00095762444188624,-0.00095762444215508,0.00095762444216177,-0.00095762444193769,0.00095762444241979,-0.00095762444221325,0.00095762444269512,-0.00083556459817042,0.00083556459896003,-0.00083556459824142,0.00083556459903036,1.8118148286669e-13,-6.2198111838907e-13,7.2184883817893e-13,-1.0544512951641e-12,-0.00095525624555358,0.00095525624494964,-0.0011566621025084,0.001156662102949,-0.0011566621034061,0.0011566621026663,-0.001156662103136,0.0011566621030239,-0.0011566621040337,0.0011566621027411,-0.00098896565416542,0.00098896565553922,-0.0009889656554916,0.00098896565341099,-0.00092791371716898,0.0009279137167968,-0.00092791371817842,0.00092791371623513,-1.4569737257469e-13,-1.4536185341281e-13,-0.00095525624545842,0.00095525624504481,-9.0628807822719e-13,8.2102284478625e-13,-0.0011566621031404,0.0011566621023301,-0.0011566621028774,0.0011566621032096,-0.0011566621034767,0.0011566621026666,-0.0011566621032156,0.001156662103548,-0.00092791371711999,0.00092791371728269,-0.00092791371691385,0.00092791371707592,0.8493285419621,125301,3014,0.0032097626915478,0.0039723545513541,0.0039723545513541,23.444957875894,0.00010275966300715,0.00010275966300715,0.00010275966300715,2509543.6792588,0.011217685463157
29419200,0.99986200719495,0.013322109892146,0.0040194877171598,0.0046513110874933,0.0046513110874933,-0.00077198371461346,0.00077198371470489,2.4102578388657e-13,2.4070076440393e-13,-1.3028653454168e-13,6.2252655577045e-13,-0.00096177620419418,0.00096177620411049,-0.00096177620448083,0.00096177620439693,-0.00096177620426429,0.00096177620465259,-0.00096177620455076,0.00096177620493884,-0.00083603219352158,0.00083603219423502,-0.00083603219358951,0.00083603219430232,1.6398987533217e-13,-6.3673437173143e-13,6.9017402733001e-13,-1.0551523774919e-12,-0.00095340861851933,0.00095340861785685,-0.0011582615190741,0.0011582615194465,-0.001158261519972,0.0011582615191847,-0.0011582615197162,0.0011582615195382,-0.0011582615206141,0.0011582615192765,-0.00098743974093739,0.00098743974224403,-0.00098743974222804,0.00098743974014087,-0.00092720401387356,0.00092720401347113,-0.00092720401487749,0.00092720401290898,-1.7309068278669e-13,-1.7276566330405e-13,-0.00095340861843456,0.00095340861794162,-9.1732078530321e-13,7.7887417651678e-13,-0.0011582615197044,0.0011582615188279,-0.0011582615194627,0.001158261519708,-0.0011582615200577,0.0011582615191813,-0.0011582615198174,0.0011582615200629,-0.00092720401384276,0.00092720401393434,-0.00092720401363824,0.00092720401372921,0.60881578646039,125301,3014,0.0032126620333151,0.0039647059524012,0.0039647059524012,24.784377771825,0.0001134750221746,0.0001134750221746,0.0001134750221746,2433899.1775845,0.011205185224163
30419200,0.99989886095768,0.013322499215856,0.0040196167998257,0.0046514412080151,0.0046514412080151,-0.00077750840562355,0.00077750840568572,2.2778489426901e-13,2.2745866894086e-13,-1.4577960535665e-13,6.0906321706621e-13,-0.00095987196751957,0.00095987196744375,-0.00095987196780318,0.00095987196772714,-0.00095987196758703,0.00095987196798414,-0.0009598719678704,0.00095987196826728,-0.00084188475229192,0.00084188475297623,-0.00084188475236602,0.00084188475304969,1.3740475938145e-13,-6.6050047106105e-13,6.5196729929874e-13,-1.0705665107483e-12,-0.00096286055301208,0.00096286055228926,-0.0011602976900439,0.0011602976903906,-0.001160297690934,0.001160297690136,-0.001160297690682,0.0011602976904801,-0.0011602976915721,0.0011602976902255,-0.00099627307532512,0.00099627307655004,-0.00099627307660938,0.00099627307448521,-0.00093472299156198,0.00093472299110764,-0.00093472299257112,0.00093472299055677,-1.7747304890841e-13,-1.7714882351916e-13,-0.00096286055290798,0.00096286055239336,-9.1320583748263e-13,7.6034911009191e-13,-0.0011602976906485,0.0011602976897991,-0.0011602976904136,0.0011602976906709,-0.0011602976909974,0.0011602976901483,-0.0011602976907645,0.001160297691022,-0.00093472299152391,0.00093472299159316,-0.00093472299131246,0.0009347229913811,0.51512748248588,125301,3014,0.0032355649866793,0.004003895511633,0.004003895511633,26.135131494639,0.00012428105195711,0.00012428105195711,0.00012428105195711,2559897.52372,0.011307530209453
31419200,0.99992869673811,0.013322906201361,0.0040197507970402,0.0046515777021604,0.0046515777021604,-0.00078483390406539,0.00078483390341363,-7.2831010356745e-15,-7.5963267609612e-15,-3.6292322176823e-13,3.6428169497368e-13,-0.00096490658657917,0.00096490658593469,-0.00096490658692883,0.00096490658628414,-0.00096490658671764,0.00096490658653073,-0.00096490658706661,0.00096490658687948,-0.00084900681928829,0.00084900681942593,-0.0008490068193492,0.00084900681948623,-4.8165105335417e-14,-8.292643025742e-13,4.173349257964e-13,-1.2046090228613e-12,-0.00097159502796747,0.00097159502668714,-0.0011667573630871,0.0011667573629426,-0.0011667573640147,0.0011667573627956,-0.0011667573638091,0.0011667573631311,-0.0011667573647366,0.0011667573629842,-0.0010045413906167,0.00100454139133,-0.0010045413918054,0.0010045413893654,-0.00094256088004288,0.00094256087919549,-0.00094256088102222,0.00094256087865049,-3.6357995170558e-13,-3.63268549454e-13,-0.00097159502786881,0.0009715950267858,-1.0487992687258e-12,5.2100681889343e-13,-0.0011667573636547,0.0011667573623818,-0.0011667573635304,0.001166757363294,-0.0011667573640993,0.0011667573628266,-0.0011667573639753,0.0011667573637391,-0.00094256088002923,0.00094256087963803,-0.00094256087982551,0.00094256087943372,0.66479676253864,125301,3014,0.0032659759558688,0.0040401351794513,0.0040401351794513,28.4465261044,0.0001427722088352,0.0001427722088352,0.0001427722088352,2599141.8567547,0.011411573136205
32419200,0.99995048685047,0.013323256355745,0.0040198657703163,0.0046516952927141,0.0046516952927141,-0.00078442705831463,0.00078442705873747,3.5255305327564e-13,3.5224844493415e-13,-1.9581460623349e-14,7.3097927202618e-13,-0.00097049744251775,0.00097049744270227,-0.00097049744277581,0.00097049744296012,-0.00097049744256155,0.00097049744321585,-0.00097049744281982,0.0009704974434739,-0.00084829021601867,0.00084829021698302,-0.00084829021609001,0.00084829021705376,2.4222301609642e-13,-5.5198462989551e-13,7.3398513010737e-13,-9.3186923409683e-13,-0.00096794415687636,0.00096794415646052,-0.001168981805051,0.0011689818055983,-0.0011689818058955,0.0011689818053329,-0.0011689818056498,0.0011689818056491,-0.0011689818064942,0.0011689818053837,-0.001001422955782,0.0010014229571993,-0.0010014229569964,0.0010014229551769,-0.0009405905948276,0.00094059059462951,-0.00094059059582621,0.00094059059407393,-9.037244506619e-14,-9.0069983717942e-14,-0.00096794415679177,0.00096794415654512,-7.9766942586423e-13,8.218174234536e-13,-0.0011689818056578,0.0011689818050073,-0.0011689818054104,0.0011689818058316,-0.0011689818059667,0.0011689818053164,-0.0011689818057215,0.001168981806143,-0.0009405905948176,0.0009405905950699,-0.00094059059461504,0.00094059059486677,0.7835582016357,125301,3014,0.0032643212503686,0.0040250132652897,0.0040250132652897,29.298459220832,0.00014958767376666,0.00014958767376666,0.00014958767376666,2488642.2835252,0.011379372571719
33419200,0.99996562982256,0.013323508496957,0.0040199490286737,0.0046517797341414,0.0046517797341414,-0.00078161349111955,0.00078161349216526,5.5694510335645e-13,5.5664399490805e-13,1.7093638095207e-13,9.4393248703987e-13,-0.0009715658669157,0.00097156586756478,-0.00097156586711875,0.00097156586776764,-0.00097156586690001,0.0009715658680314,-0.00097156586710361,0.0009715658682348,-0.00084550363418934,0.00084550363563354,-0.0008455036342686,0.00084550363571222,4.1153013575743e-13,-3.9805372392315e-13,9.376577899408e-13,-7.9942956617059e-13,-0.00096232644012481,0.0009623264402183,-0.0011673767245063,0.0011673767254669,-0.0011673767253145,0.0011673767251151,-0.0011673767250378,0.0011673767254371,-0.001167376725846,0.0011673767250853,-0.0009963473019992,0.00099634730386762,-0.00099634730327389,0.00099634730176718,-0.0009363225557254,0.00093632255589711,-0.00093632255674471,0.00093632255532954,7.1707015282258e-14,7.201303534532e-14,-0.00096232644004201,0.00096232644030111,-6.7023526006699e-13,1.0231069800782e-12,-0.0011673767251454,0.0011673767248478,-0.0011673767248096,0.0011673767256337,-0.0011673767253777,0.0011673767250803,-0.0011673767250451,0.0011673767258695,-0.00093632255570188,0.00093632255635631,-0.00093632255549758,0.00093632255615142,0.80945760226261,125301,3014,0.0032526539491316,0.0040017198061225,0.0040017198061225,29.317385110644,0.00014973908088516,0.00014973908088516,0.00014973908088516,2411512.1054761,0.011320492400516
34419200,0.99997709288739,0.013323681729104,0.0040200064722459,0.0046518376284292,0.0046518376284292,-0.00078441739654615,0.00078441739601523,3.533283237093e-14,3.5001901304177e-14,-3.261591537088e-13,4.1334166681346e-13,-0.00097512325372863,0.000975123253163,-0.00097512325407017,0.00097512325350434,-0.00097512325385518,0.00097512325375465,-0.00097512325419624,0.00097512325409546,-0.0008482456695009,0.00084824566973901,-0.00084824566956151,0.00084824566979906,6.7141719546703e-15,-7.8811827463064e-13,4.8973481329424e-13,-1.1735143297451e-12,-0.00096375877444237,0.00096375877329807,-0.0011695950522673,0.0011695950522329,-0.0011695950531956,0.0011695950520588,-0.0011695950529838,0.0011695950524062,-0.001169595053912,0.0011695950522322,-0.00099791017243834,0.00099791017330324,-0.0009979101736528,0.00099791017128349,-0.00093825339493695,0.00093825339419874,-0.00093825339593158,0.00093825339364094,-3.3483182994096e-13,-3.3449836953971e-13,-0.00096375877436271,0.00096375877337772,-1.0377344302784e-12,5.739172760447e-13,-0.0011695950528697,0.0011695950516373,-0.0011695950527178,0.00116959505255,-0.0011695950533043,0.0011695950520721,-0.0011695950531527,0.001169595052985,-0.00093825339493739,0.00093825339463014,-0.00093825339473143,0.0009382533944237,0.73398852679868,125301,3014,0.0032642948274558,0.0040076682749228,0.0040076682749228,31.490035646666,0.00016712028517333,0.00016712028517333,0.00016712028517333,2379154.5434891,0.011344299210094
35419200,0.99998608411025,0.013323801965288,0.004020046418917,0.0046518777731856,0.0046518777731856,-0.00079392289970611,0.00079392289744084,-5.373664367654e-13,-5.3767610377587e-13,-8.5681494253871e-13,-1.839469834871e-13,-0.0009823412551368,0.00098234125322324,-0.00098234125563411,0.00098234125372029,-0.00098234125543234,0.00098234125394597,-0.00098234125592803,0.00098234125444143,-0.00085760986102746,0.00085760985993301,-0.00085760986106151,0.00085760985996652,-4.5260779512669e-13,-1.202581499093e-12,-7.2308167413796e-14,-1.5180385030965e-12,-0.00097370291380169,0.00097370291129205,-0.0011771570582964,0.0011771570570948,-0.0011771570593176,0.0011771570571667,-0.0011771570592112,0.0011771570575056,-0.0011771570602326,0.0011771570575775,-0.001007576761075,0.0010075767607103,-0.0010075767620877,0.0010075767589116,-0.0009477794054341,0.00094777940371286,-0.00094777940636469,0.00094777940318565,-7.872356857843e-13,-7.8692793048013e-13,-0.00097370291373035,0.00097370291136342,-1.38093500456e-12,5.5690798684328e-15,-0.0011771570588132,0.0011771570565702,-0.0011771570589141,0.0011771570575828,-0.0011771570594751,0.0011771570572323,-0.0011771570595728,0.0011771570582418,-0.00094777940548878,0.00094777940406909,-0.00094777940528995,0.00094777940386969,0.64952121200817,125301,3014,0.0033037513214134,0.0040489246387631,0.0040489246387631,35.945825112253,0.00020276660089803,0.00020276660089803,0.00020276660089803,2395941.116132,0.011467633039669
36419200,0.99999183620813,0.01332388269336,0.0040200732105522,0.004651904741404,0.004651904741404,-0.00079816301267868,0.00079816301257273,1.7231114777742e-13,1.72010921655e-13,-1.7660660478945e-13,5.3129526929422e-13,-0.00098436066602567,0.00098436066581628,-0.0009843606663252,0.00098436066611561,-0.0009843606661229,0.00098436066635672,-0.00098436066642254,0.00098436066665617,-0.00086180634316841,0.00086180634371206,-0.00086180634323825,0.00086180634378132,8.8973825856007e-14,-6.6650800077044e-13,4.9814442357392e-13,-9.7302660041759e-13,-0.00097908778348233,0.0009790877826625,-0.0011802451436478,0.0011802451438092,-0.0011802451444727,0.0011802451436545,-0.0011802451442961,0.0011802451439375,-0.0011802451451209,0.0011802451437828,-0.0010126877845818,0.0010126877855089,-0.0010126877856155,0.0010126877836867,-0.00095255381193808,0.00095255381146031,-0.00095255381290154,0.0009525538109481,-2.3471294732763e-13,-2.3441457408979e-13,-0.00097908778340658,0.00097908778273825,-8.4693431791442e-13,5.7755040034936e-13,-0.0011802451441897,0.0011802451432803,-0.0011802451440539,0.001180245144086,-0.0011802451445644,0.0011802451436552,-0.0011802451444299,0.0011802451444622,-0.00095255381198892,0.000952553811851,-0.0009525538117797,0.00095255381164122,0.6811981079479,125301,3014,0.0033213463700111,0.0040712600276665,0.0040712600276665,37.48623972449,0.00021508991779592,0.00021508991779592,0.00021508991779592,2429056.5767374,0.011530593734649
37419200,0.99999523229764,0.013323928456958,0.0040200883745005,0.0046519200412288,0.0046519200412288,-0.0007980886778195,0.00079808867872864,5.0974519234016e-13,5.0944181925506e-13,1.3333086800997e-13,8.8661829677257e-13,-0.00098586520844094,0.00098586520901636,-0.00098586520865117,0.0009858652092264,-0.00098586520843887,0.00098586520948396,-0.00098586520864982,0.00098586520969471,-0.00086162485366661,0.00086162485499535,-0.00086162485375076,0.00086162485507892,3.6365806254315e-13,-4.250730492366e-13,8.3407964719667e-13,-7.7362315517637e-13,-0.00097812023911858,0.00097812023909835,-0.0011808536516065,0.0011808536524551,-0.0011808536523815,0.0011808536521551,-0.0011808536521426,0.0011808536524441,-0.0011808536529176,0.0011808536521441,-0.0010118377108099,0.0010118377124668,-0.0010118377119688,0.0010118377105044,-0.00095200810492028,0.00095200810502501,-0.00095200810592683,0.0009520081044866,3.2612415477799e-14,3.2913729802265e-14,-0.00097812023903765,0.00097812023917928,-6.4765100882389e-13,9.1759255641256e-13,-0.0011808536522019,0.0011808536518807,-0.001180853651917,0.0011808536526327,-0.0011808536524457,0.0011808536521247,-0.0011808536521641,0.00118085365288,-0.00095200810493856,0.00095200810545842,-0.00095200810472623,0.00095200810524551,0.65495763090949,125301,3014,0.0033210457983667,0.0040672538121499,0.0040672538121499,37.681166277023,0.00021664933021619,0.00021664933021619,0.00021664933021619,2399173.9506007,0.011522203139677
38419200,0.99999718413355,0.013323957789364,0.0040200981032182,0.0046519298430731,0.0046519298430731,-0.00079703956843211,0.00079703956985392,6.7928983639708e-13,6.7898611038158e-13,2.8163224926928e-13,1.0720616757223e-12,-0.00098452165389226,0.00098452165486716,-0.00098452165405615,0.00098452165503085,-0.00098452165383455,0.00098452165530152,-0.00098452165399933,0.00098452165546611,-0.0008606428818164,0.00086064288354453,-0.0008606428819091,0.00086064288363667,5.0344770377283e-13,-3.1508381190583e-13,1.0359925423154e-12,-7.1611699917997e-13,-0.00097724108300678,0.00097724108337998,-0.0011796769723947,0.0011796769736177,-0.0011796769731677,0.0011796769732181,-0.001179676972877,0.0011796769735305,-0.0011796769736499,0.001179676973131,-0.0010109807098183,0.0010109807119018,-0.0010109807111168,0.0010109807097967,-0.00095109336870872,0.00095109336908413,-0.00095109336975187,0.00095109336852159,1.7150155486287e-13,1.7180383974592e-13,-0.00097724108291443,0.00097724108347232,-5.8027212602604e-13,1.1306033579023e-12,-0.0011796769730355,0.0011796769730016,-0.0011796769726495,0.00117967697375,-0.0011796769732115,0.0011796769731779,-0.0011796769728299,0.0011796769739306,-0.00095109336868475,0.00095109336956878,-0.00095109336846901,0.00095109336935244,0.72891346290552,125301,3014,0.0033166877943809,0.004063603568907,0.004063603568907,37.194176560148,0.00021275341248119,0.00021275341248119,0.00021275341248119,2405718.1145859,0.011510406578006
38880000,0.99999786579206,0.013323968262608,0.0040201015758641,0.0046519333433719,0.004651933343372,-0.00079586282938374,0.00079586283045418,5.6383692222788e-13,5.6352843165206e-13,1.6562961659949e-13,9.6245856813964e-13,-0.00098572763048391,0.00098572763116067,-0.00098572763068167,0.00098572763135822,-0.00098572763045577,0.00098572763162994,-0.00098572763065398,0.00098572763182794,-0.00085939430096784,0.00085939430243585,-0.00085939430105311,0.00085939430252052,4.272019207532e-13,-4.0448428298869e-13,9.8889085853734e-13,-8.3990578007513e-13,-0.00097455188505639,0.00097455188516966,-0.001179435683775,0.0011794356848033,-0.0011794356846063,0.0011794356844144,-0.0011794356843083,0.0011794356847609,-0.0011794356851396,0.001179435684372,-0.0010085329223219,0.0010085329242844,-0.0010085329236906,0.0010085329220979,-0.00094910294860917,0.00094910294878281,-0.00094910294965792,0.0009491029482009,8.5905963867066e-14,8.6212013340994e-14,-0.00097455188496485,0.0009745518852612,-7.0089422051562e-13,1.0833130084724e-12,-0.0011794356844396,0.0011794356841586,-0.0011794356840668,0.0011794356849679,-0.0011794356846663,0.0011794356843855,-0.0011794356842969,0.0011794356851981,-0.00094910294856433,0.00094910294927852,-0.00094910294835236,0.00094910294906597,0.74537476942469,125301,3014,0.0033118124248253,0.0040524571084533,0.0040524571084533,37.193611324067,0.00021274889059253,0.00021274889059253,0.00021274889059253,2360824.6996346,0.011482950865896
