time,ASR_ext,ASR_strain,ASR_strain_xx,ASR_strain_yy,ASR_strain_zz,disp_x_101,disp_x_102,disp_x_103,disp_x_104,disp_x_105,disp_x_106,disp_x_p1_neg,disp_x_p1_pos,disp_x_p2_neg,disp_x_p2_pos,disp_x_p3_neg,disp_x_p3_pos,disp_x_p4_neg,disp_x_p4_pos,disp_x_p5_neg,disp_x_p5_pos,disp_x_p6_neg,disp_x_p6_pos,disp_y_101,disp_y_102,disp_y_103,disp_y_104,disp_y_105,disp_y_106,disp_y_p1_neg,disp_y_p1_pos,disp_y_p2_neg,disp_y_p2_pos,disp_y_p3_neg,disp_y_p3_pos,disp_y_p4_neg,disp_y_p4_pos,disp_y_p5_neg,disp_y_p5_pos,disp_y_p6_neg,disp_y_p6_pos,disp_y_p7_neg,disp_y_p7_pos,disp_y_p8_neg,disp_y_p8_pos,disp_z_101,disp_z_102,disp_z_103,disp_z_104,disp_z_105,disp_z_106,disp_z_p1_neg,disp_z_p1_pos,disp_z_p2_neg,disp_z_p2_pos,disp_z_p3_neg,disp_z_p3_pos,disp_z_p4_neg,disp_z_p4_pos,disp_z_p5_neg,disp_z_p5_pos,disp_z_p6_neg,disp_z_p6_pos,humidity,ndof,nelem,strain_xx,strain_yy,strain_zz,temp,thermal_strain_xx,thermal_strain_yy,thermal_strain_zz,vonmises,vstrain
2419200,0,0,0,0,0,0,0,0,0,0,0,0,0,0,0,0,0,0,0,0,0,0,0,0,0,0,0,0,0,0,0,0,0,0,0,0,0,0,0,0,0,0,0,0,0,0,0,0,0,0,0,0,0,0,0,0,0,0,0,0,0,0,0,0,0,0,0,0,0,0,0,0,0,0,0
2919200,0.076491941401931,0.0015612967764609,0.0005204322588203,0.0005204322588203,0.0005204322588203,-0.00015877109212172,0.00015875030020583,-8.1259366461619e-09,-8.1259367031234e-09,-7.067853852784e-09,-8.9031310688396e-09,-0.00015982138407637,0.00015980423168523,-0.00015982218375595,0.00015980503136497,-0.00015982271614941,0.00015980437310994,-0.00015982350425337,0.00015980516121342,-0.000162674392671,0.00016265678922358,-0.0001626751017259,0.00016265749827558,-3.6170319350816e-09,-2.04735187375e-09,-3.4160569561042e-09,-2.4259865005247e-09,-0.00016477374660841,0.00016476525904251,-0.00016527060835505,0.00016526308006288,-0.000165271038672,0.00016526423333838,-0.00016527148678798,0.00016526516398033,-0.00016527191710494,0.00016526631725569,-0.00016734000706292,0.00016733336508127,-0.00016733979574605,0.00016733506872185,-0.00016593547020108,0.00016592816567363,-0.00016593479047482,0.00016593059227139,-3.1978124722593e-09,-3.1978123656597e-09,-0.00016477404535113,0.00016476496029965,-2.6462412780094e-09,-3.6954743020615e-09,-0.00016527013369245,0.0001652633429622,-0.00016527135900798,0.00016526384959619,-0.00016527177843992,0.00016526498770944,-0.0001652729517802,0.00016526544236879,-0.00016593637597735,0.00016592923396435,-0.00016593530043666,0.00016592815842065,0.81617709629564,125301,3014,0.00066128416670713,0.00068630308099819,0.00068630308099787,32.419256876489,0.00017455405501191,0.00017455405501191,0.00017455405501191,981411.58452634,0.0020359617286681
3419200,0.15566362341944,0.0030942432911674,0.0010077473946379,0.0010432479482635,0.0010432479482661,-0.0002659012177654,0.00026588064923664,-8.5750858668365e-09,-8.5750829041035e-09,-8.6823426933758e-09,-8.0777643491234e-09,-0.00027272812729736,0.00027270960019242,-0.00027272931131458,0.00027271078431999,-0.00027272902210474,0.00027271092589039,-0.00027273018735289,0.00027271209115446,-0.00027457717041112,0.0002745596099974,-0.00027457857339521,0.00027456101293953,-4.2546961521766e-09,-5.2309066783636e-09,-5.9835491818233e-09,-3.8389131922611e-09,-0.00028634917118445,0.00028633712256891,-0.00029209790222223,0.00029208708171143,-0.0002920985569462,0.0002920892375751,-0.0002921003763213,0.00029208904430471,-0.0002921010310372,0.00029209120023722,-0.00029104688740711,0.00029103438184925,-0.00029104662053981,0.00029103828468761,-0.00028571914741997,0.00028571092356011,-0.00028572195250531,0.00028571187283984,-5.0334943539232e-09,-5.033491138845e-09,-0.00028634936587298,0.00028633692788205,-3.9008825036878e-09,-6.1478268489701e-09,-0.00029209732919277,0.00029208738779912,-0.00029209960053643,0.00029208813714555,-0.00029209974706007,0.00029208980560326,-0.00029210194320379,0.00029209047981843,-0.00028572266739428,0.00028571149287914,-0.00028572049756526,0.00028570932291283,0.78776539115027,125301,3014,0.0011072720664643,0.0011923818020279,0.0011923818020314,31.910896353261,0.00017048717082609,0.00017048717082609,0.00017048717082609,1579610.2919168,0.0034981453308371
3919200,0.24245959880235,0.0047144722760996,0.0015023767439169,0.0016060477660897,0.001606047766093,-0.00037636098592263,0.00037635053201702,-4.1905066938235e-09,-4.1904970752349e-09,-5.8204343136241e-09,-2.2857857675344e-09,-0.00039267610124288,0.0003926659115415,-0.00039267690989538,0.0003926667202729,-0.00039267569758019,0.00039266786398555,-0.00039267649185541,0.00039266865826375,-0.00039167390329314,0.00039166621354199,-0.00039167460731148,0.00039166691755048,-2.1995249743291e-09,-5.9969090585668e-09,-4.7606007614851e-09,-3.5430059080155e-09,-0.00041867828619916,0.00041866836406637,-0.0004351236819836,0.00043511571983662,-0.00043512417904826,0.000435117078626,-0.00043512609916366,0.00043511568702524,-0.00043512659619124,0.0004351170458373,-0.00042536922155028,0.00042535814731781,-0.0004253687678016,0.00042536005391679,-0.00041324631243966,0.00041324179207188,-0.00041325062130308,0.00041323867820993,-3.9145132395135e-09,-3.9145034402687e-09,-0.00041867803981022,0.00041866861045729,-3.1758448220104e-09,-4.492797178689e-09,-0.00043512352814263,0.0004351157111523,-0.00043512497494723,0.00043511625898671,-0.00043512483574944,0.00043511701872242,-0.00043512623797878,0.00043511752203664,-0.00041324911487442,0.00041324041249405,-0.00041324832192832,0.00041323961945108,0.77553103165073,125301,3014,0.0015669510289722,0.0017429414842566,0.0017429414842607,32.496690391141,0.00017517352312913,0.00017517352312913,0.00017517352312913,2214181.4774067,0.0050656351686772
4419200,0.33742765601182,0.006455700857122,0.0020197435859764,0.0022179786355696,0.002217978635576,-0.00049216983040652,0.00049216405391066,-2.2652266938794e-09,-2.2652232624254e-09,-4.5149811637335e-09,1.4507428868301e-10,-0.00052050607400628,0.00052050011320692,-0.0005205066029661,0.0005205006422534,-0.00052050506676233,0.00052050218840134,-0.00052050558609485,0.00052050270775827,-0.00051700835809305,0.00051700504442194,-0.00051700854788782,0.00051700523423538,-6.7540560438074e-10,-5.441718104182e-09,-2.6641289583049e-09,-3.6026724172946e-09,-0.00056260446908109,0.00056259712037952,-0.00059408445281999,0.0005940800529173,-0.00059408541821968,0.00059408043719695,-0.0005940865360374,0.00059407903395274,-0.00059408750141032,0.00059407941826337,-0.00057266756749515,0.00057266032699309,-0.00057266906590642,0.00057265996382189,-0.00055087412547413,0.00055087206801696,-0.00055087924488756,0.00055086782785997,-2.3858000207412e-09,-2.3857960878613e-09,-0.00056260378808968,0.00056259780137445,-2.8262266829501e-09,-1.970984225079e-09,-0.00059408480500505,0.00059407961945497,-0.00059408523701009,0.00059408060262211,-0.0005940853901241,0.00059408020454561,-0.00059408581321623,0.00059408117885308,-0.00055087600514985,0.00055087120648688,-0.00055087543815388,0.00055087063940017,0.77667599257039,125301,3014,0.0020486845605896,0.0023413992400241,0.0023413992400313,33.598705495133,0.00018398964396107,0.00018398964396107,0.00018398964396107,2798696.5214144,0.0067542237448207
4919200,0.44057816530518,0.0083203042773879,0.0025598993957938,0.0028802024407956,0.0028802024407985,-0.00061277021879204,0.00061276633705019,-1.5233177061015e-09,-1.5233038752593e-09,-3.6654490036667e-09,7.0331174966176e-10,-0.00065765465958372,0.00065765067558764,-0.00065765497759326,0.00065765099365441,-0.00065765355024459,0.00065765246069177,-0.00065765386046642,0.00065765277090822,-0.00064940631590558,0.00064940446471508,-0.0006494062986909,0.00064940444751765,-9.9409784277608e-11,-4.449851259389e-09,-9.9278025354712e-10,-3.6696762715631e-09,-0.00071805382808173,0.00071804835001051,-0.00076997779152291,0.00076997565226581,-0.0007699791399833,0.0007699752600579,-0.00076997936765902,0.00076997439627522,-0.00076998071607105,0.00076997400407265,-0.00073301237744871,0.00073300847040509,-0.00073301551725965,0.00073300633771729,-0.00069921596801365,0.00069921444031254,-0.00069922058655525,0.00069921051719216,-1.3297119850057e-09,-1.3296978121152e-09,-0.00071805291732727,0.00071804926076696,-2.6760164911213e-09,-7.3350904165522e-11,-0.00076997846939635,0.00076997494728269,-0.00076997809730041,0.00076997629129232,-0.00076997864135918,0.00076997511922952,-0.00076997828401585,0.00076997647804209,-0.00069921667523405,0.00069921452322262,-0.00069921622740378,0.00069921407531757,0.77771912531976,125301,3014,0.0025501480132352,0.0029873577043575,0.0029873577043616,35.343644394861,0.00019794915515889,0.00019794915515889,0.00019794915515889,3274134.7789143,0.0085613769228471
5419200,0.54121466571603,0.010094352971695,0.0030639513364704,0.0035152008176091,0.0035152008176156,-0.00072144728617594,0.00072144556847767,-7.1546308997607e-10,-7.1545445803389e-10,-2.875652548318e-09,1.4588329298613e-09,-0.00078716167139333,0.00078715979065345,-0.00078716184255112,0.00078715996188664,-0.00078716043216493,0.00078716142968913,-0.00078716059662246,0.00078716159416697,-0.00076974704312047,0.0007697469516534,-0.00076974689827197,0.00076974680684618,6.4380263917235e-10,-3.5693447941468e-09,6.3447101456845e-10,-3.7140625911631e-09,-0.00086337875078223,0.00086337524895093,-0.00093985163316909,0.00093985193153187,-0.00093985338877671,0.00093985083129391,-0.00093985293869752,0.00093985048438521,-0.00093985469425542,0.00093984938414991,-0.00088367390602744,0.00088367324112135,-0.00088367873866631,0.00088366952562816,-0.00083720733453529,0.0008372068224665,-0.00083721187463302,0.00083720308311018,-3.4471495854758e-10,-3.447060567607e-10,-0.00086337770351818,0.0008633762962187,-2.5878776696871e-09,1.6904832199274e-09,-0.0009398527513765,0.00093985083477963,-0.0009398516498044,0.00093985256814618,-0.00093985265432018,0.00093985073771207,-0.00093985158587982,0.00093985250425909,-0.00083720727308975,0.00083720772895509,-0.0008372068125486,0.00083720726832026,0.76998245865794,125301,3014,0.003001885716888,0.0035908617632573,0.003590861763265,36.272950856328,0.00020538360685062,0.00020538360685062,0.00020538360685062,3636844.1798776,0.010235776842715
5919200,0.63250110027844,0.011581315238545,0.0034834513286003,0.0040489319549695,0.0040489319549756,-0.00080749150994112,0.00080749204590765,1.8276503353603e-10,1.8277725436858e-10,-2.0484456179219e-09,2.3593077328859e-09,-0.00089703438463583,0.00089703465093578,-0.00089703438600917,0.00089703465237115,-0.00089703296219305,0.00089703615365422,-0.00089703295708295,0.00089703614854904,-0.00086330506909745,0.00086330687247614,-0.00086330483156551,0.00086330663498112,1.3956636000096e-09,-2.789567562124e-09,2.390161595237e-09,-3.8640141404498e-09,-0.00098165658304263,0.00098165501409957,-0.0010859737519023,0.0010859764961019,-0.0010859759340182,0.0010859745521974,-0.0010859747979491,0.0010859747921007,-0.0010859769800115,0.0010859728481971,-0.0010035730304524,0.0010035758377572,-0.0010035795706167,0.0010035700957521,-0.00094580573445576,0.00094580612292181,-0.0009458101787166,0.00094580233388925,6.5579535207862e-10,6.5580784302056e-10,-0.00098165533601296,0.00098165626113278,-2.5374162503518e-09,3.647490997242e-09,-0.0010859753421359,0.0010859749731151,-0.0010859733797243,0.0010859771169723,-0.0010859749492929,0.0010859745802604,-0.0010859730368553,0.0010859767741411,-0.00094580469648071,0.0009458078139814,-0.00094580434582047,0.00094580746324024,0.72322607256467,125301,3014,0.0033594747075424,0.0040817781644146,0.004081778164422,36.779090768073,0.00020943272614459,0.00020943272614459,0.00020943272614459,3887461.3913446,0.011589891602319
6419200,0.70985033061848,0.012799011465885,0.0038314492178368,0.0044837811240207,0.0044837811240276,-0.00087420424058583,0.00087420677196281,9.4689997850269e-10,9.4691110442751e-10,-1.3362777201623e-09,3.1115749488153e-09,-0.00098536053535829,0.00098536275400837,-0.00098536037522528,0.00098536259393845,-0.00098535895361739,0.0009853641178302,-0.00098535878985508,0.00098536395407509,-0.00093593293482989,0.00093593636543743,-0.00093593267543966,0.00093593610608829,2.0680793437885e-09,-2.0575777657352e-09,3.3781987135026e-09,-3.3869916868599e-09,-0.0010734894790279,0.0010734897266443,-0.0012038391299124,0.001203843800344,-0.0012038413002232,0.0012038414877754,-0.0012038399246696,0.0012038418698011,-0.0012038420949211,0.0012038395572266,-0.0010958821503186,0.0010958869656365,-0.0010958891528072,0.0010958806905753,-0.0010290042098666,0.0010290058228341,-0.0010290086428972,0.0010290021354333,1.4660976118714e-09,1.466109335425e-09,-0.0010734881583646,0.0010734910473116,-2.0040067108088e-09,4.7080045470457e-09,-0.0012038408544575,0.0012038421925155,-0.0012038384994044,0.001203844300198,-0.0012038401902106,0.0012038415282591,-0.0012038378995086,0.0012038437003416,-0.0010290028863541,0.0010290078491987,-0.0010290025184137,0.0010290074811744,0.70960752387703,125301,3014,0.003636683944886,0.0044627686823779,0.0044627686823862,36.741514592753,0.00020913211674202,0.00020913211674202,0.00020913211674202,4086434.1365498,0.01264175020873
6919200,0.77957568615269,0.013928475923561,0.0041599774667439,0.0048842492284049,0.0048842492284124,-0.00093796097214538,0.00093796121157989,3.0694363896488e-11,3.0705531525913e-11,-2.0368050890321e-09,1.9857463328126e-09,-0.0010706829380052,0.0010706834477178,-0.0010706828139757,0.0010706833237511,-0.0010706815233416,0.0010706847027751,-0.0010706813954903,0.0010706845749308,-0.0010069159874527,0.00100691735865,-0.0010069158107154,0.0010069171819563,1.7572705861703e-09,-1.9235166579912e-09,3.4053695206774e-09,-3.5867407122975e-09,-0.0011586053000521,0.0011586051207655,-0.0013138514715041,0.0013138559137595,-0.0013138537250734,0.0013138535378662,-0.001313852194827,0.0013138542284011,-0.0013138544483341,0.0013138518524991,-0.0011839157964235,0.0011839207457137,-0.001183923092884,0.0011839143169223,-0.0011093844643953,0.0011093853188739,-0.0011093885760565,0.0011093821945741,1.3425026439952e-09,1.3425145631016e-09,-0.001158604025022,0.0011586063957999,-2.2455951169341e-09,4.6938494920906e-09,-0.001313853240152,0.0013138542543948,-0.0013138508180313,0.0013138564465658,-0.0013138526716276,0.0013138536858615,-0.0013138503135407,0.001313855942115,-0.0011093830031385,0.0011093877389286,-0.0011093824958054,0.0011093872315104,0.73388447268437,125301,3014,0.0039015603857388,0.0048157597391973,0.0048157597392062,38.624427167421,0.00022419541733937,0.00022419541733937,0.00022419541733937,4168080.3566601,0.01362546314003
7419200,0.83970637127834,0.014834197985288,0.0044251909023341,0.0052045035414728,0.0052045035414808,-0.00098508813998549,0.00098508754836869,-3.3770345515596e-10,-3.3769195350733e-10,-2.2062167485633e-09,1.4220720180289e-09,-0.001142132416549,0.001142132307559,-0.0011421323415889,0.0011421322326618,-0.0011421311684954,0.0011421334753243,-0.0011421310891574,0.0011421333959933,-0.0010576918187654,0.0010576923103435,-0.0010576917019794,0.0010576921936032,1.5512682846539e-09,-1.7299452520181e-09,3.4377159769e-09,-3.6383160537122e-09,-0.0012218536946518,0.0012218534421199,-0.0014033431925121,0.001403347508765,-0.0014033455126571,0.0014033451465128,-0.0014033438600633,0.0014033460394811,-0.0014033461801435,0.0014033436772177,-0.0012481237313498,0.0012481288635738,-0.0012481311577386,0.0012481223987976,-0.0011681501117778,0.0011681505152524,-0.0011681538947939,0.0011681478569244,1.2537574742168e-09,1.2537691915059e-09,-0.0012218525043853,0.001221854632391,-2.3756904919921e-09,4.6455318651903e-09,-0.0014033450046558,0.0014033457989561,-0.0014033425978176,0.0014033480602405,-0.0014033445227209,0.001403345317012,-0.0014033421767567,0.0014033476392191,-0.0011681485769142,0.001168153154828,-0.0011681479919869,0.0011681525698153,0.68603447535569,125301,3014,0.0040973814965279,0.005077995457179,0.0050779954571884,40.763143961894,0.00024130515169515,0.00024130515169515,0.00024130515169515,4119508.1336024,0.014355967359427
7919200,0.8849002841514,0.015493365795101,0.0046221201069577,0.0054356228440677,0.0054356228440759,-0.0010127177613158,0.001012720904032,1.0951822450224e-09,1.0951937207601e-09,-8.5949047624416e-10,2.879819367201e-09,-0.0011878039054587,0.0011878070583655,-0.0011878036610045,0.0011878068139741,-0.0011878024685169,0.0011878081011145,-0.0011878022224621,0.0011878078550668,-0.001087742912587,0.0010877464818176,-0.0010877427812257,0.0010877463505028,2.4629849054071e-09,-8.4992808963689e-10,4.6237956175854e-09,-2.9746321469963e-09,-0.0012591851337362,0.0012591873588115,-0.0014607432813779,0.0014607499531456,-0.0014607456018997,0.0014607472244006,-0.0014607437141808,0.0014607481971236,-0.0014607460346361,0.0014607454683657,-0.0012857645131866,0.0012857720974939,-0.0012857723973344,0.0012857650739727,-0.0012021885584989,0.0012021907342906,-0.0012021923721962,0.0012021880367298,2.1975582713974e-09,2.1975698102802e-09,-0.0012591839199095,0.0012591885726429,-1.7088116621238e-09,5.853154824432e-09,-0.0014607452941525,0.0014607480874874,-0.001460742502419,0.0014607503304695,-0.0014607445204706,0.0014607473137963,-0.0014607417991361,0.0014607496272261,-0.0012021867928216,0.0012021935557845,-0.0012021862449668,0.0012021930078442,0.66517730020761,125301,3014,0.0042122211988555,0.0052327548346966,0.0052327548347063,40.956098533142,0.00024284878826514,0.00024284878826514,0.00024284878826514,4084191.5239332,0.014786599025241
8419200,0.91856553138271,0.015976631242576,0.0047688682609593,0.0056038814908043,0.0056038814908127,-0.0010308566763685,0.0010308596390439,1.0197776999619e-09,1.0197893653114e-09,-9.149176435999e-10,2.7804271661528e-09,-0.0012219167544406,0.0012219198225448,-0.001221916500381,0.0012219195685481,-0.001221915321366,0.0012219208393463,-0.0012219150654254,0.0012219205834127,-0.001107407945505,0.0011074113422688,-0.0011074078471114,0.0011074112439229,2.5358052534779e-09,-7.1701524601465e-10,4.9285429997768e-09,-3.0605798221687e-09,-0.0012826290370703,0.0012826314870599,-0.0015010876065635,0.0015010946613574,-0.0015010900315033,0.0015010917783653,-0.001501088012985,0.0015010929212441,-0.0015010904378571,0.0015010900382379,-0.0013098686562888,0.0013098768580551,-0.0013098769352457,0.0013098694632434,-0.0012243644934205,0.001224366684269,-0.0012243682775528,0.0012243640759853,2.305572462638e-09,2.3055837074121e-09,-0.0012826278245466,0.0012826326995883,-1.793545219807e-09,6.1589764721435e-09,-0.0015010897428015,0.0015010926709388,-0.0015010867965389,0.0015010950196274,-0.0015010889648885,0.0015010918930164,-0.0015010860886016,0.0015010943117293,-0.0012243625934917,0.0012243697025039,-0.0012243620121188,0.0012243691210457,0.65392243933387,125301,3014,0.0042876368604313,0.0053299397123053,0.0053299397123153,41.432378465231,0.00024665902772185,0.00024665902772185,0.00024665902772185,3991140.6637792,0.015060505541449
8919200,0.94311687284461,0.016315381566692,0.0048732353646851,0.0057210731009994,0.0057210731010079,-0.0010413233982806,0.0010413266230294,1.1174132123816e-09,1.1174247773518e-09,-7.9534662323602e-10,2.8482507754233e-09,-0.0012459560959695,0.0012459594430327,-0.0012459558211617,0.0012459591682878,-0.0012459546594134,0.0012459604209437,-0.001245954382593,0.0012459601441304,-0.001118432326958,0.0011184359153709,-0.00111843224901,0.0011184358374709,2.6636220142121e-09,-5.2198202743237e-10,5.2810007734852e-09,-3.0764092162688e-09,-0.0012951770680388,0.0012951799219287,-0.0015275458376691,0.0015275533889547,-0.0015275483514765,0.001527550349703,-0.0015275461954708,0.0015275516427067,-0.0015275487092096,0.00152754860344,-0.0013228340307958,0.0013228429624104,-0.0013228426680254,0.0013228352044157,-0.0012365829608474,0.0012365852990516,-0.0012365866921071,0.0012365827702929,2.4680201120326e-09,2.468031360042e-09,-0.0012951758596593,0.0012951811303131,-1.812109086576e-09,6.5089012202121e-09,-0.001527548093807,0.0015275512805654,-0.0015275449907879,0.0015275537182243,-0.0015275472867449,0.001527550473494,-0.0015275442537803,0.001527552981256,-0.0012365809164221,0.0012365884869698,-0.0012365803225305,0.0012365878929926,0.62734198364026,125301,3014,0.0043311861282869,0.0053819670244792,0.0053819670244894,41.891397838008,0.00025033118270407,0.00025033118270407,0.00025033118270407,3876821.1631286,0.015210431465632
9419200,0.95992609952847,0.016543862739781,0.00494461176487,0.0057996254874511,0.0057996254874597,-0.0010445054258067,0.0010445116178812,2.2720121325007e-09,2.2720240902236e-09,2.5542595238307e-10,4.055854513311e-09,-0.0012582489475124,0.0012582549219806,-0.0012582485128914,0.0012582544874229,-0.0012582473177097,0.0012582557991658,-0.0012582468832674,0.0012582553647308,-0.0011220777916712,0.0011220838743551,-0.0011220777168503,0.0011220837995832,3.4868386675965e-09,2.114615844239e-10,6.4012745620265e-09,-2.5817159925899e-09,-0.0012988732889878,0.0012988782669462,-0.0015406774058471,0.0015406871022191,-0.0015406799577773,0.0015406836688802,-0.0015406775738861,0.0015406850821388,-0.001540680125747,0.0015406816487842,-0.0013269483196851,0.0013269595371473,-0.0013269575266377,0.0013269511291799,-0.0012403928040476,0.0012403966878183,-0.0012403966319447,0.0012403940694039,3.3094981106339e-09,3.3095088090129e-09,-0.0012988720380603,0.0012988795178787,-1.2930329495251e-09,7.6694562972276e-09,-0.0015406798789579,0.0015406848132643,-0.00154067636641,0.001540687274352,-0.0015406788144792,0.001540683748776,-0.0015406753805449,0.0015406862885259,-0.0012403905206962,0.0012404000888366,-0.0012403899498756,0.0012403995179312,0.61542000252897,125301,3014,0.0043444734140744,0.0053973072098948,0.0053973072099052,41.151138259068,0.00024440910607255,0.00024440910607255,0.00024440910607255,3794351.864974,0.015255124434904
9919200,0.97123433941514,0.016697330065034,0.0049930214084015,0.0058521543283121,0.0058521543283207,-0.0010441320884353,0.0010441399331984,2.9196372398217e-09,2.9196484405972e-09,8.2897242928484e-10,4.7506716408306e-09,-0.0012651936247236,0.0012652010680481,-0.0012651930964148,0.0012652005398024,-0.0012651918717771,0.0012652018950502,-0.0012651913446635,0.0012652013679418,-0.0011219242179898,0.0011219317081418,-0.0011219241567575,0.0011219316469557,3.9967049597143e-09,6.3817043744149e-10,7.1309981268415e-09,-2.3382877712847e-09,-0.0012981288503323,0.0012981350888665,-0.0015472072151971,0.0015472182467488,-0.0015472098246326,0.0015472145393253,-0.0015472072837042,0.0015472160597619,-0.0015472098930586,0.0015472123523238,-0.0013266996172625,0.0013267123073197,-0.0013267092800269,0.0013267034056116,-0.0012402451994253,0.0012402500032409,-0.0012402491212208,0.0012402473091129,3.8157405022175e-09,3.815751743227e-09,-0.0012981275736507,0.001298136365554,-1.0326503975333e-09,8.4241500704685e-09,-0.0015472098573659,0.0015472158071347,-0.0015472060627988,0.0015472183184426,-0.0015472086466568,0.0015472145964145,-0.0015472049351485,0.001547217190831,-0.0012402427592633,0.0012402535632466,-0.0012402421920352,0.0012402529959283,0.61191532341665,125301,3014,0.0043429879812746,0.005394242712417,0.0053942427124293,39.828052056308,0.00023382441645047,0.00023382441645047,0.00023382441645047,3715932.5713242,0.015247447433519
10419200,0.97883408252437,0.016802385238569,0.0050264164359775,0.0058879844012916,0.0058879844013003,-0.0010416897243169,0.0010416987591625,3.3879599664427e-09,3.3879709351371e-09,1.2295068113521e-09,5.2700946818132e-09,-0.0012685114687047,0.0012685199566589,-0.0012685108736325,0.0012685193616457,-0.0012685096170448,0.0012685207579395,-0.0012685090234761,0.0012685201643768,-0.0011196517996298,0.0011196603173914,-0.0011196517533329,0.001119660271143,4.3884881590958e-09,9.3574252020465e-10,7.7540254627537e-09,-2.2448587721033e-09,-0.0012949571953553,0.0012949643583068,-0.0015496032809461,0.0015496153553505,-0.0015496059880752,0.0015496113899791,-0.0015496032889172,0.0015496130379468,-0.0015496059959773,0.0015496090725598,-0.0013240799585384,0.0013240938907183,-0.0013240901248695,0.0013240844565968,-0.0012379057088938,0.0012379111656736,-0.0012379097340825,0.0012379083848581,4.1961634913798e-09,4.1961749820288e-09,-0.001294955891236,0.0012949656624316,-9.1463755115653e-10,9.0746021900439e-09,-0.001549606098577,0.0015496127502837,-0.0015496020423138,0.0015496153558818,-0.0015496047845836,0.0015496114362839,-0.0015496008141259,0.0015496141277337,-0.0012379031082154,0.0012379148936962,-0.0012379025401951,0.0012379143255924,0.6204745621693,125301,3014,0.0043329031916147,0.0053811169147235,0.005381116914735,38.099889533124,0.00021999911626499,0.00021999911626499,0.00021999911626499,3648218.3799538,0.01521060565462
10919200,0.98440733724879,0.016876767251297,0.0050501841395594,0.0059132915558646,0.0059132915558733,-0.0010417331270577,0.0010417385330326,1.9738755032818e-09,1.973886812554e-09,-6.5713262063775e-11,3.7956544033634e-09,-0.0012738295875018,0.0012738348900769,-0.001273829181679,0.0012738344843169,-0.0012738279604069,0.0012738358099956,-0.0012738275518916,0.0012738354014871,-0.0011195542259624,0.0011195596938809,-0.0011195541926568,0.0011195596606235,3.4747107898166e-09,1.3234485124608e-10,6.9846033211565e-09,-3.2519534571097e-09,-0.0012937646606638,0.0012937694433206,-0.0015533768544259,0.0015533868722194,-0.0015533798183661,0.0015533830344395,-0.0015533770840175,0.0015533848802943,-0.0015533800478871,0.0015533810424979,-0.0013232613054868,0.0013232736263337,-0.0013232717461242,0.0013232639898641,-0.001237591906238,0.0012375953298416,-0.0012375958148036,0.0012375926617101,3.3043132722624e-09,3.3043244550384e-09,-0.0012937633697376,0.001293770734252,-1.8987566137006e-09,8.2988866196221e-09,-0.0015533796987421,0.0015533841893911,-0.0015533757946892,0.001553387075999,-0.001553378690663,0.0015533831813028,-0.0015533748610215,0.0015533861423705,-0.0012375892255727,0.0012375991776252,-0.0012375886245522,0.0012375985765185,0.59839955010434,125301,3014,0.0043331139180815,0.0053761882907636,0.0053761882907741,37.946235639091,0.00021876988511273,0.00021876988511273,0.00021876988511273,3574660.9027818,0.015200861505981
11419200,0.98846838625829,0.016930847271577,0.0050675573311894,0.0059316449701894,0.0059316449701981,-0.0010406547300547,0.0010406605445266,2.1278612646813e-09,2.1278724012529e-09,1.0685998208913e-10,3.9203423081159e-09,-0.0012747953614149,0.0012748010570017,-0.0012747949293063,0.0012748006249557,-0.0012747937259934,0.0012748019359729,-0.001274793291395,0.0012748015013812,-0.0011187589857989,0.0011187647674312,-0.0011187589563156,0.0011187647379958,3.5798416583215e-09,3.00022717034e-10,7.2247345895234e-09,-3.2100984333626e-09,-0.0012919912614924,0.001291996411529,-0.0015537637698577,0.0015537741764617,-0.0015537667700023,0.0015537702411912,-0.0015537639470228,0.0015537721687632,-0.0015537669470968,0.0015537682334761,-0.0013218395104188,0.0013218523430471,-0.0013218501422714,0.0013218425099512,-0.001236314549717,0.001236318136993,-0.0012363184024768,0.0012363155351935,3.4590531298895e-09,3.4590643839575e-09,-0.0012919899564515,0.001291997716575,-1.8442224599462e-09,8.5533870698963e-09,-0.0015537666622778,0.0015537714515402,-0.0015537626587875,0.0015537743725502,-0.0015537656152657,0.0015537704045191,-0.0015537616875803,0.0015537734013824,-0.0012363117563657,0.001236322101964,-0.0012363111551269,0.0012363215006387,0.59529609924862,125301,3014,0.0043286541457086,0.0053688447155622,0.0053688447155728,37.62851977002,0.00021622815816016,0.00021622815816016,0.00021622815816016,3544225.5337256,0.01518143212304
11919200,0.99141169184711,0.016970927299416,0.005080470429841,0.0059452284347831,0.0059452284347919,-0.0010393249984371,0.0010393313816851,2.351105734216e-09,2.3511169333151e-09,3.2534748444591e-10,4.1396839645553e-09,-0.0012761938740237,0.0012762000825201,-0.0012761934117064,0.0012761996202651,-0.0012761922106836,0.0012762009324123,-0.0012761917462029,0.0012762004679375,-0.0011174328241047,0.0011174390776785,-0.0011174328011688,0.0011174390547901,3.7415950033252e-09,4.7158329309013e-10,7.4770123013924e-09,-3.1180043491382e-09,-0.0012898028086288,0.0012898084020636,-0.001554150553679,0.0015541614086881,-0.0015541535732128,0.0015541573835976,-0.0015541506864208,0.0015541593585402,-0.0015541537058846,0.0015541553334336,-0.0013199466827199,0.0013199600382772,-0.001319957464762,0.0013199500426419,-0.0012347347480171,0.001234738627718,-0.001234738595252,0.0012347360381719,3.6287627865525e-09,3.6287739425646e-09,-0.0012898015035564,0.0012898097071408,-1.7547455559042e-09,8.8054328104249e-09,-0.0015541535035985,0.0015541586319751,-0.0015541494080745,0.0015541615701484,-0.0015541524090789,0.0015541575374472,-0.0015541483905263,0.0015541605526395,-0.0012347318943541,0.0012347426544457,-0.0012347312942284,0.0012347420542329,0.60696177420778,125301,3014,0.0043231562085071,0.0053597860202069,0.0053597860202168,37.105073205478,0.00021204058564383,0.00021204058564383,0.00021204058564383,3503856.633555,0.015157484852254
12419200,0.99357865440995,0.017000757969747,0.0050901088020198,0.0059553245838592,0.005955324583868,-0.0010384065274134,0.0010384124377669,2.1696240525921e-09,2.169635312307e-09,1.6378690912824e-10,3.9481668615949e-09,-0.0012784174385641,0.0012784232272371,-0.0012784170036999,0.0012784227924351,-0.0012784158083032,0.0012784240923337,-0.0012784153705848,0.0012784236546215,-0.0011163687742258,0.0011163746329042,-0.0011163687562601,0.0011163746149872,3.6293951876603e-09,3.7664635223822e-10,7.4142144004745e-09,-3.2700566497395e-09,-0.001287800421757,0.0012878057181952,-0.0015550088258434,0.0015550194362837,-0.0015550118985584,0.0015550154096839,-0.0015550089877182,0.0015550174313506,-0.001555012060362,0.0015550134047323,-0.0013182196994452,0.0013182329206727,-0.0013182305713634,0.0013182228382877,-0.0012334645337043,0.0012334681430022,-0.0012334683601312,0.0012334655685172,3.5078843745403e-09,3.5078954627309e-09,-0.001287799130094,0.0012878070098631,-1.9141278587666e-09,8.7303469000126e-09,-0.0015550118078131,0.0015550166187135,-0.001555007715104,0.0015550196141509,-0.0015550107561707,0.0015550155670625,-0.0015550067382308,0.0015550186373165,-0.0012334616600026,0.0012334721914415,-0.0012334610570356,0.001233471588388,0.61229629685034,125301,3014,0.0043193654534246,0.0053515004917873,0.0053515004917978,36.802458853393,0.00020961967082715,0.00020961967082715,0.00020961967082715,3454945.3448105,0.01513685049576
12919200,0.99515520050672,0.017021784038914,0.0050969219973477,0.0059624310207788,0.0059624310207876,-0.0010363509360695,0.0010363577707195,2.5319318509846e-09,2.5319431054938e-09,5.0852051404736e-10,4.3150179763098e-09,-0.0012785655390663,0.0012785721424554,-0.0012785650565445,0.001278571659996,-0.0012785638585384,0.0012785729689184,-0.0012785633738572,0.0012785724842436,-0.0011143133514495,0.0011143199839036,-0.0011143133382455,0.0011143199707494,3.8842179421424e-09,6.2476325856204e-10,7.7395944358396e-09,-3.0760736930639e-09,-0.0012848410877208,0.0012848470627809,-0.0015541072559983,0.0015541185097465,-0.0015541103222418,0.001554114383997,-0.0015541073549379,0.001554116430416,-0.0015541104211109,0.0015541123046492,-0.0013155396257293,0.0013155535226923,-0.0013155506145614,0.0013155433019633,-0.0012311337182456,0.0012311378293545,-0.001231137554396,0.0012311352484101,3.763116396436e-09,3.7631275072142e-09,-0.0012848397967211,0.0012848483537856,-1.7267326335033e-09,9.0540609508294e-09,-0.0015541102929982,0.001554115646924,-0.0015541060968763,0.0015541186315875,-0.0015541091661573,0.001554114520074,-0.0015541050468807,0.0015541175816312,-0.0012311307979837,0.001231141918974,-0.0012311302005107,0.0012311413214157,0.59298586830866,125301,3014,0.0043108542851945,0.0053392468393111,0.0053392468393216,36.136873496243,0.00020429498796994,0.00020429498796994,0.00020429498796994,3419073.2260679,0.015103355581368
13419200,0.99627845910557,0.017036598274498,0.0051017331370275,0.0059674325687307,0.0059674325687394,-0.0010325702368778,0.0010325787541302,3.1874097078214e-09,3.1874208408636e-09,1.1040851518977e-09,5.0019749325993e-09,-0.0012750404408598,0.001275048532804,-0.0012750398663133,0.0012750479583204,-0.0012750386493681,0.0012750493020679,-0.001275038073997,0.0012750487267032,-0.0011108520348467,0.0011108600854058,-0.0011108520257781,0.0011108600763859,4.3554415356898e-09,1.0419359616304e-09,8.3374412660606e-09,-2.7536910933823e-09,-0.0012807595663638,0.0012807667563257,-0.0015503930996653,0.001550405552658,-0.0015503961631952,0.0015504012310301,-0.0015503930950669,0.0015504033203744,-0.0015503961585252,0.0015503989987292,-0.0013117440464953,0.0013117591681404,-0.0013117552888285,0.001311748665094,-0.0012273713501625,0.0012273763763193,-0.0012273752514041,0.0012273737476102,4.2496686527162e-09,4.2496798125518e-09,-0.0012807582445161,0.0012807680781788,-1.3851281804613e-09,9.6809998685111e-09,-0.0015503962272601,0.0015504026203545,-0.0015503918259802,0.0015504055934513,-0.0015503949575378,0.0015504013506238,-0.001550390638281,0.0015504044057912,-0.0012273683226776,0.0012273805715925,-0.0012273677317734,0.0012273799806021,0.58571222258946,125301,3014,0.0042951739260607,0.0053223326400922,0.0053223326401034,34.796081609088,0.0001935686528727,0.0001935686528727,0.0001935686528727,3413444.2045757,0.015053095362888
13919200,0.99710560704777,0.017047372616567,0.005105234767533,0.0059710689245127,0.0059710689245215,-0.0010298526603322,0.0010298603102536,2.8494188311812e-09,2.8494300445445e-09,7.6977048424598e-10,4.6742582683243e-09,-0.0012732184494703,0.0012732257703345,-0.001273217920298,0.0012732252412253,-0.0012732166963028,0.0012732265845218,-0.0012732161651125,0.0012732260533384,-0.0011081919767685,0.0011081993140936,-0.0011081919706399,0.0011081993080134,4.1524747138545e-09,8.1758984408119e-10,8.2078791001863e-09,-3.064584066969e-09,-0.0012776168419664,0.0012776234456236,-0.0015481011662905,0.0015481131739456,-0.0015481043314461,0.001548108841643,-0.0015481012298287,0.0015481110034259,-0.0015481043949127,0.0015481066711068,-0.0013087642943235,0.0013087791204489,-0.0013087757247215,0.0013087684469029,-0.0012245311150121,0.0012245356433928,-0.0012245350366209,0.0012245329953348,4.0441878343083e-09,4.0441988923822e-09,-0.0012776155081833,0.0012776247794115,-1.6735772844804e-09,9.5654105438915e-09,-0.0015481043341999,0.001548110188546,-0.0015480999287094,0.0015481132695971,-0.0015481031370829,0.0015481089914196,-0.0015480988110741,0.0015481121520018,-0.001224528035986,0.0012245399018904,-0.0012245274360625,0.0012245393018805,0.57829084170614,125301,3014,0.0042839019489428,0.0053093096656554,0.0053093096656653,33.829172458747,0.00018583337966998,0.00018583337966998,0.00018583337966998,3398795.6698421,0.015015225550612
14419200,0.99771563281369,0.017055144439088,0.0051077632055585,0.0059736906167602,0.005973690616769,-0.0010266540420318,0.0010266622407932,3.0639179428218e-09,3.0639291430678e-09,9.6324768656202e-10,4.9014173950042e-09,-0.0012707365069194,0.001270744312269,-0.0012707359485152,0.0012707437539275,-0.0012707347167305,0.001270745109514,-0.0012707341565425,0.0012707445493334,-0.0011050615786194,0.0011050693805607,-0.0011050615759751,0.0011050693779655,4.3130649512975e-09,9.5570864594807e-10,8.4586523151766e-09,-3.0061418757803e-09,-0.0012740887879305,0.0012740957965848,-0.0015452510038869,0.0015452634457476,-0.001545254200857,0.0015452590153654,-0.0015452510352651,0.0015452612241476,-0.0015452542321634,0.0015452567937482,-0.001305385569496,0.001305400903172,-0.0013053971823183,0.0013053900360448,-0.0012212626847941,0.0012212674913558,-0.0012212666330422,0.0012212648236735,4.2103690512333e-09,4.2103801158364e-09,-0.0012740874408247,0.0012740971436954,-1.6037799420648e-09,9.829300315946e-09,-0.0015452542318476,0.0015452604058706,-0.0015452497261761,0.001545263516708,-0.0015452529888627,0.0015452591628761,-0.0015452485641511,0.0015452623547213,-0.0012212595375129,0.0012212718199394,-0.0012212589383648,0.001221271220705,0.56553166280468,125301,3014,0.0042706359352342,0.0052946906314957,0.0052946906315057,32.643063814083,0.00017634451051267,0.00017634451051267,0.00017634451051267,3387494.155966,0.014972091492246
14919200,0.99815319530808,0.017060773856967,0.0051095961582586,0.0059755888493498,0.0059755888493586,-0.0010215697858093,0.0010215801341061,3.9048734029744e-09,3.904884570045e-09,1.7286133854594e-09,5.7840386047086e-09,-0.0012659012210125,0.0012659109241436,-0.0012659005481708,0.001265910251365,-0.001265899291384,0.0012659116513021,-0.0012658986184571,0.0012659109783822,-0.0011001511516931,0.0011001607701559,-0.001100151154098,0.0011001607726083,4.9088928692788e-09,1.4774160085543e-09,9.1969378838097e-09,-2.5878768187013e-09,-0.0012689401572295,0.0012689486888737,-0.001540365533072,0.0015403794653573,-0.0015403687191744,0.0015403747987707,-0.001540365435027,0.0015403770484178,-0.0015403686210584,0.0015403723818142,-0.0013004007800301,0.0013004176247088,-0.00130041268329,0.001300406425942,-0.0012162821085252,0.0012162880799203,-0.001216286142566,0.0012162853443487,4.8126104251139e-09,4.8126214795409e-09,-0.0012689387797026,0.0012689500664061,-1.1698522084063e-09,1.0595591952498e-08,-0.0015403688745369,0.0015403763379738,-0.0015403641211407,0.0015403794268864,-0.0015403674513078,0.0015403749147354,-0.0015403627851801,0.001540378090965,-0.0012162788463823,0.0012162925183378,-0.001216278256807,0.0012162919286761,0.57027522896783,125301,3014,0.0042495472637705,0.0052733539270768,0.0052733539270885,30.579948830841,0.00015983959064673,0.00015983959064673,0.00015983959064673,3386501.9897049,0.014907377978124
15419200,0.99845134160514,0.017064890114558,0.0051109367207183,0.0059769766969156,0.0059769766969243,-0.0010136004223357,0.0010136142675686,5.2785500236848e-09,5.2785610614653e-09,2.9585559478525e-09,7.2532845144311e-09,-0.0012593889771369,0.0012594017310656,-0.0012593881241229,0.0012594008781152,-0.0012593868091767,0.001259402364868,-0.0012593859584628,0.0012594015141605,-0.0010921968083229,0.0010922094058126,-0.00109219682421,0.0010922094217476,5.8986421995678e-09,2.2875574273747e-09,1.0421238559612e-08,-1.950711485057e-09,-0.0012607723491533,0.0012607833284111,-0.0015334899271044,0.0015335062745864,-0.001533493121088,0.001533501207241,-0.001533489640819,0.0015335035255191,-0.001533492834731,0.0015334984581572,-0.0012924050372575,0.0012924243648143,-0.0012924174767872,0.0012924125596786,-0.001208425692393,0.001208433573966,-0.0012084299238605,0.001208430669669,5.7706979651972e-09,5.7707091967364e-09,-0.0012607709318847,0.0012607847456837,-5.1394214262621e-10,1.1855774387525e-08,-0.0015334934897659,0.0015335029631411,-0.0015334883193631,0.0015335060439556,-0.0015334917807962,0.0015335012541625,-0.0015334867067282,0.0015335044313598,-0.0012084222650789,0.0012084381731464,-0.0012084216884487,0.0012084375964285,0.60998273745787,125301,3014,0.0042165007331324,0.0052395108899637,0.0052395108899719,27.071773732369,0.00013177418985896,0.00013177418985896,0.00013177418985896,3373935.5959356,0.014805169812937
15919200,0.99868044473657,0.017068300378266,0.0051120481722564,0.0059781261030003,0.005978126103009,-0.0010096415969764,0.0010096512033488,3.6288025345147e-09,3.6288135617954e-09,1.3887526720886e-09,5.5989485824935e-09,-0.0012587602972446,0.001258769253877,-0.0012587596761757,0.0012587686328707,-0.001258758361244,0.0012587700780544,-0.0012587577375663,0.0012587694543832,-0.0010878548187094,0.0010878638984776,-0.0010878548351277,0.0010878639149439,4.8163717842421e-09,1.1979315002797e-09,9.4011525600605e-09,-3.1773185079024e-09,-0.0012558043437051,0.0012558123476979,-0.0015314403345417,0.001531454083786,-0.0015314438199197,0.001531449205389,-0.001531440356423,0.0015314516755314,-0.0015314438417295,0.001531446797117,-0.0012875570727683,0.0012875742295512,-0.0012875697534546,0.0012875622469654,-0.0012041086583847,0.001204114152283,-0.0012041128712433,0.0012041112286872,4.6329807007375e-09,4.6329919989217e-09,-0.0012558029514768,0.0012558137399313,-1.7228277584122e-09,1.0818013383323e-08,-0.0015314439330115,0.0015314506744698,-0.0015314389811592,0.0015314540752046,-0.001531442588456,0.0015314493299052,-0.0015314377190892,0.0015314528131739,-0.0012041052263987,0.0012041187718001,-0.0012041046259695,0.001204118171284,0.65577891187088,125301,3014,0.0042000901392611,0.0052189315757681,0.0052189315757786,25.354507007356,0.00011803605605885,0.00011803605605885,0.00011803605605885,3326720.2061446,0.014746801574386
16419200,0.99886634169022,0.017070827477982,0.0051128737389377,0.0059789768695179,0.0059789768695266,-0.0010069912438672,0.0010069989799994,2.897545002548e-09,2.8975563976998e-09,7.5196915300561e-10,4.8038703857631e-09,-0.0012592216154896,0.0012592289247245,-0.0012592210964777,0.0012592284057754,-0.0012592198200117,0.0012592297927815,-0.0012592192968022,0.0012592292695787,-0.0010849687085266,0.0010849761917693,-0.0010849687223832,0.0010849762056746,4.2884447352191e-09,7.8752239201091e-10,8.8444963620951e-09,-3.5932661648299e-09,-0.0012519014952378,0.0012519082108057,-0.0015303603383799,0.0015303728394974,-0.0015303638787451,0.0015303681216893,-0.00153036045701,0.0015303706203319,-0.0015303639973037,0.0015303659025064,-0.0012838870920613,0.0012839031249981,-0.0012838996492443,0.0012838912892852,-0.0012010111648221,0.0012010155847381,-0.0012010152442557,0.0012010127663234,4.1036111334379e-09,4.1036221628068e-09,-0.001251900149805,0.0012519095562436,-2.1717894431468e-09,1.0216929855188e-08,-0.0015303638932971,0.0015303694492905,-0.0015303591129468,0.0015303729158879,-0.0015303627083412,0.0015303682643252,-0.0015303580042135,0.0015303718071935,-0.0012010077774748,0.0012010201525612,-0.0012010071743476,0.0012010195493476,0.6006069376743,125301,3014,0.004189113488776,0.0052027711447144,0.005202771144725,24.412377443819,0.00011049901955055,0.00011049901955055,0.00011049901955055,3277086.1116188,0.014702912246864
16919200,0.9990208363795,0.017073182707647,0.0051136451209788,0.0059797687933296,0.0059797687933384,-0.0010041135897309,0.0010041205417658,2.5794573546425e-09,2.5794686157985e-09,4.766705183958e-10,4.4435917944091e-09,-0.0012538266520636,0.001253833315208,-0.0012538261635867,0.0012538328267937,-0.0012538249135514,0.0012538341858777,-0.0012538244204447,0.0012538336927775,-0.0010829921291776,0.0010829989192131,-0.0010829921346232,0.0010829989247058,4.0588582601091e-09,6.4631639220581e-10,8.5989125130228e-09,-3.7275775484527e-09,-0.0012492616625237,0.00124926788998,-0.0015256656838153,0.0015256777218466,-0.0015256692206426,0.0015256730775006,-0.0015256658251371,0.0015256755866648,-0.001525669361893,0.0015256709423001,-0.0012817506685643,0.0012817662192047,-0.0012817631301771,0.0012817545047528,-0.0011985590217402,0.0011985629966682,-0.0011985630171105,0.0011985602696019,3.9532692861605e-09,3.9532803083532e-09,-0.0012492602837619,0.0012492692687476,-2.268597293704e-09,1.0005933812826e-08,-0.0015256691522644,0.0015256744154489,-0.0015256644471675,0.0015256778802712,-0.0015256680215962,0.0015256732847721,-0.0015256633925865,0.001525676825729,-0.0011985555973391,0.001198567610353,-0.0011985549889302,0.0011985670018559,0.6689580867221,125301,3014,0.0041771562399988,0.0051918102345591,0.0051918102345711,23.77999538001,0.00010543996304008,0.00010543996304008,0.00010543996304008,3305485.2600008,0.014668480789514
17419200,0.99914203344407,0.01707492072544,0.0051142137254781,0.0059803534999763,0.0059803534999851,-0.0010004685013338,0.0010004782317644,3.679538160282e-09,3.6795493593516e-09,1.5172256620034e-09,5.5765544838531e-09,-0.0012548008202349,0.0012548098797761,-0.001254800201222,0.0012548092608259,-0.001254798931567,0.0012548106540064,-0.0012547983100279,0.0012548100324737,-0.0010785173390892,0.001078526480224,-0.001078517360092,0.0010785265012752,4.812398041699e-09,1.3330595328618e-09,9.4281026224467e-09,-3.0761250349413e-09,-0.0012443537504023,0.0012443619097171,-0.0015248047765068,0.001524818544176,-0.0015248082377249,0.0015248136903777,-0.0015248047522256,0.0015248161816198,-0.0015248082133722,0.001524811327804,-0.0012766913700751,0.0012767086406444,-0.0012767039695689,0.0012766967227482,-0.0011941917347451,0.0011941972574464,-0.0011941957997588,0.0011941944613249,4.6361813470776e-09,4.6361925448531e-09,-0.0012443524151719,0.0012443632449525,-1.6793816165738e-09,1.0787607440733e-08,-0.0015248083801618,0.0015248151260157,-0.0015248034543596,0.0015248185037208,-0.0015248070387435,0.0015248137845881,-0.0015248021934247,0.0015248172428249,-0.0011941883117571,0.0011942018505987,-0.0011941877198298,0.0011942012585847,0.63180123811172,125301,3014,0.004162068883758,0.0051715005123076,0.0051715005123182,21.983520297558,9.1068162380464e-05,9.1068162380464e-05,9.1068162380464e-05,3244952.8416532,0.014612042562751
17919200,0.99923462804741,0.017076150111786,0.0051146170912595,0.0059807665102587,0.0059807665102674,-0.00099366132311316,0.00099367266428919,4.3033301717172e-09,4.3033415908095e-09,2.0704894430276e-09,6.2392499869604e-09,-0.0012467145168232,0.0012467249872901,-0.0012467138077661,0.0012467242782951,-0.0012467125148302,0.0012467257128832,-0.0012467118045708,0.0012467250026311,-0.0010725233937076,0.0010725338969749,-0.0010725234069901,0.0010725339103051,5.2698587578289e-09,1.723794557311e-09,9.9909259651222e-09,-2.7574176691173e-09,-0.0012376216619577,0.0012376309952552,-0.001517114146253,0.0015171290668372,-0.0015171175980926,0.0015171240313256,-0.0015171140306565,0.0015171265547211,-0.0015171174824255,0.0015171215191921,-0.0012705260712136,0.0012705444933084,-0.0012705388887335,0.0012705323190906,-0.0011878450213084,0.0011878514442292,-0.001187849157492,0.0011878485797506,5.1254293181232e-09,5.1254403047287e-09,-0.0012376202754581,0.0012376323817597,-1.3209883744472e-09,1.1399873725683e-08,-0.0015171178135125,0.0015171256076783,-0.0015171126962683,0.0015171289665892,-0.0015171163356416,0.0015171241297981,-0.0015171113048445,0.0015171275752038,-0.0011878414774127,0.0011878561400527,-0.0011878409008624,0.0011878555634159,0.58584131959232,125301,3014,0.0041338222424011,0.0051435854021224,0.0051435854021326,19.503566688822,7.1228533510579e-05,7.1228533510579e-05,7.1228533510579e-05,3261778.9457867,0.014526702753219
18419200,0.99930823242654,0.017077155857052,0.0051149469138042,0.0059811044716195,0.0059811044716283,-0.00098838425674119,0.00098839455481507,3.8882696668248e-09,3.888281118975e-09,1.6476266903121e-09,5.8388118091307e-09,-0.0012393987610317,0.0012394083395234,-0.0012393980970752,0.0012394076756298,-0.0012393967947137,0.0012394091167925,-0.0012393961283805,0.0012394084504662,-0.0010678216874833,0.001067831321826,-0.0010678216985873,0.0010678313329788,5.0118483885305e-09,1.4415184443143e-09,9.8289631915873e-09,-3.1471321953908e-09,-0.0012329156794708,0.0012329242964629,-0.0015106607437617,0.0015106751605816,-0.0015106643142127,0.0015106701006476,-0.0015106607032822,0.0015106727138524,-0.0015106642736618,0.001510667653901,-0.001266030618591,0.001266048670762,-0.0012660436769503,0.0012660362873318,-0.0011829984711955,0.0011830042646753,-0.0011830026381819,0.0011830013851597,4.9085239900791e-09,4.9085347693969e-09,-0.001232914240467,0.0012329257354719,-1.6476313608753e-09,1.1292878722983e-08,-0.001510664431277,0.0015106716726854,-0.00151065929454,0.001510675155466,-0.001510663027469,0.0015106702688682,-0.0015106579763313,0.0015106738372964,-0.0011829948222974,0.0011830090877057,-0.0011829942322772,0.0011830084975994,0.60198893582429,125301,3014,0.0041119095138941,0.0051240615775635,0.0051240615775742,17.480146676119,5.5041173408955e-05,5.5041173408955e-05,5.5041173408955e-05,3295057.797072,0.014464821992024
18919200,0.99937246738954,0.017078083624757,0.0051152507058777,0.0059814164594354,0.0059814164594442,-0.0009868975964521,0.00098690457482528,2.5922004990835e-09,2.5922120499659e-09,4.5746977620059e-10,4.4911308514765e-09,-0.0012397209821743,0.0012397276478415,-0.0012397204941578,0.0012397271598877,-0.0012397192222168,0.0012397285396674,-0.0012397187287702,0.0012397280462271,-0.0010659912450856,0.0010659980841115,-0.0010659912612126,0.0010659981002868,4.1161767553957e-09,6.357163459748e-10,8.8575244819948e-09,-3.9367830841412e-09,-0.0012308492829473,0.0012308555685952,-0.0015101692621329,0.0015101815275195,-0.0015101729466536,0.0015101767250097,-0.0015101694253012,0.0015101793707439,-0.0015101731097512,0.0015101745682182,-0.0012639048643073,0.0012639209053937,-0.0012639177854213,0.0012639087316841,-0.0011811545999074,0.0011811585380824,-0.0011811586680861,0.0011811557492127,3.9953108543488e-09,3.9953215846093e-09,-0.0012308478857887,0.0012308569657595,-2.4523541241472e-09,1.0284373538154e-08,-0.0015101728749209,0.0015101780716633,-0.0015101680151199,0.0015101816876423,-0.0015101717463785,0.0015101769431105,-0.0015101669619865,0.0015101806345473,-0.0011811510434097,0.001181163298477,-0.0011811504269799,0.0011811626819622,0.63537814382099,125301,3014,0.004105743408548,0.0051155018428435,0.0051155018428553,16.875242417642,5.0201939341137e-05,5.0201939341137e-05,5.0201939341137e-05,3269144.564745,0.014441232360617
19419200,0.99943305025037,0.01707900153925,0.0051155516338687,0.0059817249526863,0.0059817249526951,-0.00098801222690524,0.00098801618499036,1.4079231230915e-09,1.4079349350836e-09,-5.0191015457754e-10,3.1228372959054e-09,-0.0012431878181854,0.0012431919207374,-0.0012431874863286,0.0012431915889437,-0.0012431863280735,0.0012431928265545,-0.0012431859895742,0.001243192488062,-0.0010667072869823,0.0010667114862039,-0.0010667073030397,0.001066711502311,3.1854816167816e-09,5.6482616487485e-11,7.6264521251649e-09,-4.2724217138407e-09,-0.0012309531332128,0.0012309573392407,-0.0015123753043191,0.0015123853275114,-0.001512378858005,0.0015123810002392,-0.001512375564258,0.0015123835194729,-0.0015123791178725,0.0015123791921832,-0.0012640001731222,0.0012640137934809,-0.0012640122571727,0.0012640025321982,-0.0011816979486229,0.0011817002125606,-0.0011817016575689,0.0011816977703026,3.1162771348138e-09,3.1162879378367e-09,-0.0012309518398253,0.0012309586326334,-2.8811567597858e-09,8.9515350737481e-09,-0.0015123786352452,0.001512382124367,-0.0015123742620601,0.0015123856211685,-0.0015123777514543,0.0015123812405665,-0.0015123734449424,0.0015123848040896,-0.0011816946436592,0.0011817047355813,-0.0011816940117228,0.0011817041035588,0.66499875105511,125301,3014,0.0041103757798792,0.0051159441388057,0.0051159441388163,17.545564476039,5.5564515808316e-05,5.5564515808316e-05,5.5564515808316e-05,3228122.7188562,0.014446868188956
19919200,0.99949146859707,0.017079871917674,0.0051158375502679,0.0059820171836989,0.0059820171837077,-0.00098978304023787,0.00098978588326052,9.6959491380565e-10,9.6960672241549e-10,-8.3256084113191e-10,2.5903158388939e-09,-0.0012467862572976,0.001246789431707,-0.0012467859820729,0.0012467891565454,-0.0012467848825008,0.0012467903252776,-0.0012467846007454,0.001246790043529,-0.001068311236621,0.0010683144425023,-0.0010683112523507,0.0010683144582816,2.8186435709195e-09,-1.2927401670135e-10,7.0322389249997e-09,-4.2516014790817e-09,-0.0012316239068348,0.0012316273514055,-0.0015147648348494,0.0015147739281772,-0.0015147682488835,0.0015147698704611,-0.0015147651129671,0.0015147722643097,-0.0015147685269296,0.001514768206576,-0.001264818033259,0.0012648305030283,-0.0012648295310363,0.0012648198600906,-0.001182932962897,0.0011829346571255,-0.0011829364872268,0.001182932392382,2.7718370214581e-09,2.7718477050141e-09,-0.0012316226738802,0.0012316285843652,-2.9215411120127e-09,8.2966658186131e-09,-0.0015147679831209,0.0015147708996516,-0.0015147638816001,0.0015147742589502,-0.0015147671880089,0.00151477010453,-0.0015147631499676,0.0015147735273564,-0.0011829298392869,0.0011829389998761,-0.0011829292040101,0.0011829383645134,0.65387747965128,125301,3014,0.0041177327907849,0.0051187366533912,0.0051187366534018,18.681470058657,6.4651760469254e-05,6.4651760469254e-05,6.4651760469254e-05,3190208.2580843,0.014460022999868
20419200,0.99954363321856,0.017080680745392,0.0051161037015759,0.0059822885219034,0.0059822885219122,-0.00098858723197137,0.00098859288820492,2.0701570925042e-09,2.0701688642034e-09,2.2046083639631e-10,3.6973424872544e-09,-0.0012454661599888,0.0012454717986188,-0.0012454657399957,0.0012454713786889,-0.0012454646381393,0.0012454725719508,-0.0012454642142747,0.0012454721480928,-0.0010674370636841,0.0010674426218237,-0.0010674370757842,0.0010674426339735,3.5640322985568e-09,6.1064613395183e-10,7.7767540616569e-09,-3.4653391242993e-09,-0.0012299953365255,0.0012300007979974,-0.0015131439342096,0.0015131547743825,-0.0015131471915932,0.0015131505679675,-0.0015131440216531,0.0015131528942935,-0.0015131472789647,0.0015131486878609,-0.0012635043623441,0.0012635184113619,-0.0012635157830567,0.0012635077817177,-0.0011816854457447,0.0011816887558598,-0.0011816889786334,0.001181686479294,3.5342809102031e-09,3.5342915321139e-09,-0.0012299940980661,0.001230002036462,-2.1527761657247e-09,9.0424760406228e-09,-0.0015131470962933,0.0015131517654683,-0.0015131428306554,0.0015131549522853,-0.0015131460762855,0.0015131507454509,-0.001513141881425,0.0015131540030936,-0.0011816823036079,0.001181693085328,-0.0011816816928534,0.0011816924744879,0.6787634065121,125301,3014,0.0041127764906805,0.0051119882144367,0.0051119882144476,18.601923416414,6.4015387331314e-05,6.4015387331314e-05,6.4015387331314e-05,3184503.7127845,0.014441290511271
20919200,0.99958702040078,0.017081328962208,0.0051163171184706,0.0059825059218643,0.0059825059218731,-0.00098523541291712,0.00098524402202884,3.2298135690596e-09,3.2298253870515e-09,1.2844771934858e-09,4.9153266855261e-09,-0.0012439178275999,0.001243926013618,-0.0012439172602736,0.0012439254463547,-0.0012439161233695,0.0012439266962452,-0.0012439155544852,0.001243926127365,-0.0010639611118467,0.0010639691717721,-0.0010639611332541,0.0010639691932313,4.3806634827181e-09,1.3174275484192e-09,8.6557012113504e-09,-2.7716734427627e-09,-0.0012259155129286,0.0012259230474587,-0.001510757679097,0.0015107704094384,-0.0015107608484481,0.0015107659740644,-0.0015107576010381,0.0015107682707005,-0.0015107607703225,0.0015107638353065,-0.0012595406435776,0.0012595565027395,-0.0012595522113246,0.0012595456652644,-0.0011780124666969,0.0011780174570929,-0.0011780161182883,0.0011780150729876,4.3140153695564e-09,4.3140259999964e-09,-0.0012259142697323,0.0012259242906593,-1.4750391426843e-09,9.9221480063657e-09,-0.0015107609452831,0.0015107673263658,-0.0015107564368436,0.0015107704110779,-0.0015107596938779,0.0015107660749532,-0.001510755262889,0.0015107692371599,-0.0011780092919764,0.0011780218037193,-0.0011780086976802,0.0011780212093416,0.65509999633855,125301,3014,0.0040988872298062,0.0050950922130104,0.0050950922130195,17.277903878469,5.3423231027754e-05,5.3423231027754e-05,5.3423231027754e-05,3158940.9330159,0.014392950634454
21419200,0.99962184109313,0.017081850371691,0.0051164889994883,0.0059826806860968,0.0059826806861056,-0.00097986191376116,0.00097987224876119,3.902852754998e-09,3.9028645171974e-09,1.8508550559426e-09,5.6679688879117e-09,-0.0012379390868856,0.0012379487486481,-0.0012379384280192,0.0012379480898447,-0.0012379372421652,0.0012379494057077,-0.0012379365829061,0.0012379487464557,-0.0010590346013961,0.0010590441506217,-0.0010590346204652,0.0010590441697402,4.8993869939831e-09,1.6863802394049e-09,9.2851478158316e-09,-2.4799305706456e-09,-0.001220572486807,0.0012205812461414,-0.0015049638351211,0.0015049778050739,-0.0015049670224955,0.0015049731541759,-0.0015049636862446,0.001504975483686,-0.0015049668735473,0.0015049708327703,-0.0012545150940704,0.0012545322123409,-0.0012545269705183,0.001254521025442,-0.001172886670642,0.0011728926542704,-0.0011728904755876,0.0011728901203136,4.8127722925219e-09,4.8127829082564e-09,-0.001220571201008,0.0012205825319455,-1.1510754059953e-09,1.0592333857119e-08,-0.0015049672156267,0.0015049746274769,-0.0015049624830731,0.0015049777217656,-0.00150496582358,0.0015049732354201,-0.0015049611737363,0.0015049764124674,-0.001172883397024,0.0011728970852058,-0.0011728828154818,0.001172896503578,0.65600720189301,125301,3014,0.0040765908449844,0.005072938623966,0.0050729386239764,15.232194885475,3.7057559083801e-05,3.7057559083801e-05,3.7057559083801e-05,3169250.4557155,0.014325370673924
21919200,0.99965145126513,0.017082288048535,0.0051166332440229,0.0059828274022519,0.0059828274022607,-0.00097666454801615,0.00097667302544206,3.1769791977898e-09,3.1769909674303e-09,1.126273044014e-09,4.9695828236854e-09,-0.0012353773342903,0.0012353853518164,-0.0012353767708327,0.0012353847884218,-0.0012353755668235,0.001235386108254,-0.0012353750009716,0.001235385542409,-0.0010558631852817,0.0010558712056515,-0.0010558632081684,0.0010558712285881,4.442508364227e-09,1.1719873818253e-09,8.8533326631765e-09,-3.0485596060034e-09,-0.0012170684825296,0.0012170759232498,-0.00150207291206,0.0015020857991806,-0.0015020762369645,0.0015020812094624,-0.001502072909196,0.0015020836013339,-0.001502076234029,0.0015020790115981,-0.0012511077682851,0.0012511239430999,-0.0012511198037289,0.0012511126409172,-0.0011695767846637,0.0011695817382305,-0.0011695806452293,0.0011695791520506,4.3280303328795e-09,4.3280409347909e-09,-0.0012170671873375,0.001217077218447,-1.6927223346123e-09,1.0173271132403e-08,-0.0015020763157767,0.001502082574556,-0.0015020716556067,0.001502085817731,-0.0015020750735212,0.0015020813322911,-0.0015020704911057,0.0015020846532688,-0.0011695735056599,0.0011695861989498,-0.0011695729052878,0.0011695855984921,0.64802894892709,125301,3014,0.0040633230836239,0.005058413366412,0.0050584133664227,13.996534125714,2.7172273005709e-05,2.7172273005709e-05,2.7172273005709e-05,3161210.2424693,0.014282456027989
22419200,0.99968017818077,0.017082722416362,0.0051167764472921,0.0059829729845304,0.0059829729845391,-0.0009778672813525,0.00097787085473624,1.2554656512685e-09,1.2554774169679e-09,-6.5955142289206e-10,2.9812353693647e-09,-0.0012365666753493,0.0012365704338522,-0.0012365663608837,0.0012365701194496,-0.0012365651962204,0.0012365713613458,-0.0012365648752539,0.0012365710403862,-0.0010571031248398,0.0010571070107489,-0.0010571031491508,0.0010571070351097,3.1186928427209e-09,-3.021168372108e-11,7.4061306650971e-09,-4.2092306119959e-09,-0.0012179113038701,0.0012179153020809,-0.0015029361800336,0.0015029459415279,-0.0015029396600336,0.0015029417282276,-0.0015029364735821,0.0015029441573829,-0.0015029399535105,0.001502939944065,-0.0012520178612498,0.0012520310322938,-0.0012520296823547,0.0012520200640932,-0.0011705662427759,0.0011705684582493,-0.001170569976602,0.0011705660016958,3.019738875462e-09,3.0197494587857e-09,-0.0012179100299169,0.0012179165760391,-2.8382807792058e-09,8.7117973729232e-09,-0.0015029394368035,0.0015029428087798,-0.0015029351781009,0.0015029462323675,-0.001502938585771,0.0015029419577379,-0.0015029343922648,0.0015029454465701,-0.0011705630688567,0.0011705728655334,-0.0011705624272039,0.0011705722237949,0.6620970104337,125301,3014,0.0040683010388988,0.0050619004033574,0.0050619004033679,14.849664895219,3.3997319161751e-05,3.3997319161751e-05,3.3997319161751e-05,3154170.0427379,0.014294575566873
22919200,0.99970734705767,0.017083112089875,0.0051169050049658,0.0059831035424502,0.005983103542459,-0.00097854482184977,0.0009785491643435,1.5549087536931e-09,1.5549205640088e-09,-3.2680980574359e-10,3.2355665951027e-09,-0.001238405661874,0.0012384101165376,-0.0012384053088089,0.0012384097635355,-0.0012384041728208,0.0012384109812683,-0.0012384038143703,0.0012384106228252,-0.0010575838410031,0.0010575883356249,-0.0010575838649132,0.001057588359584,3.279476000958e-09,2.1954561768466e-10,7.5125385142316e-09,-3.8944533524674e-09,-0.0012179476340921,0.0012179521863962,-0.0015040483292995,0.0015040584691835,-0.0015040517043416,0.001504054281652,-0.0015040485412874,0.0015040566551538,-0.0015040519162579,0.0015040524676045,-0.0012520479410421,0.0012520613832998,-0.0012520595471848,0.0012520506115868,-0.0011708362361476,0.0011708388726626,-0.0011708398804827,0.0011708365006914,3.1993384157605e-09,3.199348985967e-09,-0.0012179463877899,0.0012179534327033,-2.5608551495742e-09,8.7887171116368e-09,-0.0015040515393502,0.0015040553937717,-0.0015040473010472,0.0015040587069799,-0.0015040506265472,0.001504054480959,-0.0015040464550926,0.0015040578610635,-0.0011708331054061,0.0011708432229706,-0.0011708324734115,0.0011708425908895,0.62916623954473,125301,3014,0.0040711193313519,0.00506206086945,0.0050620608694602,15.357234233773,3.8057873870185e-05,3.8057873870185e-05,3.8057873870185e-05,3132010.682566,0.01429777906169
23419200,0.99973272686768,0.017083483231157,0.0051170275581338,0.0059832278365073,0.0059832278365161,-0.00097849367787781,0.00097849836981391,1.6877956570601e-09,1.6878073680846e-09,-1.8006055236196e-10,3.3457861971166e-09,-0.0012370070512738,0.0012370118338012,-0.0012370066763904,0.0012370114589783,-0.0012370055549509,0.00123701266618,-0.0012370051752279,0.0012370122864644,-0.0010578556544161,0.0010578604211234,-0.0010578556780423,0.0010578604448027,3.3591806189691e-09,3.4694186004852e-10,7.5614967329234e-09,-3.7304466082497e-09,-0.0012180217562984,0.0012180265913315,-0.0015029295849635,0.0015029399300322,-0.0015029329023855,0.001502935757282,-0.0015029297567482,0.0015029381033122,-0.0015029330740992,0.0015029339305459,-0.001252269641886,0.001252283211316,-0.0012522811364736,0.0012522725553648,-0.0011709176927876,0.0011709205423296,-0.0011709212965118,0.0011709182224316,3.3122023607856e-09,3.3122130164012e-09,-0.0012180205040668,0.0012180278435675,-2.3955677953129e-09,8.8429269323875e-09,-0.0015029327498312,0.0015029369065885,-0.0015029285232098,0.0015029401589632,-0.0015029318062222,0.0015029359629702,-0.0015029276479089,0.0015029392837011,-0.0011709145700136,0.0011709248901398,-0.0011709139369789,0.0011709242570251,0.64041032964457,125301,3014,0.0040708968069012,0.0050623584813803,0.0050623584813894,15.70560530785,4.0844842462797e-05,4.0844842462797e-05,4.0844842462797e-05,3145963.2052228,0.014298127869452
23919200,0.99975773937625,0.017083877308109,0.0051171575599026,0.005983359874099,0.0059833598741078,-0.00098100614145026,0.00098100862609159,8.2560073305256e-10,8.2561242481303e-10,-9.5986148847864e-10,2.4333033309594e-09,-0.0012405487517217,0.0012405516251074,-0.0012405484911765,0.0012405513646252,-0.0012405474000341,0.0012405525227229,-0.0012405471330451,0.0012405522557402,-0.0010600905139719,0.0010600934101964,-0.0010600905390443,0.0010600934353184,2.7454053203295e-09,-1.7421899142977e-10,6.8380237168864e-09,-4.1801050848826e-09,-0.0012199132069678,0.0012199164869844,-0.0015057479033592,0.0015057567702418,-0.0015057512463347,0.0015057528175155,-0.0015057481976351,0.0015057551438164,-0.0015057515405389,0.0015057511910724,-0.0012540768348538,0.0012540889233118,-0.0012540880901487,0.0012540785592338,-0.0011729609990247,0.001172962627411,-0.0011729645054654,0.0011729604010277,2.7003725298258e-09,2.7003831889119e-09,-0.0012199119866065,0.0012199177073509,-2.8629373451705e-09,8.0902017012149e-09,-0.0015057509696068,0.0015057538206962,-0.0015057469737497,0.0015057571095015,-0.0015057502043613,0.0015057530554411,-0.0015057462706998,0.0015057564064903,-0.0011729579737605,0.0011729668960342,-0.0011729573246886,0.0011729662468766,0.68827841649026,125301,3014,0.0040813207835858,0.0050702046197202,0.005070204619731,17.004014953408,5.1232119627262e-05,5.1232119627262e-05,5.1232119627262e-05,3123764.321436,0.01432463707796
24419200,0.999781591317,0.017084241896204,0.0051172779873251,0.0059834819544351,0.0059834819544439,-0.00098275558530699,0.00098275906489409,1.2170225604138e-09,1.2170340222696e-09,-5.4682379037915e-10,2.7898917151938e-09,-0.0012449341198435,0.0012449378815571,-0.0012449338112733,0.0012449375730498,-0.0012449327426816,0.0012449387144828,-0.0012449324291661,0.0012449384009738,-0.0010613228947123,0.0010613265986844,-0.0010613229213925,0.0010613266254138,2.966177619862e-09,1.1456080092264e-10,6.9528251278519e-09,-3.7704449835381e-09,-0.0012205504230378,0.0012205543899951,-0.0015088072297889,0.0015088165654576,-0.0015088104306216,0.0015088126563089,-0.0015088074339113,0.0015088148855065,-0.0015088106346724,0.00150881097634,-0.0012545984006921,0.001254610778394,-0.0012546093521805,0.001254600692344,-0.0011739572327641,0.0011739594372969,-0.0011739606678639,0.0011739572718795,2.9149045659605e-09,2.914915552919e-09,-0.0012205492449244,0.0012205555681136,-2.5087106514058e-09,8.1601993679813e-09,-0.0015088102405106,0.0015088136844017,-0.0015088062811575,0.001508816824,-0.0015088093965885,0.0015088128404703,-0.0015088055013146,0.0015088160441961,-0.0011739543003635,0.0011739635922325,-0.0011739536649186,0.0011739629567012,0.66831884730653,125301,3014,0.0040885965675764,0.0050728684606041,0.0050728684606146,17.881466990249,5.8251735921993e-05,5.8251735921993e-05,5.8251735921993e-05,3079152.7807055,0.014337470144774
24919200,0.99980368271757,0.017084562640306,0.0051173841670751,0.0059835892366108,0.0059835892366196,-0.00098279657438136,0.00098280098471455,1.5786316793564e-09,1.5786431337124e-09,-2.0276435480579e-10,3.1540047909363e-09,-0.0012443132514844,0.00124431782949,-0.0012443128928241,0.0012443174708926,-0.0012443118232231,0.0012443186214439,-0.0012443114605611,0.0012443182587888,-0.0010617301770185,0.0010617346562053,-0.0010617302042139,0.0010617346834499,3.2186667800753e-09,3.6565828445842e-10,7.1874221198827e-09,-3.4859001564809e-09,-0.0012203121091215,0.0012203167636639,-0.0015080629318481,0.0015080728554594,-0.0015080660676237,0.0015080689072706,-0.0015080630724801,0.0015080711035019,-0.0015080662081837,0.0015080671552954,-0.0012546675471821,0.0012546804250212,-0.0012546784424841,0.0012546703838773,-0.0011740260055042,0.0011740287694138,-0.0011740294483141,0.0011740266053077,3.1793319488855e-09,3.1793428980216e-09,-0.0012203109241884,0.0012203179486021,-2.2255695152614e-09,8.4001605400381e-09,-0.0015080659311985,0.0015080699976741,-0.0015080619273029,0.0015080730665157,-0.0015080650119174,0.0015080690783837,-0.0015080610747257,0.0015080722139777,-0.0011740230773191,0.0011740329187842,-0.001174022445653,0.0011740322870318,0.63528367989648,125301,3014,0.0040887638134166,0.0050718762470658,0.0050718762470764,18.351785508412,6.2014284067294e-05,6.2014284067294e-05,6.2014284067294e-05,3079418.6481622,0.014335603093617
25419200,0.99982537996562,0.017084908595221,0.0051174986311858,0.0059837049820134,0.0059837049820222,-0.00098544927643528,0.00098545109689529,5.6286187195618e-10,5.6287336854614e-10,-1.1255862494657e-09,2.0794248629096e-09,-0.0012455613054957,0.0012455636534161,-0.0012455610760316,0.0012455634240148,-0.0012455600419987,0.0012455645191751,-0.0012455598066994,0.0012455642838826,-0.0010646255055761,0.0010646277851132,-0.0010646255339906,0.001064627813577,2.5099197728318e-09,-2.3124569746481e-10,6.342588299232e-09,-3.9910794120446e-09,-0.0012229721410919,0.0012229750094418,-0.0015094592470004,0.0015094674792263,-0.0015094624032519,0.0015094637912748,-0.0015094595293792,0.0015094659616468,-0.001509462685559,0.0015094622736776,-0.0012574253614243,0.0012574365101405,-0.0012574359657417,0.0012574268377726,-0.0011766811498636,0.0011766825114718,-0.0011766844843328,0.001176680468259,2.4988782306912e-09,2.4988890686543e-09,-0.0012229709718818,0.001222976178657,-2.7301216338052e-09,7.5428950471751e-09,-0.0015094621051621,0.0015094647358991,-0.001509458373269,0.00150946783709,-0.0015094613920194,0.0015094640227472,-0.0015094577205008,0.0015094671843609,-0.0011766783242391,0.0011766865948946,-0.0011766776663982,0.0011766859369673,0.69486037269352,125301,3014,0.0040997537888061,0.0050828900483635,0.0050828900483741,19.919551493968,7.4556411951741e-05,7.4556411951741e-05,7.4556411951741e-05,3090486.0779922,0.014369065637055
25919200,0.99984557391226,0.017085227431142,0.0051176041021741,0.0059838116644795,0.0059838116644883,-0.00098741603302644,0.00098741964390744,1.2674005119902e-09,1.2674119034952e-09,-4.5302928403105e-10,2.7936973470814e-09,-0.0012508259674112,0.0012508298718966,-0.0012508256515108,0.001250829556059,-0.0012508246125508,0.0012508306683547,-0.0012508242926479,0.0012508303484583,-0.0010658166001756,0.001065820381795,-0.0010658166290665,0.001065820410735,2.9645094508389e-09,2.0458807827428e-10,6.7551135813435e-09,-3.4835335064026e-09,-0.0012237555260202,0.0012237596072209,-0.0015132424568384,0.0015132517033036,-0.0015132454956448,0.0015132479479168,-0.00151324262246,0.0015132500433334,-0.0015132456611946,0.0015132462879288,-0.0012579117199828,0.0012579237463354,-0.0012579222001617,0.0012579141413918,-0.0011777067990554,0.0011777091670387,-0.0011777101444711,0.0011777070932097,2.9220210227929e-09,2.9220320688672e-09,-0.0012237543847521,0.001223760748494,-2.2667461198149e-09,7.9242150229646e-09,-0.0015132453325573,0.0015132489620772,-0.001513241523479,0.0015132519359441,-0.0015132444781261,0.0015132481076366,-0.0015132407331643,0.0015132511456684,-0.0011777040173874,0.0011777131701855,-0.0011777033830274,0.0011777125357388,0.68893726601623,125301,3014,0.0041079358484876,0.0050861666077377,0.0050861666077483,20.734155790419,8.1073246323355e-05,8.1073246323355e-05,8.1073246323355e-05,3039496.1691358,0.014384080035276
26419200,0.99986310414186,0.017085518148102,0.005117700453089,0.0059839088475019,0.0059839088475107,-0.00098579295654649,0.00098579924933353,2.3157522377117e-09,2.3157636061585e-09,5.1354216590405e-10,3.886709434783e-09,-0.0012492231863677,0.0012492294073343,-0.0012492227331454,0.0012492289541749,-0.0012492216676641,0.0012492301140978,-0.0012492212125839,0.0012492296590242,-0.0010645085129084,0.0010645145602685,-0.0010645085414858,0.0010645145888945,3.7043951984168e-09,8.6303233308147e-10,7.5598517512307e-09,-2.845286527941e-09,-0.0012217096107764,0.0012217156017063,-0.0015113312948277,0.0015113422783288,-0.0015113342505321,0.0015113383126905,-0.0015113313037194,0.0015113403880013,-0.0015113342593517,0.0015113364223455,-0.0012561996112931,0.0012562133051858,-0.0012562102203129,0.0012562035100202,-0.0011760702426113,0.0011760741410298,-0.0011760736734919,0.0011760719823533,3.6533188849687e-09,3.6533299489837e-09,-0.0012217084512211,0.0012217167612663,-1.6291174225516e-09,8.7436735993617e-09,-0.0015113342496456,0.001511339487229,-0.0015113302172072,0.0015113423644543,-0.001511333182413,0.0015113384199872,-0.0015113292208021,0.0015113413680889,-0.0011760674023341,0.0011760781777625,-0.0011760667884515,0.0011760775637928,0.72144035141932,125301,3014,0.0041012072982737,0.0050776882366904,0.0050776882367004,20.398997140464,7.839197712371e-05,7.839197712371e-05,7.839197712371e-05,3032512.5355034,0.014360042202222
26919200,0.99987942519234,0.017085780229068,0.0051177873683951,0.0059839964303318,0.0059839964303406,-0.00098725506841313,0.00098725855546863,1.2211854512698e-09,1.2211968253635e-09,-5.2808241962104e-10,2.7795541869393e-09,-0.0012523197818331,0.0012523235602626,-0.0012523194727478,0.0012523232512401,-0.0012523184136526,0.0012523243830885,-0.0012523181003783,0.0012523240698206,-0.0010657678815323,0.001065771584659,-0.0010657679142503,0.0010657716174261,2.9645843481943e-09,1.4182544901555e-10,6.7497961219192e-09,-3.5413176540964e-09,-0.0012221845556152,0.0012221885519265,-0.001513404307344,0.0015134135196739,-0.0015134073696081,0.0015134097542021,-0.0015134045022916,0.001513411849385,-0.0015134075644838,0.0015134080838953,-0.0012567265099434,0.0012567385006181,-0.0012567370455064,0.0012567288476163,-0.0011769362164142,0.0011769385627779,-0.001176939625274,0.0011769364280371,2.8931233949486e-09,2.8931345090796e-09,-0.0012221834118084,0.0012221896957384,-2.3203490590466e-09,7.9217735516381e-09,-0.0015134072060618,0.0015134107526955,-0.0015134033879576,0.0015134137511507,-0.0015134063630836,0.001513409909708,-0.0015134026085134,0.0015134129717456,-0.0011769334489213,0.0011769425570243,-0.0011769328109169,0.001176941918933,0.69956233955315,125301,3014,0.0041072775044597,0.0050796673010578,0.0050796673010684,21.286794590742,8.5494356725933e-05,8.5494356725933e-05,8.5494356725933e-05,3000798.3370429,0.014370242002747
27419200,0.99989457576036,0.017086021624196,0.0051178675398579,0.0059840770421646,0.0059840770421734,-0.00098842460779731,0.00098842786040746,1.1259242261995e-09,1.1259355751763e-09,-6.0909260493314e-10,2.6713373305959e-09,-0.0012527772344663,0.0012527808164588,-0.0012527769349256,0.0012527805169811,-0.0012527758838291,0.0012527816397085,-0.0012527755800211,0.0012527813359074,-0.0010672339059422,0.0010672374012127,-0.0010672339376975,0.0010672374330171,2.8998148866262e-09,1.0359192722928e-10,6.6608829671164e-09,-3.5593557127253e-09,-0.0012230489415628,0.0012230528000346,-0.0015136986723039,0.0015137077379338,-0.0015137017219261,0.0015137040075298,-0.0015136988742599,0.0015137060933299,-0.0015137019238102,0.0015137023629081,-0.0012578383984714,0.001257850214733,-0.0012578488708208,0.001257840637158,-0.0011780504744213,0.0011780527079565,-0.0011780538598139,0.0011780506024809,2.8441575535861e-09,2.8441686388945e-09,-0.0012230477951814,0.001223053946421,-2.3350400568056e-09,7.8357161740142e-09,-0.0015137015395413,0.0015137050011365,-0.0015136977570561,0.0015137079875286,-0.0015137007138071,0.0015137041753933,-0.0015136969945284,0.0015137072250407,-0.0011780477182998,0.0011780566977934,-0.0011780470763147,0.0011780560557214,0.69373344961353,125301,3014,0.0041121240837204,0.005083244578748,0.0050832445787582,22.250725747772,9.3205805982176e-05,9.3205805982176e-05,9.3205805982176e-05,3001588.0250442,0.014382392264303
27919200,0.99990830765027,0.017086247289781,0.0051179424792464,0.0059841524052627,0.0059841524052715,-0.00098932171608009,0.00098932565246262,1.3924671687015e-09,1.3924785674121e-09,-3.5307906973561e-10,2.9382998594856e-09,-0.0012537363386763,0.0012537405170202,-0.0012537360039243,0.0012537401823304,-0.0012537349529872,0.0012537413102369,-0.0012537346146079,0.0012537409718639,-0.0010681518153083,0.0010681558801611,-0.0010681518461981,0.0010681559111013,3.0791287530694e-09,2.838781669448e-10,6.8440133241681e-09,-3.371763264474e-09,-0.001223581182229,0.0012235855317329,-0.0015143253504473,0.0015143348396162,-0.0015143283636879,0.0015143310709968,-0.0015143255055757,0.0015143331433517,-0.0015143285187442,0.0015143293747157,-0.0012584273972396,0.001258439602897,-0.0012584378563538,0.0012584300228601,-0.0011787215015447,0.0011787241228171,-0.0011787248865677,0.0011787220166279,3.028222154833e-09,3.0282331812609e-09,-0.0012235800350743,0.0012235866788926,-2.152263134368e-09,8.0186199052249e-09,-0.0015143282231489,0.0015143321054421,-0.0015143243987611,0.0015143350516467,-0.0015143273429656,0.0015143312252488,-0.0015143235835154,0.0015143342364407,-0.0011787187382338,0.0011787281117861,-0.0011787181023697,0.0011787274758353,0.71478775578747,125301,3014,0.0041158464376901,0.0050854529190151,0.0050854529190255,22.918380954296,9.8547047634367e-05,9.8547047634367e-05,9.8547047634367e-05,2995191.3688643,0.014390646706376
28419200,0.99992058906431,0.01708645777345,0.0051180123835109,0.0059842226949653,0.0059842226949741,-0.00099012632859629,0.00099013062499589,1.5348294349555e-09,1.5348408570183e-09,-2.2335276872623e-10,3.0899447618674e-09,-0.0012558042560382,0.0012558087410471,-0.0012558039047239,0.0012558083897957,-0.0012558028481357,0.0012558095253141,-0.0012558024934393,0.0012558091706242,-0.0010687355551179,0.0010687399276026,-0.0010687355881608,0.0010687399606947,3.1769119850298e-09,3.63101615789e-10,6.9474335897876e-09,-3.2921600901267e-09,-0.0012236861197435,0.0012236907105873,-0.0015156406377308,0.0015156503449043,-0.0015156436414028,0.0015156465489783,-0.001515640774536,0.0015156486158652,-0.0015156437781364,0.0015156448199213,-0.0012584992105255,0.0012585116282616,-0.0012585096870729,0.0012585020199011,-0.001179041737964,0.0011790445598531,-0.0011790451404077,0.0011790424336235,3.1130153564001e-09,3.1130263757105e-09,-0.0012236849772152,0.0012236918531205,-2.0795201148232e-09,8.1169100654986e-09,-0.0015156435286592,0.0015156475952415,-0.0015156396756782,0.0015156505305001,-0.0015156426212719,0.0015156466878451,-0.0015156388337243,0.0015156496885856,-0.0011790389769931,0.0011790485414163,-0.0011790383445887,0.0011790479089255,0.74447173974285,125301,3014,0.0041191915480117,0.0050858992627508,0.005085899262761,23.441309999716,0.00010273047999773,0.00010273047999773,0.00010273047999773,2972198.7710916,0.014394968662457
28919200,0.99993153540218,0.017086637449787,0.0051180721404959,0.0059842826546411,0.0059842826546499,-0.0009908278350405,0.00099083210163738,1.5248208814158e-09,1.5248321507774e-09,-2.3757872042729e-10,3.0863018020102e-09,-0.0012579638372737,0.0012579682888272,-0.00125796348924,0.0012579679408562,-0.0012579624286408,0.0012579690793871,-0.001257962077146,0.0012579687278986,-0.0010692764825434,0.0010692808364647,-0.0010692765171756,0.0010692808711458,3.1726809590459e-09,3.455499457801e-10,6.9428853344364e-09,-3.3097534817133e-09,-0.0012235067757651,0.0012235113362935,-0.0015169072852309,0.0015169169693318,-0.0015169102957067,0.0015169131721279,-0.0015169074287776,0.0015169152390249,-0.0015169104391817,0.001516911441803,-0.0012583731850582,0.0012583855887314,-0.0012583836731615,0.0012583759661305,-0.0011792074200532,0.0011792102278039,-0.0011792108332519,0.0011792080863181,3.0956698066477e-09,3.0956810072467e-09,-0.0012235056387671,0.0012235124732966,-2.1019432993692e-09,8.106925068004e-09,-0.0015169101866353,0.0015169142075597,-0.0015169063330484,0.0015169171502707,-0.0015169092832002,0.0015169133041153,-0.001516905494563,0.0015169163118243,-0.0011792046662703,0.0011792141992475,-0.0011792040349203,0.0011792135678107,0.71381038574611,125301,3014,0.004122109672423,0.0050851684675098,0.0050851684675205,23.983579625913,0.00010706863700731,0.00010706863700731,0.00010706863700731,2944379.1390421,0.014396469787452
29419200,0.99994137433712,0.017086783972126,0.0051181209676807,0.0059843315022181,0.0059843315022268,-0.00099164920255318,0.00099165284740783,1.2789788016344e-09,1.2789898092099e-09,-4.7118248290446e-10,2.8343860348934e-09,-0.0012577218556702,0.0012577257740006,-0.0012577215362946,0.0012577254546894,-0.0012577204791666,0.0012577265863186,-0.0012577201558668,0.0012577262630274,-0.0010704208753269,0.0010704247042683,-0.0010704209098398,0.0010704247388292,3.0147215796083e-09,2.0026859639141e-10,6.7732048166268e-09,-3.4529306691189e-09,-0.0012242125511286,0.0012242166997585,-0.0015166785132234,0.0015166878385222,-0.0015166815445839,0.0015166840833197,-0.0015166786947251,0.0015166861586157,-0.0015166817260157,0.0015166824033962,-0.0012593089415991,0.0012593209905263,-0.0012593194166236,0.0012593114052099,-0.0011800863664578,0.0011800888445525,-0.0011800897714996,0.0011800867212753,2.9504375723339e-09,2.950449005867e-09,-0.0012242114064738,0.0012242178444181,-2.2333252969158e-09,7.9458406407286e-09,-0.001516681391166,0.0015166850947358,-0.0015166775820961,0.0015166880610356,-0.0015166805353265,0.0015166842388855,-0.0015166767901037,0.0015166872690813,-0.0011800836163358,0.0011800928271068,-0.0011800829759196,0.0011800921866047,0.64935525022592,125301,3014,0.0041255080267921,0.0050880841003574,0.0050880841003673,24.778311997532,0.00011342649598026,0.00011342649598026,0.00011342649598026,2951554.8595502,0.014405802219834
29919200,0.99995010455696,0.017086921887626,0.0051181668911001,0.0059843774982586,0.0059843774982674,-0.00099237945952552,0.00099238330148473,1.3500175404497e-09,1.3500286060528e-09,-3.9852291439852e-10,2.8965686372282e-09,-0.001255607930465,0.0012556120336508,-0.0012556075956296,0.0012556116988781,-0.0012556065441729,0.0012556128284018,-0.0012556062056823,0.0012556124899177,-0.0010715871523878,0.0010715911326737,-0.0010715871850768,0.0010715911654113,3.0700314282394e-09,2.7673397896139e-10,6.8409523520615e-09,-3.3854210317425e-09,-0.0012256668310994,0.0012256711641223,-0.0015154254298106,0.0015154349236284,-0.0015154284473681,0.0015154311523718,-0.0015154255901028,0.0015154332337533,-0.0015154286075885,0.0015154294624788,-0.0012608510794656,0.0012608632775915,-0.0012608615591661,0.0012608536973379,-0.0011812853310896,0.0011812879301405,-0.0011812887233892,0.0011812858345087,3.0378706318434e-09,3.0378818768528e-09,-0.0012256656686076,0.0012256723266193,-2.1502653041357e-09,8.0312637676401e-09,-0.0015154282918547,0.0015154322006639,-0.0015154244646727,0.0015154351511853,-0.0015154274168496,0.00151543132565,-0.0015154236548533,0.0015154343414055,-0.0011812825543455,0.001181291949681,-0.0011812819098688,0.001181291305117,0.687044291216,125301,3014,0.0041285181222419,0.0050940904005873,0.0050940904005979,25.464964324472,0.00011891971459578,0.00011891971459578,0.00011891971459578,2989440.6032444,0.014420986731629
30419200,0.99995779258335,0.017087031371239,0.0051182033357498,0.0059844140177403,0.0059844140177491,-0.00099399690660971,0.0009940008459772,1.3929271456201e-09,1.3929383794534e-09,-3.5484184203118e-10,2.9409650374192e-09,-0.0012596656880753,0.0012596698709179,-0.0012596653531546,0.0012596695360613,-0.0012596643007966,0.0012596706651912,-0.0012596639622314,0.0012596703266321,-0.0010725781726037,0.0010725822401249,-0.0010725782076048,0.0010725822751744,3.0851242271896e-09,2.8606251681368e-10,6.8527138808642e-09,-3.3717570341432e-09,-0.0012264093687157,0.0012264137302681,-0.0015184069663396,0.0015184164737791,-0.0015184099814714,0.0015184127013752,-0.0015184071226493,0.001518414776169,-0.0015184101377088,0.0015184110037457,-0.0012613064971642,0.0012613187194173,-0.0012613169679548,0.0012613091340655,-0.001182124734409,0.0011821273651721,-0.0011821281261785,0.0011821252584479,3.030591508745e-09,3.0306026372285e-09,-0.0012264082236241,0.0012264148753649,-2.1540992424527e-09,8.0254205529404e-09,-0.0015184098445537,0.0015184137335324,-0.0015184060166617,0.0015184166819421,-0.0015184089647011,0.0015184128536686,-0.0015184052014449,0.0015184158667625,-0.0011821219749677,0.0011821313569527,-0.0011821213356306,0.0011821307175316,0.6219290658127,125301,3014,0.0041352405030006,0.0050971883699294,0.0050971883699403,26.130280980037,0.0001242422478403,0.0001242422478403,0.0001242422478403,2951707.4649642,0.014434143107952
30919200,0.99996462977386,0.017087138142518,0.005118238889,0.0059844496267544,0.0059844496267632,-0.00099541134151959,0.00099541444952543,1.0627986962588e-09,1.0628097240984e-09,-6.5141168417314e-10,2.5850167544538e-09,-0.001257996439181,0.0012579999156974,-0.0012579961416807,0.0012579996182597,-0.0012579951050338,0.0012580007268086,-0.0012579948033321,0.0012580004251133,-0.0010744743951555,0.0010744777475623,-0.0010744744291438,0.0010744777815991,2.864424518615e-09,1.1765857418853e-10,6.6057153372332e-09,-3.5282309225535e-09,-0.001228632501918,0.0012286363312751,-0.0015176901721914,0.0015176991862601,-0.0015176931971569,0.0015176954879919,-0.00151769036849,0.0015176975684966,-0.0015176933933837,0.0015176938702105,-0.001263644176782,0.0012636558973308,-0.0012636545782803,0.0012636464183917,-0.0011840964417664,0.0011840986317068,-0.0011840997892883,0.0011840965859949,2.8455119507396e-09,2.8455231989842e-09,-0.0012286313457426,0.0012286374874556,-2.2944396059744e-09,7.7907403614944e-09,-0.0015176929946813,0.0015176964949817,-0.0015176892440422,0.0015176994564738,-0.0015176921790049,0.0015176956792967,-0.001517688491631,0.0015176987041021,-0.0011840936884445,0.0011841026400567,-0.0011840930355804,0.0011841019871054,0.67884300028716,125301,3014,0.0041410851980034,0.005106378592391,0.0051063785924016,27.119347115551,0.00013215477692441,0.00013215477692441,0.00013215477692441,2991064.1824339,0.014458658521097
31419200,0.99997074662117,0.017087234590275,0.0051182709542202,0.0059844818180232,0.005984481818032,-0.00099860102827959,0.00099860340426787,7.8245199033468e-10,7.8246341766205e-10,-8.9063197839265e-10,2.2767345311464e-09,-0.0012644897307063,0.0012644925780573,-0.0012644894765212,0.0012644923239351,-0.0012644884570094,0.0012644934072758,-0.0012644881982249,0.0012644931484979,-0.0010768202319892,0.0010768229623822,-0.0010768202662844,0.0010768229967267,2.635847949724e-09,-6.1288990468559e-11,6.304877712175e-09,-3.6477002261649e-09,-0.0012306398911306,0.0012306431561083,-0.0015227355550772,0.0015227439890767,-0.0015227385634896,0.0015227403983654,-0.0015227357866728,0.0015227424451639,-0.0015227387950132,0.0015227388544346,-0.0012652715161574,0.0012652826303263,-0.0012652817409689,0.0012652733284579,-0.0011862478578157,0.0011862496192129,-0.0011862511442231,0.0011862476141957,2.5984775225307e-09,2.598488428374e-09,-0.0012306387712952,0.0012306442759488,-2.4467645958741e-09,7.4540158986956e-09,-0.0015227383357426,0.0015227413305585,-0.0015227346962333,0.0015227442791288,-0.0015227375814453,0.0015227405762519,-0.0015227340025154,0.00152274358545,-0.0011862451762891,0.0011862535437023,-0.0011862445270639,0.0011862528943905,0.68615600822764,125301,3014,0.0041543335660919,0.0051147256674863,0.0051147256674968,28.436465152607,0.00014269172122086,0.00014269172122086,0.00014269172122086,2938240.3335194,0.014489102903016
31919200,0.99997601521116,0.017087318896405,0.0051182990378652,0.0059845099292657,0.0059845099292744,-0.00099987108070865,0.00099987459266524,1.2252849089165e-09,1.2252964758573e-09,-4.6925024613885e-10,2.725181068589e-09,-0.0012661935296611,0.0012661973664574,-0.0012661932169432,0.0012661970538031,-0.0012661921945893,0.0012661981485659,-0.0012661918783069,0.001266197832292,-0.0010781344969977,0.0010781381757338,-0.0010781345329057,0.0010781382116886,2.9354127851797e-09,2.2953225448027e-10,6.6093360874081e-09,-3.343189896284e-09,-0.0012313736104148,0.0012313776832904,-0.0015239354524066,0.0015239445891153,-0.0015239384025024,0.001523940932281,-0.0015239356080945,0.0015239429547664,-0.001523938558118,0.0015239392979141,-0.0012661472564236,0.0012661590139772,-0.0012661574675715,0.0012661497019059,-0.0011872794858145,0.0011872818911601,-0.0011872827837452,0.0011872798767416,2.8985902635865e-09,2.8986011098434e-09,-0.0012313724909955,0.0012313788027142,-2.1517387718869e-09,7.7563374606265e-09,-0.0015239382473649,0.0015239419292119,-0.0015239345358107,0.0015239448132815,-0.0015239374016739,0.0015239410835117,-0.001523933753435,0.0015239440309437,-0.0011872767993339,0.0011872858116074,-0.0011872761580681,0.0011872851702516,0.69501901564757,125301,3014,0.0041596069169146,0.0051177726497795,0.0051177726497889,29.268891789217,0.00014935113431374,0.00014935113431374,0.00014935113431374,2922803.2909379,0.014500636464272
32419200,0.99998034125824,0.017087391604832,0.0051183232632614,0.0059845341707809,0.0059845341707897,-0.00099950533913636,0.00099951077608804,1.977265446192e-09,1.9772770210149e-09,2.1953110891649e-10,3.5147676058505e-09,-0.0012664174712038,0.0012664229663579,-0.001266417060259,0.001266422555476,-0.0012664160153788,0.0012664236874851,-0.0012664156023326,0.0012664232744455,-0.0010777840211759,0.0010777893278305,-0.0010777840590776,0.0010777893657818,3.463903005714e-09,6.8838304355805e-10,7.1938777830435e-09,-2.9080266148434e-09,-0.0012305354972418,0.0012305409238693,-0.0015237042954324,0.0015237146740686,-0.0015237071951191,0.0015237108561868,-0.0015237043409026,0.0015237128695244,-0.0015237072405173,0.0015237090516246,-0.0012654210883693,0.0012654340527131,-0.0012654314204934,0.0012654245738627,-0.0011866954962183,0.0011866989841968,-0.0011866988663645,0.0011866968980691,3.4122368020374e-09,3.4122476550588e-09,-0.0012305343671919,0.0012305420539243,-1.7190829486077e-09,8.3490953023107e-09,-0.0015237071605961,0.0015237119641145,-0.0015237032789429,0.0015237147885237,-0.0015237061613938,0.001523710964903,-0.0015237023476573,0.0015237138572772,-0.0011866927664873,0.0011867029305819,-0.0011866921395719,0.0011867023035799,0.72871756655357,125301,3014,0.0041580964289764,0.0051143060522719,0.0051143060522825,29.299099217455,0.00014959279373964,0.00014959279373964,0.00014959279373964,2909553.3394921,0.014492077014317
32919200,0.99998386573332,0.017087446580247,0.0051183416051922,0.0059845524875228,0.0059845524875316,-0.00099893033953694,0.00099893617965112,2.1378519254735e-09,2.137863619381e-09,3.4522232095977e-10,3.7083826226917e-09,-0.001267427781855,0.0012674336017019,-0.0012674273533101,0.0012674331732197,-0.0012674262879044,0.0012674343277538,-0.0012674258572848,0.0012674338971408,-0.0010770487651515,0.001077054433487,-0.0010770488057144,0.0010770544740991,3.5943548849974e-09,7.5308141241655e-10,7.3643926005036e-09,-2.8763250519503e-09,-0.0012291506817341,0.0012291563756111,-0.0015238914125904,0.001523902079232,-0.0015238943379482,0.001523898194193,-0.0015238914526652,0.0015239002243812,-0.001523894377951,0.0015238963393244,-0.0012640862335021,0.0012640995286839,-0.0012640966937086,0.0012640899063663,-0.0011856374540824,0.0011856411721012,-0.0011856408869922,0.0011856390176488,3.5143558129599e-09,3.5143666203945e-09,-0.001229149548184,0.0012291575091663,-1.6841134277555e-09,8.5228386701289e-09,-0.0015238943325667,0.0015238993156563,-0.0015238903834567,0.001523902165142,-0.0015238933045835,0.0015238982876636,-0.0015238894237622,0.0015239012054864,-0.0011856347033354,0.0011856451328718,-0.001185634080267,0.0011856445097175,0.6778640863904,125301,3014,0.00415572075354,0.005108579936351,0.0051085799363616,29.174655751266,0.00014859724601012,0.00014859724601012,0.00014859724601012,2882694.3438574,0.014478076590369
33419200,0.99998677821023,0.017087495068569,0.005118357788629,0.0059845686399656,0.0059845686399743,-0.0009984068242239,0.00099841201353079,1.8794073904531e-09,1.879419082743e-09,6.7042401459479e-11,3.4748420812832e-09,-0.0012649435033198,0.0012649487508595,-0.0012649431033516,0.0012649483509543,-0.0012649420219218,0.0012649495196352,-0.0012649416191632,0.0012649491168835,-0.0010770216525757,0.0010770267906998,-0.0010770216903099,0.0010770268284838,3.4552683797374e-09,5.6724117409062e-10,7.2830011178597e-09,-3.1277247054089e-09,-0.0012289662716275,0.0012289715313543,-0.0015218786876713,0.0015218890673651,-0.0015218816973187,0.0015218851588893,-0.0015218787863833,0.0015218872446109,-0.0015218817959587,0.0015218833361171,-0.0012641910251931,0.0012642041178469,-0.0012642016638986,0.0012641943382741,-0.0011855335035111,0.0011855368636397,-0.0011855369870769,0.0011855346680938,3.3807635294066e-09,3.3807742229623e-09,-0.0012289651096429,0.001228972693344,-1.9007771581802e-09,8.4712969928977e-09,-0.0015218816385952,0.0015218862670553,-0.0015218776690336,0.001521889204305,-0.001521880658857,0.0015218852873078,-0.0015218767569413,0.0015218882922517,-0.0011855306983614,0.0011855408928769,-0.0011855300665438,0.0011855402609731,0.72119042745067,125301,3014,0.0041535346492483,0.0051077971969462,0.0051077971969568,29.316053825184,0.00014972843060147,0.00014972843060147,0.00014972843060147,2906381.0073034,0.014474224185402
33919200,0.99998925294086,0.017087535815515,0.0051183713802496,0.0059845822176281,0.0059845822176369,-0.0010000837468506,0.0010000875025935,1.3239319590227e-09,1.3239441272981e-09,-4.4334216734817e-10,2.8974803074949e-09,-0.0012687806876837,0.0012687846911345,-0.001268780365356,0.0012687843688701,-0.0012687792967963,0.0012687855115355,-0.0012687789704355,0.0012687851851818,-0.0010782063729197,0.0010782103075287,-0.0010782064132258,0.0010782103478857,3.06055964539e-09,2.1030656759857e-10,6.8566537530774e-09,-3.4778246184853e-09,-0.0012297232341991,0.0012297274579782,-0.0015246889282659,0.0015246983637429,-0.0015246919894748,0.0015246945670831,-0.0015246891143337,0.001524696664886,-0.0015246921754706,0.0015246928682081,-0.0012647428508594,0.0012647550573448,-0.0012647534301617,0.0012647453637641,-0.0011864455691009,0.0011864481069495,-0.0011864490084914,0.0011864459474958,2.9738630025854e-09,2.9738733069177e-09,-0.0012297220939802,0.0012297285982023,-2.2615628668656e-09,8.0251837144698e-09,-0.0015246918516605,0.0015246955730435,-0.0015246880019116,0.0015246985699855,-0.0015246909895695,0.0015246947109428,-0.0015246872031358,0.0015246977712485,-0.0011864428050137,0.0011864521031245,-0.0011864421643381,0.0011864514623634,0.71426719132868,125301,3014,0.0041604999088164,0.0051109525216198,0.0051109525216304,30.069489644836,0.00015575591715869,0.00015575591715869,0.00015575591715869,2871382.4653422,0.014487738735899
34419200,0.99999140267228,0.017087570492716,0.0051183829656845,0.0059845937635113,0.0059845937635201,-0.00100248785672,0.0010024900082614,6.9618823433909e-10,6.9620038032098e-10,-1.0146686684216e-09,2.2338245287822e-09,-0.0012709870466443,0.0012709896743414,-0.0012709868050466,0.001270989432807,-0.0012709857581269,0.0012709905418037,-0.0012709855113511,0.0012709902950351,-0.0010807392216569,0.0010807417953977,-0.001080739261947,0.0010807418357388,2.6209777366979e-09,-1.6095731552626e-10,6.3588204223665e-09,-3.8175539405726e-09,-0.0012316858111429,0.0012316889229095,-0.0015265311096565,0.0015265395148188,-0.0015265342012138,0.0015265358625183,-0.0015265313837079,0.0015265379604943,-0.001526534475193,0.0015265343081757,-0.0012668709960967,0.0012668821797964,-0.0012668814445932,0.0012668726613261,-0.0011886606433302,0.0011886622925255,-0.0011886640154123,0.0011886602057526,2.5520209131011e-09,2.5520312017868e-09,-0.0012316846800517,0.0012316900540057,-2.6001688602144e-09,7.5202877711648e-09,-0.0015265339626067,0.0015265367782402,-0.0015265302644003,0.0015265398130185,-0.0015265332276718,0.0015265360432955,-0.0015265295889604,0.0015265391376171,-0.0011886579237725,0.0011886662639671,-0.0011886572685896,0.0011886656086992,0.69956539034255,125301,3014,0.0041704684383413,0.0051190848236168,0.0051190848236272,31.47884503773,0.00016703076030184,0.00016703076030184,0.00016703076030184,2863847.1396579,0.014514341147169
34919200,0.99999329485887,0.017087601801187,0.0051183934266742,0.0059846041872521,0.0059846041872609,-0.0010064741000718,0.0010064745467255,2.939362939774e-11,2.9405879317631e-11,-1.6036334037179e-09,1.5112705491045e-09,-0.0012744452082961,0.0012744463824864,-0.0012744450529247,0.0012744462271784,-0.0012744440400502,0.0012744472886422,-0.0012744438783939,0.0012744471269926,-0.0010847745937314,0.0010847757097941,-0.0010847746347408,0.0010847757508539,2.1403893149278e-09,-5.3485671182548e-10,5.7857106000425e-09,-4.1287268496426e-09,-0.0012353544740205,0.0012353564089647,-0.0015297217996721,0.0015297290702616,-0.0015297248937763,0.0015297256032931,-0.001529722156764,0.0015297276814718,-0.0015297252507956,0.0015297242144848,-0.0012705955418082,0.0012706055629303,-0.001270605760758,0.0012705963245825,-0.0011924394926464,0.0011924402012709,-0.0011924427604194,0.0011924382267095,2.09908467311e-09,2.0990948341525e-09,-0.0012353533602271,0.0012353575227628,-2.9186522343247e-09,6.9318888910526e-09,-0.0015297245486672,0.0015297264205662,-0.0015297210431929,0.0015297294654633,-0.0015297239497042,0.0015297258215938,-0.0015297204995266,0.0015297289218358,-0.0011924368437737,0.0011924441252392,-0.0011924361720802,0.0011924434534612,0.71680103820029,125301,3014,0.0041869979587647,0.0051342870932537,0.0051342870932635,33.571948715261,0.00018377558972209,0.00018377558972209,0.00018377558972209,2860719.5006055,0.014561944060615
35419200,0.99999493082013,0.01708762725071,0.0051184019382357,0.0059846126562328,0.0059846126562416,-0.0010113003690086,0.0010113001383052,-2.3511031224723e-10,-2.3509803953392e-10,-1.8060197562185e-09,1.1919929263167e-09,-0.0012801047417032,0.001280105359755,-0.0012801046211672,0.0012801052392824,-0.0012801036423549,0.0012801062609519,-0.001280103515485,0.0012801061340891,-0.0010893343058863,0.0010893348218489,-0.0010893343449059,0.0010893348609195,1.9161447490809e-09,-6.5329644440383e-10,5.4634820143922e-09,-4.1614395788994e-09,-0.0012394256105058,0.0012394270701107,-0.0015346125783852,0.001534619309592,-0.001534615614998,0.0015346159786395,-0.0015346129476624,0.0015346180065581,-0.0015346159842032,0.0015346146755876,-0.0012745667214957,0.0012745761159948,-0.0012745766647968,0.0012745671685853,-0.001196653756701,0.0011966540864334,-0.0011966569155332,0.0011966522147254,1.896535230327e-09,1.8965454026045e-09,-0.0012394245236388,0.0012394281569828,-2.9777295313186e-09,6.5829041513851e-09,-0.0015346152354832,0.0015346167471114,-0.0015346118675196,0.0015346197361394,-0.001534614689459,0.0015346162010774,-0.0015346113751054,0.0015346192437639,-0.0011966511810095,0.0011966579356974,-0.0011966505085361,0.0011966572631391,0.67521870689723,125301,3014,0.0042070219874521,0.0051511713150572,0.0051511713150678,35.927797672182,0.00020262238137745,0.00020262238137745,0.00020262238137745,2837646.5966488,0.014616538090194
35919200,0.99999625409558,0.01708764871132,0.005118409118366,0.0059846197964726,0.0059846197964814,-0.0010141365548384,0.0010141380608534,4.3845901520159e-10,4.384710153644e-10,-1.140073145048e-09,1.8471098973253e-09,-0.0012812574791536,0.0012812596187004,-0.0012812572669208,0.0012812594065307,-0.0012812563005485,0.0012812604287806,-0.0012812560837983,0.0012812602120373,-0.0010924230012126,0.0010924249464324,-0.0010924230403187,0.0010924249855891,2.3604509981733e-09,-1.6847454419994e-10,5.8605664085959e-09,-3.6030605070882e-09,-0.0012424555340008,0.0012424582630234,-0.0015360207643939,0.0015360285271187,-0.0015360236590371,0.0015360251476865,-0.0015360210016236,0.0015360271047248,-0.0015360238961947,0.0015360237252744,-0.001277707932288,0.0012777181958677,-0.0012777177010416,0.0012777093960217,-0.0011996695561567,0.0011996708990375,-0.001199672682607,0.001199669069288,2.3651466665693e-09,2.3651570400171e-09,-0.0012424544517302,0.001242459345299,-2.4400415940807e-09,6.9724301678974e-09,-0.0015360233865877,0.0015360260209883,-0.0015360199600947,0.001536028857496,-0.0015360227015157,0.0015360253359069,-0.0015360193330285,0.0015360282304687,-0.0011996670053075,0.0011996747144348,-0.0011996663430664,0.001199674052108,0.70236606708738,125301,3014,0.0042187798734121,0.0051637196719873,0.0051637196719979,37.535207237346,0.00021548165789877,0.00021548165789877,0.00021548165789877,2853775.2263618,0.014653895353591
36419200,0.99999723005261,0.017087664308536,0.0051184143353422,0.0059846249865923,0.005984624986601,-0.001014029708397,0.0010140352925734,2.0311604362959e-09,2.0311724354881e-09,3.4361306685667e-10,3.4934237497436e-09,-0.0012827067615393,0.0012827124287007,-0.001282706341773,0.0012827120089971,-0.0012827053442515,0.0012827130935022,-0.0012827049232994,0.001282712672557,-0.001091979045038,0.0010919844203412,-0.001091979085169,0.0010919844605237,3.4456550013552e-09,8.1800327283725e-10,7.0325020844305e-09,-2.6349154395717e-09,-0.0012417562367072,0.0012417618095511,-0.0015367967492961,0.0015368070642582,-0.0015367995014256,0.0015368033813754,-0.0015367967368786,0.0015368052962332,-0.0015367994889358,0.001536801613332,-0.0012768593091456,0.0012768720141569,-0.0012768692190672,0.0012768629670233,-0.0011990591558962,0.0011990627606001,-0.0011990623812916,0.0011990608220494,3.4300750375033e-09,3.4300854544203e-09,-0.0012417551442564,0.0012417629020065,-1.4912164480082e-09,8.1487437485308e-09,-0.0015367994881486,0.0015368044859857,-0.0015367957382807,0.0015368071591792,-0.0015367984763309,0.0015368034741587,-0.0015367947943715,0.0015368062153096,-0.0011990565334341,0.0011990665987929,-0.0011990559078529,0.0011990659731269,0.69281234129981,125301,3014,0.0042183521050993,0.005160840126358,0.0051608401263675,37.48841966028,0.00021510735728224,0.00021510735728224,0.00021510735728224,2830542.504177,0.014647650654591
36919200,0.99999793315067,0.017087675110337,0.0051184179530381,0.005984628578645,0.0059846285786537,-0.0010122585901405,0.0010122656277577,2.598658732436e-09,2.5986707168052e-09,8.1220670640735e-10,4.1406357938305e-09,-0.0012807839681105,0.0012807908611788,-0.001280783472979,0.0012807903661106,-0.0012807824261665,0.0012807915126337,-0.0012807819306174,0.0012807910170915,-0.0010903378214943,0.0010903444598268,-0.0010903378633199,0.0010903445017028,3.8880130506466e-09,1.107828839821e-09,7.5827124900333e-09,-2.4259137105379e-09,-0.0012399241183042,0.0012399307042268,-0.0015348281605914,0.0015348395188633,-0.0015348309467565,0.0015348356369167,-0.0015348280967,0.0015348375889005,-0.001534830882793,0.0015348337069357,-0.0012751450883168,0.0012751588853663,-0.0012751553135701,0.0012751494875792,-0.001197348322518,0.0011973527553278,-0.0011973517030606,0.0011973506649945,3.8355324269995e-09,3.8355428436813e-09,-0.0012399229953327,0.0012399318272034,-1.2588605485567e-09,8.7281466349057e-09,-0.0015348310216554,0.0015348368322986,-0.0015348270667817,0.0015348395336739,-0.0015348298932287,0.0015348357038624,-0.0015348260100292,0.0015348384769602,-0.0011973456191333,0.0011973566648866,-0.0011973450024919,0.0011973560481594,0.66632587328209,125301,3014,0.004211005274555,0.0051532453568148,0.0051532453568254,36.862072746807,0.00021009658197446,0.00021009658197446,0.00021009658197446,2831951.5324704,0.01462477728445
37419200,0.99999847577686,0.017087683539072,0.0051184207753012,0.0059846313818809,0.0059846313818896,-0.0010135898554738,0.0010135933978172,1.2361257665299e-09,1.2361377677515e-09,-4.9677667275483e-10,2.7738796692919e-09,-0.0012811174626077,0.0012811213094515,-0.0012811171466626,0.0012811209935697,-0.0012811161005796,0.001281122113419,-0.0012811157810005,0.0012811217938469,-0.0010918057851475,0.0010918095139694,-0.0010918058272015,0.001091809556074,2.9912875003574e-09,2.1394750192568e-10,6.6720074671093e-09,-3.3626922699779e-09,-0.0012413720040324,0.0012413761348792,-0.0015352956050521,0.0015353048542447,-0.0015352985781527,0.0015353011660968,-0.0015352957821776,0.0015353031946603,-0.0015352987552061,0.0015352995064942,-0.0012766486900401,0.0012766605502924,-0.0012766589895148,0.0012766511653943,-0.0011987851988058,0.0011987876920291,-0.0011987885745721,0.0011987856132069,2.9328063885427e-09,2.9328167430499e-09,-0.0012413708730315,0.0012413772658852,-2.1589884027392e-09,7.831034509977e-09,-0.0015352984280399,0.0015353021655146,-0.001535294685406,0.001535305072966,-0.0015352975810232,0.0015353013184885,-0.0015352939015401,0.0015353042891391,-0.0011987825139274,0.0011987916252283,-0.0011987818648687,0.001198790976084,0.67334138939945,125301,3014,0.0042165131934477,0.0051592337108043,0.0051592337108149,37.673433524116,0.00021658746819292,0.00021658746819292,0.00021658746819292,2841758.7237994,0.014642497061539
37919200,0.99999887599396,0.017087689548636,0.0051184227877443,0.0059846333804413,0.0059846333804501,-0.0010134765222175,0.0010134820170368,1.9965423897064e-09,1.996554393075e-09,2.136250353724e-10,3.5574116220463e-09,-0.0012816450394593,0.0012816505765246,-0.0012816446236473,0.0012816501607758,-0.0012816435641138,0.0012816513088924,-0.001281643146214,0.0012816508909996,-0.001091532272012,0.0010915376383668,-0.0010915323133235,0.0010915376797289,3.5084625860114e-09,6.8787643470739e-10,7.2525741054709e-09,-2.9195592914498e-09,-0.0012409748196473,0.0012409803140841,-0.0015354880703908,0.0015354985552849,-0.0015354909873598,0.0015354947078659,-0.0015354881256126,0.001535496730348,-0.0015354910425095,0.0015354928829108,-0.0012761762777985,0.0012761893471462,-0.0012761866824466,0.0012761798030479,-0.0011984281772489,0.0011984317361066,-0.0011984315955122,0.0011984296083038,3.4439379424716e-09,3.4439483068021e-09,-0.0012409736821462,0.0012409814515902,-1.7228346182615e-09,8.4152422958008e-09,-0.001535490960093,0.001535495821156,-0.0015354870489124,0.0015354986626044,-0.0015354899553187,0.0015354948163723,-0.0015354861120637,0.0015354977257946,-0.0011984254403764,0.0011984356960168,-0.0011984248099393,0.0011984350654938,0.65161956252865,125301,3014,0.0042160488134104,0.0051575952789309,0.0051575952789415,37.676464293914,0.00021661171435132,0.00021661171435132,0.00021661171435132,2831400.7414603,0.01463871463308
38419200,0.99999916533767,0.017087694177515,0.0051184243370428,0.0059846349202319,0.0059846349202407,-0.0010121254621328,0.0010121321466709,2.4591939023143e-09,2.4592060242087e-09,6.2133851818183e-10,4.0566284194628e-09,-0.0012795825405155,0.0012795891054966,-0.001279582061085,0.0012795886261278,-0.0012795809792895,0.0012795898074418,-0.0012795804986144,0.0012795893267731,-0.0010903230308036,0.0010903294087656,-0.0010903230729133,0.0010903294509282,3.8460211966687e-09,9.5871631348501e-10,7.6687672270608e-09,-2.7055795059869e-09,-0.0012398458878478,0.001239852222402,-0.0015336424014967,0.0015336537136365,-0.0015336453203134,0.0015336497271425,-0.0015336423946053,0.0015336517732503,-0.0015336453133493,0.0015336477867374,-0.0012751089224188,0.001275122836676,-0.0012751195114661,0.0012751130833109,-0.0011972804099833,0.0011972846231577,-0.0011972838998856,0.0011972824308051,3.7772569834508e-09,3.7772672220204e-09,-0.0012398447287797,0.001239853381475,-1.4950364742208e-09,8.8518775761574e-09,-0.0015336453615416,0.0015336509229183,-0.0015336413052178,0.0015336537604931,-0.0015336442583882,0.0015336498197568,-0.0015336402734675,0.0015336527287826,-0.0011972776077229,0.0011972886430641,-0.0011972769838227,0.0011972880190797,0.69258613402465,125301,3014,0.004210440438698,0.0051529104018173,0.0051529104018276,37.198313840926,0.00021278651072741,0.00021278651072741,0.00021278651072741,2842170.9150665,0.014623502443264
38880000,0.99999936739163,0.017087697455209,0.0051184254335682,0.0059846360108158,0.0059846360108245,-0.0010122313566272,0.0010122369325993,2.0329155437079e-09,2.0329278541848e-09,1.9361070720815e-10,3.654062852594e-09,-0.0012817544395744,0.0012817600094697,-0.0012817540232811,0.0012817595932398,-0.0012817529258313,0.0012817607790359,-0.0012817525067847,0.0012817603599964,-0.0010900026154197,0.0010900080940531,-0.0010900026618745,0.0010900081405591,3.5766845443029e-09,6.3780924787999e-10,7.4468325193484e-09,-3.0929619905167e-09,-0.0012392076912999,0.0012392132116306,-0.0015349779400336,0.0015349886007018,-0.0015349809722468,0.0015349846284377,-0.0015349780285089,0.0015349867326276,-0.00153498106065,0.0015349827603453,-0.0012742878537225,0.0012743012677109,-0.0012742986145661,0.0012742913578525,-0.0011967616985964,0.0011967652722675,-0.0011967652333901,0.0011967630271917,3.4719245479706e-09,3.4719346481915e-09,-0.0012392065347575,0.0012392143681781,-1.8716360654794e-09,8.629728791415e-09,-0.0015349809487089,0.0015349857431572,-0.001534976915318,0.0015349887027803,-0.0015349799408604,0.0015349847352991,-0.0015349759749797,0.0015349877624807,-0.0011967588813307,0.0011967693152191,-0.001196758248877,0.0011967686826802,0.70236789375185,125301,3014,0.0042108875594204,0.0051502810074115,0.0051502810074221,37.193685394912,0.0002127494831593,0.0002127494831593,0.0002127494831593,2810954.0233923,0.014618663669924
