time,ASR_ext,ASR_strain,ASR_strain_xx,ASR_strain_yy,ASR_strain_zz,disp_x_101,disp_x_102,disp_x_103,disp_x_104,disp_x_105,disp_x_106,disp_x_p1_neg,disp_x_p1_pos,disp_x_p2_neg,disp_x_p2_pos,disp_x_p3_neg,disp_x_p3_pos,disp_x_p4_neg,disp_x_p4_pos,disp_x_p5_neg,disp_x_p5_pos,disp_x_p6_neg,disp_x_p6_pos,disp_y_101,disp_y_102,disp_y_103,disp_y_104,disp_y_105,disp_y_106,disp_y_p1_neg,disp_y_p1_pos,disp_y_p2_neg,disp_y_p2_pos,disp_y_p3_neg,disp_y_p3_pos,disp_y_p4_neg,disp_y_p4_pos,disp_y_p5_neg,disp_y_p5_pos,disp_y_p6_neg,disp_y_p6_pos,disp_y_p7_neg,disp_y_p7_pos,disp_y_p8_neg,disp_y_p8_pos,disp_z_101,disp_z_102,disp_z_103,disp_z_104,disp_z_105,disp_z_106,disp_z_p1_neg,disp_z_p1_pos,disp_z_p2_neg,disp_z_p2_pos,disp_z_p3_neg,disp_z_p3_pos,disp_z_p4_neg,disp_z_p4_pos,disp_z_p5_neg,disp_z_p5_pos,disp_z_p6_neg,disp_z_p6_pos,humidity,ndof,nelem,strain_xx,strain_yy,strain_zz,temp,thermal_strain_xx,thermal_strain_yy,thermal_strain_zz,vonmises,vstrain
2419200,0,0,0,0,0,0,0,0,0,0,0,0,0,0,0,0,0,0,0,0,0,0,0,0,0,0,0,0,0,0,0,0,0,0,0,0,0,0,0,0,0,0,0,0,0,0,0,0,0,0,0,0,0,0,0,0,0,0,0,0,0,0,0,0,0,0,0,0,0,0,0,0,0,0,0
3419200,0.15948182802882,0.0026573617107664,0.00088578723692215,0.00088578723692215,0.00088578723692215,-0.00025934905094667,0.00025934905094743,3.1454921426683e-16,4.4672164707797e-16,-7.5582617473506e-16,1.551334960723e-15,-0.00026256131463115,0.0002625613146311,-0.00026256131687987,0.00026256131687992,-0.00026256131464194,0.0002625613146434,-0.0002625613168676,0.00026256131686916,-0.00025143514720693,0.00025143514720835,-0.00025143514815357,0.00025143514815522,7.5880770129853e-16,-1.5476021646011e-15,-1.5060970675344e-12,1.5053383980555e-12,-0.00025934905094743,0.00025934905094667,-0.00026256131521511,0.00026256131415117,-0.00026256131629594,0.00026256131735987,-0.00026256131521585,0.00026256131415041,-0.00026256131629668,0.0002625613173591,-0.00025143514874776,0.0002514351458199,-0.00025143514661579,0.0002514351495406,-0.00025928854108951,0.00025928854211568,-0.00025928854109176,0.00025928854211337,-6.7916867551321e-12,-6.7918190219439e-12,-0.00022711800547447,0.00022711798636472,-5.1383749379375e-12,-8.2616344252393e-12,-0.00023296724548774,0.00023296723133418,-0.00023296724654754,0.00023296723027437,-0.00023296724548779,0.00023296723133413,-0.00023296724654759,0.00023296723027433,-0.00023437163402311,0.00023437161814317,-0.00023437163402299,0.0002343716181433,0.75746877217741,120135,2834,0.001080033991021,0.001080033991021,0.00094588321426584,31.856358304445,0.00017005086643556,0.00017005086643556,0.00017005086643556,2096118.3746316,0.003110781700965
4419200,0.35091831100706,0.0057090477922628,0.0020007844724558,0.0020007844724558,0.0017074788473513,-0.00053703792843972,0.00053703792844174,9.5497082629678e-16,1.0626587129763e-15,-3.3482800652835e-16,2.3971179461628e-15,-0.00055163772217943,0.00055163772218051,-0.00055163772780371,0.00055163772780486,-0.00055163772221754,0.00055163772222041,-0.00055163772776384,0.00055163772776678,-0.00050161347831075,0.0005016134783136,-0.00050161348093854,0.00050161348094158,3.3851907023948e-16,-2.3925694006049e-15,-1.9659830262758e-12,1.9639737142673e-12,-0.00053703792844174,0.00053703792843973,-0.00055163772299611,0.00055163772158474,-0.00055163772698929,0.00055163772839845,-0.00055163772299698,0.00055163772158383,-0.00055163772699017,0.00055163772839755,-0.00050161348032938,0.00050161347651965,-0.00050161347892577,0.00050161348272965,-0.0005400782695129,0.00054007827089019,-0.00054007826951552,0.00054007827088748,-1.0911657635669e-11,-1.0911767491229e-11,-0.00039912417272293,0.00039912414427064,-8.620228209416e-12,-1.2824821651678e-11,-0.00041323404438963,0.0004132340206339,-0.00041323404582314,0.00041323401920039,-0.00041323404438967,0.00041323402063384,-0.00041323404582318,0.00041323401920035,-0.0004318623178551,0.00043186229323709,-0.00043186231785502,0.00043186229323721,0.73992840791513,120135,2834,0.0022351306194027,0.0022351306194027,0.001661736821724,33.605180701731,0.00018404144561385,0.00018404144561385,0.00018404144561385,3590153.7558199,0.0061508510146537
5419200,0.55121546855076,0.0087996429982621,0.0031962217293904,0.0031962217293904,0.0024071995394814,-0.00083706194587759,0.0008370619458792,7.2494844155803e-16,8.8556118200788e-16,-5.9493770741436e-16,2.2393727651698e-15,-0.00086778410137356,0.00086778410137417,-0.00086778410425689,0.0008677841042576,-0.00086778410139986,0.00086778410140233,-0.00086778410422873,0.00086778410423133,-0.00076108943467262,0.00076108943467505,-0.00076108943465334,0.00076108943465605,5.9674647568714e-16,-2.2463228630513e-15,1.5553891785514e-13,-1.5715337186648e-13,-0.0008370619458792,0.00083706194587759,-0.00086778410130742,0.00086778410143471,-0.0008677841043244,0.00086778410419578,-0.00086778410130833,0.00086778410143376,-0.00086778410432533,0.00086778410419483,-0.00076108943443488,0.00076108943476857,-0.00076108943489626,0.00076108943455746,-0.00084728473180552,0.00084728473177024,-0.00084728473180826,0.00084728473176743,-2.7309376767378e-12,-2.7311051254367e-12,-0.00053989271863859,0.00053989270884962,-2.8004851529833e-12,-2.6103662256919e-12,-0.00056401846123942,0.00056401845246527,-0.00056401846116692,0.00056401845253778,-0.00056401846123947,0.0005640184524652,-0.00056401846116697,0.00056401845253771,-0.00060790445510683,0.00060790444901637,-0.00060790445510669,0.00060790444901652,0.72499638738019,120135,2834,0.003481591950085,0.003481591950085,0.0022474444585465,36.275695593571,0.00020540556474857,0.00020540556474857,0.00020540556474857,4117438.5545764,0.0092532161250025
6419200,0.70752677473879,0.010776394871933,0.003984214435007,0.003984214435007,0.0028079660019187,-0.0010348524280237,0.0010348524280259,1.0761730060063e-15,1.1621997897118e-15,-4.3694253405846e-16,2.7256814381854e-15,-0.0010853435507358,0.0010853435507369,-0.0010853435527405,0.0010853435527417,-0.0010853435507526,0.0010853435507559,-0.0010853435527216,0.0010853435527249,-0.00091841859316579,0.00091841859316902,-0.00091841859336164,0.00091841859336502,4.4033948910734e-16,-2.7298345741776e-15,6.7511640472435e-13,-6.7735995785354e-13,-0.0010348524280259,0.0010348524280237,-0.0010853435505021,0.0010853435509682,-0.0010853435529766,0.0010853435525081,-0.0010853435505031,0.0010853435509672,-0.0010853435529776,0.001085343552507,-0.00091841859244002,0.00091841859379082,-0.00091841859409403,0.00091841859273663,-0.0010473907473949,0.0010473907469997,-0.001047390747398,0.0010473907469965,-2.6133100106177e-12,-2.6134013388536e-12,-0.00060468882929539,0.0006046888214754,-3.2212643572909e-12,-1.9540775983884e-12,-0.00063911474123768,0.00063911473351658,-0.00063911474080935,0.00063911473394491,-0.0006391147412377,0.00063911473351653,-0.00063911474080938,0.00063911473394487,-0.00069862252917959,0.00069862252421138,-0.00069862252917951,0.00069862252421146,0.59839168540088,120135,2834,0.0043024359171971,0.0043024359171971,0.0025172070978838,36.740035361659,0.00020912028289327,0.00020912028289327,0.00020912028289327,4145083.4119581,0.011184246884634
7419200,0.83271490778568,0.012165279501395,0.0045346996735804,0.0045346996735804,0.0030958801542342,-0.0011815452341605,0.0011815452341625,9.4147123869991e-16,1.0518208087728e-15,-3.4198955245392e-16,2.3823683967514e-15,-0.0012497705601471,0.0012497705601482,-0.0012497705623669,0.001249770562368,-0.0012497705601649,0.0012497705601678,-0.0012497705623473,0.0012497705623502,-0.0010312497712416,0.0010312497712445,-0.0010312497716597,0.0010312497716627,3.4745997357161e-16,-2.3841587832328e-15,5.9700369691929e-13,-5.9900739007364e-13,-0.0011815452341625,0.0011815452341605,-0.0012497705599607,0.0012497705603586,-0.0012497705625556,0.0012497705621554,-0.0012497705599616,0.0012497705603577,-0.0012497705625565,0.0012497705621545,-0.0010312497706211,0.0010312497718201,-0.0010312497722861,0.0010312497710813,-0.0011955107743196,0.0011955107739766,-0.0011955107743222,0.0011955107739739,-3.9451123916339e-12,-3.9452300347541e-12,-0.00064852760748258,0.0006485275960696,-4.4393615276115e-12,-3.3485909675504e-12,-0.00068842365003899,0.00068842363970158,-0.00068842364967606,0.0006884236400645,-0.00068842365003903,0.00068842363970152,-0.0006884236496761,0.00068842364006446,-0.00076432533643176,0.00076432532851173,-0.00076432533643165,0.00076432532851184,0.52694121020036,120135,2834,0.0049107746688825,0.0049107746688825,0.0026998173961808,40.774611656847,0.00024139689325478,0.00024139689325478,0.00024139689325478,3917154.357229,0.012600230018332
8419200,0.90816681236153,0.012916194759433,0.0048286084685996,0.0048286084685996,0.0032589778222335,-0.0012597824687006,0.0012597824687026,8.8750229917867e-16,1.0293803178438e-15,-3.0878468448691e-16,2.2692542052535e-15,-0.0013379259697312,0.0013379259697322,-0.0013379259712571,0.0013379259712582,-0.0013379259697458,0.0013379259697485,-0.0013379259712408,0.0013379259712436,-0.0010894071050107,0.0010894071050134,-0.0010894071053376,0.0010894071053405,3.1163753851064e-16,-2.2732869405121e-15,9.1233287339971e-13,-9.1425857921915e-13,-0.0012597824687026,0.0012597824687006,-0.0013379259694176,0.0013379259700423,-0.0013379259715728,0.0013379259709461,-0.0013379259694185,0.0013379259700414,-0.0013379259715737,0.0013379259709452,-0.0010894071040663,0.0010894071058758,-0.0010894071062875,0.0010894071044725,-0.0012752755016231,0.0012752755010633,-0.0012752755016256,0.0012752755010608,-2.1705998529227e-12,-2.1707464498919e-12,-0.00065989831771738,0.00065989831151592,-3.0224550925422e-12,-1.2664401346526e-12,-0.00070504913867405,0.0007050491323178,-0.00070504913808419,0.00070504913290765,-0.0007050491386741,0.00070504913231773,-0.00070504913808424,0.00070504913290759,-0.00078907098914569,0.00078907098541046,-0.00078907098914556,0.00078907098541059,0.47156008474719,120135,2834,0.0052350492072573,0.0052350492072573,0.0027473966196695,41.435491960978,0.00024668393568782,0.00024668393568782,0.00024668393568782,3520708.4887346,0.013305416454925
9419200,0.94990346835115,0.013275563744414,0.0049673930406675,0.0049673930406675,0.0033407776630791,-0.0012971030110163,0.0012971030110182,9.0167833669869e-16,1.0583794319407e-15,-3.5760672241893e-16,2.3575750365245e-15,-0.0013805226900501,0.0013805226900511,-0.0013805226912671,0.0013805226912682,-0.0013805226900637,0.0013805226900665,-0.0013805226912517,0.0013805226912546,-0.0011156082256218,0.0011156082256246,-0.0011156082259114,0.0011156082259144,3.6187129802142e-16,-2.358742452607e-15,1.2948552258052e-12,-1.2968143501235e-12,-0.0012971030110182,0.0012971030110163,-0.0013805226896044,0.0013805226904872,-0.001380522691715,0.00138052269083,-0.0013805226896052,0.0013805226904863,-0.0013805226917159,0.0013805226908291,-0.0011156082243002,0.0011156082268575,-0.0011156082272388,0.0011156082246758,-0.0013136225965046,0.0013136225956883,-0.0013136225965072,0.0013136225956856,-1.4361316542777e-12,-1.4362947104178e-12,-0.00065827799234514,0.00065827798825479,-2.6807814127915e-12,-1.4956337211812e-13,-0.00070731642700002,0.00070731642212857,-0.00070731642615069,0.0007073164229779,-0.00070731642700008,0.00070731642212849,-0.00070731642615075,0.00070731642297783,-0.00079474955407003,0.00079474955221943,-0.00079474955406989,0.00079474955221958,0.40621133923259,120135,2834,0.0053896814241236,0.0053896814241236,0.0027408775863998,41.144506075054,0.00024435604860043,0.00024435604860043,0.00024435604860043,3188462.3021957,0.013612262781504
10419200,0.97076847852327,0.013469794915272,0.0050410391407143,0.0050410391407144,0.0033877166338433,-0.001311443463205,0.0013114434632069,9.1667787847299e-16,1.077967068846e-15,-3.5093045578605e-16,2.3883682134611e-15,-0.0013970578101514,0.0013970578101524,-0.0013970578106664,0.0013970578106676,-0.0013970578101624,0.0013970578101652,-0.0013970578106537,0.0013970578106566,-0.0011243761739261,0.0011243761739288,-0.0011243761740849,0.0011243761740879,3.740473966382e-16,-2.3711604441099e-15,1.950959817026e-12,-1.9529152607352e-12,-0.0013114434632069,0.001311443463205,-0.0013970578094683,0.001397057810802,-0.0013970578113516,0.0013970578100159,-0.0013970578094692,0.0013970578108011,-0.0013970578113526,0.001397057810015,-0.0011243761719475,0.0011243761757853,-0.0011243761760693,0.0011243761722257,-0.0013290286630864,0.001329028661828,-0.001329028663089,0.0013290286618252,3.9948360372476e-13,3.993163011611e-13,-0.0006513400053672,0.00065134000646631,-1.5373043158202e-12,2.3366657782291e-12,-0.00070185821662737,0.00070185821557569,-0.00070185821532592,0.00070185821687712,-0.0007018582166274,0.0007018582155756,-0.00070185821532598,0.00070185821687705,-0.00079235554137001,0.00079235554401286,-0.00079235554136984,0.00079235554401299,0.43665130715676,120135,2834,0.0054490857839748,0.0054490857839749,0.0027121688811304,38.090197726092,0.00021992158180874,0.00021992158180874,0.00021992158180874,3023300.1016728,0.013703601056408
11419200,0.98282038749173,0.013573885106899,0.0050803367751194,0.0050803367751194,0.0034132115566606,-0.0013231221969264,0.0013231221969283,8.9479619400225e-16,1.0646145355802e-15,-3.65753532363e-16,2.3672512115122e-15,-0.0014091725168862,0.0014091725168872,-0.0014091725179722,0.0014091725179733,-0.0014091725169013,0.0014091725169041,-0.0014091725179553,0.0014091725179582,-0.0011339055300609,0.0011339055300636,-0.0011339055303172,0.0011339055303202,3.7228274466475e-16,-2.3675858175586e-15,2.1316981360126e-12,-2.1336594523595e-12,-0.0013231221969283,0.0013231221969264,-0.0014091725161736,0.0014091725176053,-0.0014091725186869,0.0014091725172532,-0.0014091725161745,0.0014091725176044,-0.0014091725186878,0.0014091725172523,-0.0011339055279293,0.0011339055321294,-0.0011339055324546,0.0011339055282487,-0.0013414270277509,0.0013414270263791,-0.0013414270277535,0.0013414270263764,-1.0842539119435e-12,-1.0844290184967e-12,-0.00064683299095562,0.00064683298782672,-3.1474910080749e-12,1.0477238309914e-12,-0.00070185198388225,0.00070185197921587,-0.00070185198248133,0.00070185198061678,-0.0007018519838823,0.00070185197921579,-0.00070185198248139,0.00070185198061671,-0.00078942927703045,0.00078942927650514,-0.00078942927703029,0.00078942927650531,0.40445605707229,120135,2834,0.0054974412884755,0.0054974412884755,0.0026935515687654,37.626520096003,0.00021621216076802,0.00021621216076802,0.00021621216076802,2796479.9378864,0.013782780518227
12419200,0.98973177340705,0.013641015077239,0.0051053901553063,0.0051053901553063,0.0034302347666263,-0.0013285341164304,0.0013285341164324,8.9173746391494e-16,1.0644380703829e-15,-3.6043016557644e-16,2.3621631316554e-15,-0.001415322844452,0.001415322844453,-0.0014153228454319,0.001415322845433,-0.001415322844467,0.0014153228444698,-0.0014153228454152,0.0014153228454181,-0.0011371850819927,0.0011371850819954,-0.0011371850822308,0.0011371850822339,3.6710643220931e-16,-2.3606036089853e-15,2.2881069175169e-12,-2.2900635088818e-12,-0.0013285341164324,0.0013285341164304,-0.0014153228436862,0.001415322845223,-0.0014153228461999,0.001415322844661,-0.0014153228436871,0.0014153228452221,-0.0014153228462008,0.0014153228446601,-0.0011371850797072,0.0011371850842135,-0.0011371850845221,0.0011371850800101,-0.0013472920664977,0.0013472920650213,-0.0013472920665003,0.0013472920650186,-8.2798370296632e-13,-8.2816252373279e-13,-0.00064390719902353,0.0006439071966392,-3.0502160826983e-12,1.4605496753276e-12,-0.00069946333093684,0.00069946332677434,-0.00069946332943053,0.00069946332828065,-0.0006994633309369,0.00069946332677425,-0.00069946332943059,0.00069946332828058,-0.00078842865247968,0.00078842865263374,-0.00078842865247951,0.0007884286526339,0.45322610794666,120135,2834,0.0055198564899087,0.0055198564899088,0.0026814454825813,36.801457722299,0.00020961166177839,0.00020961166177839,0.00020961166177839,2716741.4026571,0.013815957567129
13419200,0.99359121537233,0.013675355114097,0.0051182014612211,0.0051182014612211,0.0034389521916546,-0.0013297772405078,0.0013297772405098,9.1426618744261e-16,1.068908522049e-15,-3.7592969207654e-16,2.3976914580542e-15,-0.0014163571445653,0.0014163571445663,-0.0014163571452601,0.0014163571452612,-0.0014163571445793,0.0014163571445821,-0.0014163571452442,0.0014163571452472,-0.0011379721521287,0.0011379721521314,-0.0011379721522789,0.0011379721522819,3.8204715225116e-16,-2.3943342536292e-15,2.5690036536398e-12,-2.5709762507197e-12,-0.0013297772405098,0.0013297772405078,-0.0014163571436989,0.001416357145428,-0.0014163571461286,0.0014163571443974,-0.0014163571436998,0.0014163571454271,-0.0014163571461295,0.0014163571443965,-0.0011379721495623,0.0011379721546171,-0.0011379721548511,0.0011379721497905,-0.0013489181735739,0.0013489181719085,-0.0013489181735766,0.0013489181719058,-4.1081941981995e-14,-4.1242151845277e-14,-0.00063631473563909,0.00063631473547615,-2.5572640538091e-12,2.5259620982977e-12,-0.00069530091098594,0.00069530090835147,-0.00069530090928711,0.00069530091005028,-0.00069530091098599,0.00069530090835139,-0.00069530090928717,0.00069530091005022,-0.00078121547249072,0.00078121547457808,-0.00078121547249059,0.00078121547457824,0.4150894025916,120135,2834,0.005524978319511,0.0055249783195111,0.0026499634312606,34.787794539497,0.00019350235631597,0.00019350235631597,0.00019350235631597,2578436.8361629,0.013794434209682
14419200,0.99581985352207,0.013693679590288,0.0051250110201736,0.0051250110201736,0.0034436575499405,-0.0013273441709302,0.0013273441709322,9.0597232316741e-16,1.0707908174873e-15,-3.7945899602344e-16,2.3967208994688e-15,-0.0014146612468704,0.0014146612468714,-0.001414661247515,0.0014146612475161,-0.0014146612468848,0.0014146612468876,-0.0014146612474988,0.0014146612475018,-0.0011339362803974,0.0011339362804001,-0.0011339362805541,0.0011339362805572,3.8051778720751e-16,-2.4025846909222e-15,2.785841756062e-12,-2.7878103912915e-12,-0.0013273441709322,0.0013273441709302,-0.001414661245934,0.001414661247806,-0.0014146612484535,0.0014146612465794,-0.0014146612459349,0.0014146612478051,-0.0014146612484544,0.0014146612465785,-0.0011339362776205,0.0011339362831009,-0.0011339362833368,0.0011339362778506,-0.0013466394634854,0.001346639461676,-0.0013466394634881,0.0013466394616732,6.8563744808851e-14,6.8392910643527e-14,-0.00063068033362933,0.00063068033378713,-2.6615348389964e-12,2.8545642067876e-12,-0.00068883495147685,0.00068883494900202,-0.00068883494963438,0.00068883495084449,-0.0006888349514769,0.00068883494900194,-0.00068883494963443,0.00068883495084442,-0.00077694557289413,0.00077694557537077,-0.00077694557289396,0.00077694557537093,0.38312450045663,120135,2834,0.0055148989786659,0.005514898978666,0.0026265648445848,32.636647001824,0.00017629317601459,0.00017629317601459,0.00017629317601459,2569229.4048717,0.013750275477396
15419200,0.99697992212412,0.013706425034612,0.0051297149170708,0.0051297149170708,0.0034469952004708,-0.0013180632271387,0.0013180632271407,9.1156038774999e-16,1.0629675270717e-15,-3.7898842216385e-16,2.3907504936253e-15,-0.0014057414325204,0.0014057414325214,-0.0014057414323634,0.0014057414323645,-0.0014057414325316,0.0014057414325345,-0.0014057414323504,0.0014057414323533,-0.0011236359838725,0.0011236359838753,-0.001123635983861,0.0011236359838641,3.824589043783e-16,-2.3964162787196e-15,3.4402651269861e-12,-3.442236058963e-12,-0.0013180632271407,0.0013180632271387,-0.0014057414313428,0.001405741433668,-0.0014057414335431,0.0014057414312159,-0.0014057414313437,0.0014057414336671,-0.001405741433544,0.0014057414312149,-0.0011236359804364,0.0011236359871928,-0.001123635987303,0.0011236359805408,-0.0013375971401765,0.0013375971379251,-0.0013375971401792,0.0013375971379224,2.2035753880232e-12,2.2034182164977e-12,-0.00061825720355921,0.00061825720975875,-1.2244251093593e-12,5.636075262946e-12,-0.00067614059574036,0.00067614059771865,-0.00067614059344429,0.00067614060001472,-0.00067614059574041,0.00067614059771857,-0.00067614059344434,0.00067614060001466,-0.00076551711347726,0.00076551712111709,-0.00076551711347713,0.00076551712111723,0.51103778709309,120135,2834,0.0054764394611157,0.0054764394611157,0.0025749530732957,27.051280546121,0.00013161024436897,0.00013161024436897,0.00013161024436897,2583972.1492156,0.01361998551545
16419200,0.99772515740775,0.01371387356893,0.0051324769133096,0.0051324769133096,0.0034489197423104,-0.0013162965006253,0.0013162965006273,9.1479558303464e-16,1.0560265626428e-15,-3.8295888910411e-16,2.4016619249944e-15,-0.0014028859228201,0.0014028859228211,-0.0014028859233646,0.0014028859233657,-0.0014028859228357,0.0014028859228385,-0.0014028859233472,0.0014028859233501,-0.001122995342957,0.0011229953429598,-0.0011229953430476,0.0011229953430506,3.8557645619805e-16,-2.4030465334309e-15,3.5122070079679e-12,-3.5141891365812e-12,-0.0013162965006273,0.0013162965006253,-0.0014028859216511,0.0014028859240001,-0.0014028859245358,0.0014028859221846,-0.001402885921652,0.0014028859239992,-0.0014028859245367,0.0014028859221837,-0.0011229953394754,0.0011229953463819,-0.0011229953465351,0.0011229953396227,-0.0013361232655144,0.0013361232632232,-0.0013361232655171,0.0013361232632204,4.4455467326719e-13,4.4441039415575e-13,-0.00060790650945856,0.00060790651062791,-2.998005427698e-12,3.9639086994278e-12,-0.00067134432392906,0.00067134432166985,-0.00067134432160691,0.00067134432399198,-0.0006713443239291,0.00067134432166978,-0.00067134432160696,0.00067134432399193,-0.00075430809312126,0.00075430809690654,-0.00075430809312113,0.00075430809690665,0.46538451425637,120135,2834,0.0054690741284292,0.0054690741284292,0.0025320160716044,24.409540495933,0.00011047632396746,0.00011047632396746,0.00011047632396746,2408229.927424,0.013561546670536
17419200,0.99822569892808,0.013719532657237,0.0051345577651188,0.0051345577651188,0.0034504171269992,-0.0013116430621298,0.0013116430621317,9.145014743724e-16,1.0719084304038e-15,-3.8260595870942e-16,2.3810743186375e-15,-0.0013992090581532,0.0013992090581542,-0.0013992090587211,0.0013992090587222,-0.0013992090581691,0.001399209058172,-0.0013992090587034,0.0013992090587064,-0.0011164031795493,0.0011164031795521,-0.0011164031796767,0.0011164031796798,3.6781229299869e-16,-2.4058110399697e-15,3.5264783324437e-12,-3.5284518093222e-12,-0.0013116430621318,0.0013116430621298,-0.0013992090569816,0.0013992090593387,-0.0013992090598949,0.0013992090575357,-0.0013992090569825,0.0013992090593378,-0.0013992090598958,0.0013992090575348,-0.0011164031760559,0.0011164031829909,-0.001116403183176,0.0011164031762352,-0.0013315825102078,0.0013315825079074,-0.0013315825102105,0.0013315825079046,3.1588362567864e-13,3.1572064906854e-13,-0.00060172601572443,0.00060172601656288,-3.1369001698531e-12,3.8504395923017e-12,-0.00066309896941541,0.00066309896696053,-0.00066309896708543,0.00066309896929048,-0.00066309896941546,0.00066309896696045,-0.00066309896708549,0.00066309896929042,-0.00074983712367703,0.00074983712719356,-0.00074983712367693,0.00074983712719376,0.52521873377382,120135,2834,0.0054498024191585,0.0054498024191585,0.0025063304011586,21.972225373823,9.097780299058e-05,9.097780299058e-05,9.097780299058e-05,2428913.1259693,0.013496443509633
18419200,0.99853670327786,0.013722912421123,0.0051358035356534,0.0051358035356534,0.0034513053498162,-0.0013047277945619,0.0013047277945639,9.0003132819014e-16,1.057497105954e-15,-3.9251742062694e-16,2.3741627650749e-15,-0.0013920173244072,0.0013920173244081,-0.0013920173245077,0.0013920173245088,-0.0013920173244211,0.0013920173244239,-0.001392017324492,0.0013920173244949,-0.0011094058182859,0.0011094058182887,-0.0011094058182812,0.0011094058182843,3.8939986880719e-16,-2.3829807401771e-15,3.8044161665418e-12,-3.8063871457943e-12,-0.0013047277945639,0.0013047277945619,-0.0013920173231281,0.0013920173256813,-0.0013920173257889,0.0013920173232335,-0.001392017323129,0.0013920173256804,-0.0013920173257898,0.0013920173232326,-0.0011094058145083,0.0011094058219838,-0.0011094058220648,0.0011094058145834,-0.0013249537143909,0.0013249537119017,-0.0013249537143936,0.0013249537118989,1.5802009683624e-12,1.5800389661883e-12,-0.00058903765953746,0.00058903766396706,-2.1779686998454e-12,5.3870860899825e-12,-0.00065281280848147,0.00065281280863011,-0.00065281280595538,0.00065281281115619,-0.00065281280848152,0.00065281280863003,-0.00065281280595543,0.00065281281115613,-0.00073727749082417,0.00073727749733907,-0.00073727749082405,0.00073727749733926,0.50516361584657,120135,2834,0.0054211241129381,0.0054211241129382,0.0024536398907741,17.471447636876,5.4971581095008e-05,5.4971581095008e-05,5.4971581095008e-05,2349544.5383511,0.013384923279353
19419200,0.99879432878015,0.013726539341564,0.0051371314785377,0.0051371314785377,0.0034522763844883,-0.0013050492392239,0.0013050492392259,9.063252535621e-16,1.0634969226637e-15,-3.8066484153863e-16,2.3917504630769e-15,-0.0013928440301197,0.0013928440301207,-0.0013928440312523,0.0013928440312534,-0.0013928440301387,0.0013928440301415,-0.0013928440312315,0.0013928440312344,-0.0011086665926285,0.0011086665926313,-0.0011086665928913,0.0011086665928944,3.8145893492668e-16,-2.3969846781752e-15,3.4374888552391e-12,-3.4394662115947e-12,-0.0013050492392259,0.0013050492392239,-0.001392844029001,0.0013928440312815,-0.0013928440323732,0.0013928440300905,-0.0013928440290019,0.0013928440312806,-0.0013928440323741,0.0013928440300896,-0.0011086665892406,0.0011086665960078,-0.0011086665962851,0.0011086665895121,-0.0013253886180276,0.0013253886157924,-0.0013253886180303,0.0013253886157896,-1.1743288677062e-12,-1.1744915906763e-12,-0.00058820649283585,0.00058820648943225,-4.4985106912333e-12,2.2835430922672e-12,-0.0006509159814499,0.00065091597566616,-0.0006509159791939,0.00065091597792215,-0.00065091598144995,0.00065091597566608,-0.00065091597919395,0.00065091597792208,-0.00073736212180736,0.00073736212195453,-0.00073736212180723,0.00073736212195469,0.65325215552177,120135,2834,0.0054224622273073,0.0054224622273073,0.0024501868202698,17.551642354223,5.5613138833785e-05,5.5613138833785e-05,5.5613138833785e-05,2338980.2821768,0.013384133263296
20419200,0.99901854958252,0.013729921905373,0.0051383709680168,0.0051383709680168,0.0034531799693392,-0.0013094787585231,0.0013094787585251,8.9750199369487e-16,1.062085201085e-15,-3.544009380005e-16,2.3406637884456e-15,-0.0013963177792276,0.0013963177792286,-0.0013963177805782,0.0013963177805793,-0.0013963177792467,0.0013963177792494,-0.0013963177805574,0.0013963177805603,-0.0011142009640748,0.0011142009640776,-0.00111420096437,0.001114200964373,3.5710673769312e-16,-2.3459036329675e-15,3.0414775988488e-12,-3.0434362126128e-12,-0.0013094787585251,0.0013094787585231,-0.0013963177782415,0.0013963177802573,-0.0013963177815665,0.0013963177795486,-0.0013963177782424,0.0013963177802564,-0.0013963177815674,0.0013963177795477,-0.0011142009610749,0.0011142009670668,-0.0011142009673758,0.0011142009613781,-0.0013300379104192,0.0013300379084486,-0.0013300379104218,0.001330037908446,-1.7856618265547e-12,-1.78583567924e-12,-0.00058589483673132,0.00058589483160868,-4.7092526649754e-12,1.2730531385122e-12,-0.00065321080917808,0.00065321080223144,-0.00065321080718848,0.00065321080422102,-0.00065321080917813,0.00065321080223136,-0.00065321080718854,0.00065321080422095,-0.00073414113936315,0.00073414113789304,-0.00073414113936302,0.00073414113789323,0.70012779305903,120135,2834,0.0054407813788349,0.0054407813788349,0.0024406439605622,18.598825235383,6.3990601883065e-05,6.3990601883065e-05,6.3990601883065e-05,2166116.3282528,0.013411602045132
21419200,0.99917103465052,0.013732059327128,0.0051391512932858,0.0051391512932859,0.0034537567405567,-0.0013038688916124,0.0013038688916144,8.9073749446332e-16,1.0512031805821e-15,-3.4916580381261e-16,2.3290464962871e-15,-0.0013911704483534,0.0013911704483544,-0.0013911704486775,0.0013911704486786,-0.0013911704483675,0.0013911704483702,-0.0013911704486617,0.0013911704486646,-0.0011072501975954,0.0011072501975981,-0.0011072501976263,0.0011072501976293,3.4793054743119e-16,-2.3365304703223e-15,3.2794031791908e-12,-3.2813581685251e-12,-0.0013038688916144,0.0013038688916125,-0.0013911704472502,0.0013911704494528,-0.0013911704497828,0.0013911704475781,-0.0013911704472511,0.0013911704494519,-0.0013911704497837,0.0013911704475772,-0.0011072501943328,0.0011072502007798,-0.0011072502008947,0.001107250194442,-0.0013246626882498,0.0013246626861108,-0.0013246626882524,0.0013246626861081,9.0364910338306e-13,9.0348057575917e-13,-0.00057525480496219,0.00057525480754107,-2.3256607173674e-12,4.1837301605037e-12,-0.00064298174367101,0.00064298174260363,-0.00064298174149686,0.00064298174477776,-0.00064298174367106,0.00064298174260355,-0.00064298174149692,0.0006429817447777,-0.00072470748586084,0.00072470749055491,-0.00072470748586069,0.00072470749055507,0.64990944923706,120135,2834,0.0054175256783507,0.0054175256783507,0.0023964542342151,15.220748065127,3.696598452102e-05,3.696598452102e-05,3.696598452102e-05,2105993.0005995,0.013319689336164
22419200,0.99929729869873,0.013733875405285,0.0051398123882452,0.0051398123882453,0.0034542506287941,-0.0013027930243022,0.0013027930243041,8.8320831270995e-16,1.041615238193e-15,-3.3590150314553e-16,2.2997238626617e-15,-0.0013910267614824,0.0013910267614834,-0.0013910267624866,0.0013910267624877,-0.0013910267614999,0.0013910267615026,-0.0013910267624673,0.0013910267624702,-0.0011043772118944,0.001104377211897,-0.0011043772121273,0.0011043772121302,3.3975432662089e-16,-2.3033457648827e-15,3.1042971337418e-12,-3.1062315332295e-12,-0.0013027930243041,0.0013027930243022,-0.0013910267604636,0.0013910267625302,-0.0013910267635075,0.0013910267614388,-0.0013910267604644,0.0013910267625293,-0.0013910267635084,0.0013910267614379,-0.0011043772088241,0.0011043772149352,-0.0011043772152032,0.0011043772090864,-0.0013237648732497,0.0013237648712338,-0.0013237648732522,0.0013237648712312,-9.1570269830314e-13,-9.1586702089119e-13,-0.00057367024831328,0.00057367024570634,-3.9231763555377e-12,2.2006445512313e-12,-0.00063894815523085,0.00063894815026455,-0.00063894815319146,0.00063894815230393,-0.0006389481552309,0.00063894815026447,-0.00063894815319152,0.00063894815230386,-0.00072459743998439,0.00072459744050594,-0.00072459743998425,0.00072459744050609,0.66642562144511,120135,2834,0.0054130836528437,0.0054130836528437,0.0023898557235758,14.858436539568,3.4067492316543e-05,3.4067492316543e-05,3.4067492316543e-05,2121305.2877927,0.013303995084682
23419200,0.9994094341165,0.013735396443254,0.0051403670100057,0.0051403670100057,0.0034546624232426,-0.0013049444352825,0.0013049444352845,8.9591380691877e-16,1.055261880121e-15,-3.5698909422822e-16,2.343869572864e-15,-0.0013931741520339,0.0013931741520349,-0.0013931741533196,0.0013931741533207,-0.0013931741520522,0.001393174152055,-0.0013931741532996,0.0013931741533025,-0.0011063575108021,0.0011063575108049,-0.0011063575110998,0.0011063575111028,3.5451858146539e-16,-2.3522928564392e-15,2.7825801285081e-12,-2.7845441583521e-12,-0.0013049444352845,0.0013049444352825,-0.0013931741511282,0.0013931741529761,-0.0013931741542275,0.0013931741523776,-0.0013931741511291,0.0013931741529752,-0.0013931741542284,0.0013931741523766,-0.0011063575080516,0.0011063575135341,-0.0011063575138561,0.0011063575083679,-0.0013260715975563,0.0013260715957565,-0.0013260715975589,0.0013260715957538,-1.6756704092009e-12,-1.6758349514514e-12,-0.00057414154522735,0.00057414154046736,-4.3500418886181e-12,1.1206956458702e-12,-0.00063977842833956,0.00063977842186492,-0.00063977842651921,0.00063977842368526,-0.00063977842833962,0.00063977842186484,-0.00063977842651927,0.0006397784236852,-0.00072515645977692,0.00072515645839753,-0.00072515645977678,0.00072515645839769,0.62875729639221,120135,2834,0.0054219958640696,0.0054219958640697,0.0023918233827677,15.706940896903,4.0855527175223e-05,4.0855527175223e-05,4.0855527175223e-05,2078613.7734727,0.013324051745523
24419200,0.99951529804432,0.013736910596713,0.0051409175919306,0.0051409175919306,0.0034550754128513,-0.0013088650894547,0.0013088650894566,9.0067836724707e-16,1.0602029056466e-15,-3.7290037285546e-16,2.3690746852181e-15,-0.0013974883247716,0.0013974883247726,-0.0013974883263687,0.0013974883263698,-0.0013974883247907,0.0013974883247935,-0.0013974883263478,0.0013974883263507,-0.001109604155899,0.0011096041559017,-0.0011096041562723,0.0011096041562754,3.6622410622259e-16,-2.3840781331231e-15,2.3646523558181e-12,-2.3666333223001e-12,-0.0013088650894567,0.0013088650894547,-0.0013974883240111,0.0013974883255761,-0.0013974883271313,0.0013974883255642,-0.001397488324012,0.0013974883255752,-0.0013974883271322,0.0013974883255633,-0.0011096041535629,0.0011096041582278,-0.0011096041586142,0.0011096041539435,-0.0013300343736333,0.0013300343721134,-0.0013300343736359,0.0013300343721107,-2.5260170805622e-12,-2.5261826797944e-12,-0.00057868109018004,0.00057868108302498,-4.7702165819814e-12,-1.4639624828334e-13,-0.00064297580096156,0.00064297579285507,-0.00064297579942495,0.00064297579439167,-0.00064297580096161,0.00064297579285499,-0.000642975799425,0.0006429757943916,-0.00073022066329038,0.00073022065975144,-0.00073022066329025,0.00073022065975161,0.66255127740754,120135,2834,0.0054382532392973,0.0054382532392973,0.0024106799399217,17.884730672995,5.8277845383959e-05,5.8277845383959e-05,5.8277845383959e-05,2079536.3940595,0.013376105630115
25419200,0.99961180970725,0.013738536234661,0.0051415075384151,0.0051415075384151,0.0034555211578308,-0.00131347615884,0.0013134761588419,8.8538471681054e-16,1.0566736016997e-15,-3.617242436903e-16,2.3608690535416e-15,-0.0014017988001128,0.0014017988001138,-0.001401798801675,0.001401798801676,-0.0014017988001309,0.0014017988001337,-0.0014017988016551,0.0014017988016579,-0.0011146197841409,0.0011146197841435,-0.0011146197845031,0.0011146197845061,3.6304773267039e-16,-2.3661286584893e-15,2.0838001482637e-12,-2.0857869442435e-12,-0.0013134761588419,0.00131347615884,-0.0014017987994386,0.0014017988008217,-0.0014017988023511,0.001401798800966,-0.0014017987994395,0.0014017988008208,-0.001401798802352,0.0014017988009651,-0.0011146197820741,0.0011146197861869,-0.0011146197865758,0.0011146197824572,-0.0013347211382191,0.001334721136885,-0.0013347211382217,0.0013347211368822,-2.4691511699998e-12,-2.4693297107312e-12,-0.00058180492267076,0.00058180491569722,-4.44433049346e-12,-3.7470824409682e-13,-0.00064730382275439,0.00064730381496357,-0.00064730382140066,0.00064730381631729,-0.00064730382275442,0.0006473038149635,-0.00064730382140067,0.00064730381631725,-0.00073296034967295,0.00073296034607878,-0.00073296034967276,0.00073296034607892,0.77991302017261,120135,2834,0.0054573522483363,0.0054573522483364,0.0024236782546532,19.929537439619,7.4636299516951e-05,7.4636299516951e-05,7.4636299516951e-05,2021492.7377308,0.013427990747896
26419200,0.9996909326326,0.013739953836382,0.0051420211440771,0.0051420211440771,0.0034559115482275,-0.00131586338531,0.001315863385312,8.9820785448425e-16,1.0606146577738e-15,-3.6910637111255e-16,2.3707511045929e-15,-0.0014035832277002,0.0014035832277012,-0.0014035832288905,0.0014035832288916,-0.0014035832277162,0.001403583227719,-0.0014035832288728,0.0014035832288757,-0.0011176903197768,0.0011176903197795,-0.0011176903200383,0.0011176903200414,3.7122395348069e-16,-2.3779830183136e-15,2.0916236912566e-12,-2.0935888400922e-12,-0.001315863385312,0.00131586338531,-0.0014035832270075,0.0014035832284075,-0.0014035832295854,0.0014035832281832,-0.0014035832270084,0.0014035832284066,-0.0014035832295863,0.0014035832281823,-0.0011176903176895,0.0011176903218131,-0.0011176903221314,0.0011176903180021,-0.0013372186572599,0.0013372186559166,-0.0013372186572626,0.0013372186559139,-1.4939070726711e-12,-1.4940766805124e-12,-0.00057959228115341,0.00057959227695926,-3.5051621549963e-12,6.0082410111849e-13,-0.00064818661789707,0.00064818661227126,-0.00064818661652724,0.00064818661364107,-0.00064818661789712,0.00064818661227118,-0.0006481866165273,0.000648186613641,-0.00073020611728157,0.00073020611586387,-0.00073020611728141,0.00073020611586402,0.82922923068302,120135,2834,0.0054672191060461,0.0054672191060461,0.0024145280301481,20.39481673142,7.8358533851362e-05,7.8358533851362e-05,7.8358533851362e-05,1907342.4738583,0.013438723217474
27419200,0.9997599429886,0.013741068517938,0.0051424242448862,0.0051424242448862,0.0034562200281655,-0.0013198915310073,0.0013198915310093,8.9544323305918e-16,1.0611440533658e-15,-3.4887169515037e-16,2.350163498236e-15,-0.0014078081606265,0.0014078081606275,-0.0014078081621422,0.0014078081621433,-0.0014078081606439,0.0014078081606467,-0.0014078081621229,0.0014078081621258,-0.0011211354655882,0.0011211354655909,-0.0011211354659342,0.0011211354659372,3.5487151186008e-16,-2.3552822527071e-15,1.9497677040301e-12,-1.9517495794342e-12,-0.0013198915310093,0.0013198915310073,-0.0014078081599923,0.0014078081612894,-0.0014078081627786,0.0014078081614793,-0.0014078081599931,0.0014078081612885,-0.0014078081627795,0.0014078081614784,-0.0011211354636486,0.0011211354674974,-0.0011211354678792,0.0011211354640246,-0.0013413525647693,0.0013413525635234,-0.0013413525647718,0.0013413525635207,-2.3642713195783e-12,-2.3644444443158e-12,-0.00058128443072162,0.00058128442405434,-4.2134774282156e-12,-4.0658887310667e-13,-0.00065019448640192,0.0006501944789243,-0.00065019448513444,0.00065019448019179,-0.00065019448640199,0.00065019447892422,-0.00065019448513451,0.00065019448019173,-0.00073236145288298,0.00073236144943513,-0.00073236145288281,0.00073236144943526,0.74718867332313,120135,2834,0.0054839068291119,0.0054839068291119,0.0024215796235587,22.255539559549,9.3244316476389e-05,9.3244316476389e-05,9.3244316476389e-05,1843042.0900023,0.013479694528364
28419200,0.99981665642357,0.01374211088533,0.0051427993593797,0.0051427993593797,0.0034565121665705,-0.0013213977873062,0.0013213977873082,8.9773728062466e-16,1.0539678020071e-15,-3.6204776321877e-16,2.345310705309e-15,-0.001410264659017,0.001410264659018,-0.0014102646603712,0.0014102646603723,-0.0014102646590336,0.0014102646590363,-0.0014102646603529,0.0014102646603558,-0.001120977391118,0.0011209773911207,-0.0011209773914371,0.0011209773914401,3.6069486337246e-16,-2.3534069653268e-15,1.8985111383918e-12,-1.9004708444938e-12,-0.0013213977873082,0.0013213977873062,-0.0014102646583927,0.0014102646596612,-0.0014102646609976,0.0014102646597271,-0.0014102646583936,0.0014102646596603,-0.0014102646609985,0.0014102646597262,-0.0011209773892235,0.0011209773929697,-0.0011209773933373,0.0011209773895854,-0.0013429542444548,0.0013429542432411,-0.0013429542444574,0.0013429542432384,-1.9700378635993e-12,-1.9701998705699e-12,-0.00058392488227363,0.00058392487676044,-3.7804514068634e-12,-6.696167495503e-14,-0.00064987174133362,0.00064987173481797,-0.00064987174009566,0.00064987173605591,-0.00064987174133366,0.00064987173481789,-0.00064987174009571,0.00064987173605584,-0.00073633959112546,0.00073633958853278,-0.00073633959112534,0.00073633958853294,0.8493285419621,120135,2834,0.0054901703041861,0.0054901703041861,0.0024325297358679,23.443518158862,0.00010274814527089,0.00010274814527089,0.00010274814527089,1876557.2904752,0.013503481479737
29419200,0.99986273829604,0.013742717066787,0.005143019066834,0.005143019066834,0.0034566789331186,-0.0013251860555813,0.0013251860555832,8.6356185407225e-16,1.0412034860659e-15,-3.5101868838472e-16,2.2854007708105e-15,-0.0014133804468062,0.0014133804468071,-0.0014133804481967,0.0014133804481979,-0.0014133804468227,0.0014133804468254,-0.0014133804481785,0.0014133804481814,-0.0011257079068266,0.0011257079068292,-0.0011257079071443,0.0011257079071473,3.1199046890533e-16,-2.3301739319734e-15,1.8486011625903e-12,-1.8506494014311e-12,-0.0013251860555833,0.0013251860555813,-0.0014133804461986,0.0014133804474335,-0.0014133804488064,0.0014133804475693,-0.0014133804461995,0.0014133804474326,-0.0014133804488073,0.0014133804475685,-0.0011257079049807,0.0011257079086294,-0.0011257079089958,0.0011257079053415,-0.001346868371593,0.0013468683704126,-0.0013468683715956,0.0013468683704101,-2.0578526385239e-12,-2.0580359225329e-12,-0.0005845008626121,0.00058450085683614,-3.8178663373923e-12,-2.0488760847126e-13,-0.00065315743699234,0.00065315743027988,-0.00065315743578781,0.00065315743148437,-0.00065315743699239,0.00065315743027978,-0.00065315743578787,0.00065315743148427,-0.00073606615184416,0.00073606614901725,-0.000736066151844,0.00073606614901742,0.60881578646039,120135,2834,0.0055058469562129,0.0055058469562129,0.0024349554178402,24.782751601402,0.00011346201281121,0.00011346201281121,0.00011346201281121,1781462.0044578,0.013537723577799
30419200,0.99989939416642,0.01374312537763,0.0051431665694504,0.0051431665694504,0.0034567922387296,-0.0013252162739839,0.0013252162739858,8.9250214643677e-16,1.0622028445499e-15,-3.5898903313146e-16,2.3463106747606e-15,-0.0014153230015668,0.0014153230015678,-0.0014153230029607,0.0014153230029618,-0.0014153230015835,0.0014153230015863,-0.0014153230029423,0.0014153230029452,-0.0011227958679206,0.0011227958679233,-0.0011227958682661,0.0011227958682691,3.6069486337246e-16,-2.3510328995256e-15,1.800725885717e-12,-1.8026809256587e-12,-0.0013252162739858,0.0013252162739839,-0.0014153230009758,0.0014153230021787,-0.0014153230035539,0.0014153230023489,-0.0014153230009767,0.0014153230021778,-0.0014153230035548,0.001415323002348,-0.0011227958661229,0.0011227958696773,-0.0011227958700695,0.0011227958665093,-0.00134678732575,0.0013467873246015,-0.0013467873257526,0.0013467873245988,-2.1041356565373e-12,-2.104311391202e-12,-0.00059059685449322,0.00059059684862964,-3.815432985259e-12,-2.9875379974708e-13,-0.00065207788624825,0.00065207787954619,-0.00065207788507618,0.00065207788071823,-0.0006520778862483,0.0006520778795461,-0.00065207788507624,0.00065207788071816,-0.00074465369250832,0.00074465368956386,-0.00074465369250818,0.00074465368956404,0.51512748248588,120135,2834,0.0055060266509591,0.0055060266509591,0.0024602163822561,26.133483775959,0.00012426787020767,0.00012426787020767,0.00012426787020767,1940545.7191235,0.013563674667562
31419200,0.99992906914215,0.013743551856978,0.0051433205946135,0.0051433205946136,0.003456910667751,-0.001329021724056,0.001329021724058,8.9391386801553e-16,1.0584382536732e-15,-3.609889720347e-16,2.3517516850121e-15,-0.0014190386904786,0.0014190386904796,-0.0014190386921161,0.0014190386921172,-0.0014190386904962,0.001419038690499,-0.0014190386920967,0.0014190386920996,-0.0011271189584527,0.0011271189584555,-0.0011271189588439,0.0011271189588469,3.6522413677097e-16,-2.35453434357e-15,1.6100426913115e-12,-1.6119939201334e-12,-0.001329021724058,0.001329021724056,-0.0014190386899583,0.0014190386910289,-0.0014190386926385,0.0014190386915658,-0.0014190386899592,0.001419038691028,-0.0014190386926394,0.0014190386915649,-0.0011271189568474,0.0011271189600301,-0.001127118960455,0.0011271189572666,-0.0013505649290212,0.0013505649280015,-0.0013505649290238,0.0013505649279988,-2.7337577863574e-12,-2.7339280686094e-12,-0.00059813779259307,0.00059813778493933,-4.2407699473891e-12,-1.1167270171091e-12,-0.00065839552110921,0.00065839551307509,-0.00065839552006982,0.00065839551411445,-0.00065839552110927,0.000658395513075,-0.00065839552006988,0.00065839551411439,-0.00075161979703151,0.00075161979256264,-0.00075161979703137,0.0007516197925628,0.66479676253864,120135,2834,0.0055218079963358,0.0055218079963358,0.0024915220454065,28.443691457608,0.00014274953166086,0.00014274953166086,0.00014274953166086,1996305.831949,0.013627395731128
32419200,0.99995074451657,0.013743918910198,0.0051434533250569,0.005143453325057,0.0034570122600841,-0.0013327782135571,0.001332778213559,8.9309036376125e-16,1.0312037915497e-15,-3.3646030960379e-16,2.3218408340622e-15,-0.0014211361767099,0.0014211361767109,-0.0014211361779904,0.0014211361779915,-0.0014211361767254,0.0014211361767282,-0.0014211361779731,0.001421136177976,-0.0011334912484263,0.001133491248429,-0.0011334912487227,0.0011334912487256,3.4151897859434e-16,-2.321850656832e-15,1.6868926831536e-12,-1.6888293908773e-12,-0.001332778213559,0.0013327782135571,-0.0014211361761487,0.0014211361772815,-0.0014211361785538,0.0014211361774188,-0.0014211361761495,0.0014211361772806,-0.0014211361785546,0.0014211361774179,-0.0011334912467329,0.0011334912500624,-0.0011334912504217,0.0011334912470866,-0.0013543541076563,0.0013543541065819,-0.0013543541076588,0.0013543541065792,-1.7838028339144e-12,-1.7839465016589e-12,-0.00059742740643661,0.00059742740145148,-3.3949264490921e-12,-9.6812468916118e-14,-0.00066363451203568,0.00066363450606399,-0.00066363451093428,0.00066363450716536,-0.00066363451203572,0.00066363450606392,-0.00066363451093433,0.00066363450716531,-0.00074871389159599,0.00074871388927303,-0.00074871389159583,0.00074871388927314,0.7835582016357,120135,2834,0.0055373292135141,0.0055373292135141,0.0024886289871709,29.297401123602,0.00014957920898882,0.00014957920898882,0.00014957920898882,1853013.0229799,0.013655942320324
33419200,0.99996580867241,0.013744182743793,0.0051435483218953,0.0051435483218954,0.0034570861000021,-0.0013339873643767,0.0013339873643786,9.0726640128127e-16,1.0441445726883e-15,-3.5528326398722e-16,2.3439578054627e-15,-0.0014218877752987,0.0014218877752997,-0.0014218877763796,0.0014218877763807,-0.0014218877753135,0.0014218877753163,-0.001421887776363,0.0014218877763659,-0.0011351673991005,0.0011351673991032,-0.0011351673993351,0.0011351673993381,3.5922432006125e-16,-2.3470496802176e-15,1.867440820565e-12,-1.8693904649339e-12,-0.0013339873643786,0.0013339873643767,-0.0014218877746722,0.0014218877759291,-0.0014218877770083,0.0014218877757492,-0.001421887774673,0.0014218877759282,-0.0014218877770092,0.0014218877757483,-0.0011351673972261,0.0011351674009079,-0.0011351674012152,0.0011351673975277,-0.0013555773250152,0.0013555773238192,-0.0013555773250178,0.0013555773238165,-1.2328811459263e-12,-1.2330239790226e-12,-0.00059442372285624,0.00059442371942837,-3.0341099423769e-12,6.3277481622254e-13,-0.00066343985115489,0.00066343984626616,-0.00066343984992935,0.00066343984749167,-0.00066343985115493,0.00066343984626608,-0.0006634398499294,0.00066343984749162,-0.00074540904269869,0.00074540904172129,-0.00074540904269858,0.00074540904172142,0.80945760226261,120135,2834,0.0055423154600473,0.0055423154600473,0.0024761925595763,29.317356908099,0.00014973885526479,0.00014973885526479,0.00014973885526479,1753083.4107648,0.013653450386045
34419200,0.99997721090006,0.013744363924255,0.005143613432252,0.0051436134322521,0.003457137059751,-0.0013382076399533,0.0013382076399553,9.1391325704792e-16,1.0464974419862e-15,-3.7198863600251e-16,2.3768979756337e-15,-0.0014264376615274,0.0014264376615284,-0.001426437663124,0.001426437663125,-0.0014264376615448,0.0014264376615476,-0.0014264376631048,0.0014264376631077,-0.0011386722540841,0.0011386722540868,-0.0011386722544532,0.0011386722544562,3.6151836762673e-16,-2.3915893926298e-15,1.7242919559577e-12,-1.7263123321962e-12,-0.0013382076399553,0.0013382076399533,-0.0014264376609679,0.0014264376621151,-0.0014264376636856,0.0014264376625362,-0.0014264376609688,0.0014264376621142,-0.0014264376636865,0.0014264376625353,-0.0011386722523653,0.0011386722557721,-0.0011386722561778,0.0011386722527651,-0.0013598693172774,0.0013598693161817,-0.0013598693172801,0.001359869316179,-2.6082304296683e-12,-2.6083680220297e-12,-0.00059747111789975,0.00059747111056216,-4.2318763220244e-12,-8.7700722273723e-13,-0.0006661520824937,0.00066615207462809,-0.00066615208137676,0.00066615207574502,-0.00066615208249374,0.00066615207462804,-0.00066615208137681,0.00066615207574497,-0.00074900339358934,0.00074900338945695,-0.0007490033935892,0.00074900338945709,0.73398852679868,120135,2834,0.005559803717623,0.0055598037176231,0.0024888660834512,31.487353031134,0.00016709882424907,0.00016709882424907,0.00016709882424907,1711852.5275575,0.013701750801492
35419200,0.99998615408059,0.013744489693777,0.0051436586050324,0.0051436586050324,0.0034571724837125,-0.0013458281537207,0.0013458281537227,9.1526615689423e-16,1.0536148716124e-15,-3.9431148346661e-16,2.4096322697411e-15,-0.001434761334295,0.001434761334296,-0.0014347613364743,0.0014347613364754,-0.0014347613343147,0.0014347613343175,-0.0014347613364528,0.0014347613364558,-0.0011452314706002,0.001145231470603,-0.0011452314711027,0.0011452314711058,3.9192920330246e-16,-2.421616910512e-15,1.2485103202638e-12,-1.250491829583e-12,-0.0013458281537227,0.0013458281537207,-0.001434761333911,0.0014347613347288,-0.0014347613368605,0.0014347613360406,-0.0014347613339119,0.0014347613347278,-0.0014347613368614,0.0014347613360397,-0.0011452314693614,0.0011452314718402,-0.0011452314723474,0.0011452314698629,-0.0013675030882648,0.0013675030874903,-0.0013675030882675,0.0013675030874875,-4.149918997266e-12,-4.1500616302306e-12,-0.0006075473789678,0.00060754736726461,-5.2659746869116e-12,-2.8885641681122e-12,-0.00067358012296159,0.00067358011192098,-0.00067358012217455,0.000673580112708,-0.00067358012296162,0.00067358011192091,-0.00067358012217462,0.00067358011270794,-0.00075983912724386,0.00075983911937778,-0.00075983912724376,0.00075983911937791,0.64952121200817,120135,2834,0.0055914002108938,0.0055914002108939,0.0025307129226279,35.940234898366,0.00020272187918693,0.00020272187918693,0.00020272187918693,1732599.1359489,0.013808229073318
36419200,0.99999187688637,0.013744574109655,0.0051436888900962,0.0051436888900962,0.003457196329463,-0.0013480735206233,0.0013480735206252,9.229129821125e-16,1.0546736627965e-15,-3.8031191114394e-16,2.3987796601044e-15,-0.0014374331702886,0.0014374331702896,-0.0014374331717389,0.00143743317174,-0.0014374331703042,0.001437433170307,-0.0014374331717215,0.0014374331717245,-0.0011469079704644,0.0011469079704672,-0.0011469079708111,0.0011469079708141,3.7963546122078e-16,-2.4003700297183e-15,1.309944852833e-12,-1.3119270869692e-12,-0.0013480735206253,0.0013480735206233,-0.0014374331698537,0.0014374331707348,-0.001437433172176,0.0014374331712927,-0.0014374331698545,0.0014374331707339,-0.0014374331721769,0.0014374331712918,-0.0011469079691415,0.0011469079717323,-0.0011469079721398,0.0011469079695432,-0.0013697518626379,0.001369751861815,-0.0013697518626406,0.0013697518618122,-2.2964480442212e-12,-2.2965860173442e-12,-0.00061202299249752,0.00061202298611298,-3.5281681286502e-12,-9.8706637521155e-13,-0.00067605904777428,0.00067605904093927,-0.0006760590469254,0.00067605904178814,-0.00067605904777433,0.0006760590409392,-0.00067605904692545,0.00067605904178809,-0.00076472275261239,0.00076472274892177,-0.00076472275261228,0.00076472274892189,0.6811981079479,120135,2834,0.0056007198383232,0.0056007198383232,0.0025492854442705,37.484275358739,0.00021507420286991,0.00021507420286991,0.00021507420286991,1774702.4535954,0.013845951149778
37419200,0.99999525602588,0.013744622011751,0.0051437061107042,0.0051437061107042,0.0034572097903425,-0.0013490422733714,0.0013490422733733,9.2044246934967e-16,1.0514972892443e-15,-3.7934135255854e-16,2.389926989371e-15,-0.0014379124910945,0.0014379124910955,-0.0014379124922079,0.001437912492209,-0.0014379124911087,0.0014379124911115,-0.0014379124921919,0.0014379124921948,-0.0011486640203629,0.0011486640203657,-0.0011486640206306,0.0011486640206336,3.8281183477299e-16,-2.3934538807078e-15,1.538848099024e-12,-1.5408288313104e-12,-0.0013490422733734,0.0013490422733714,-0.0014379124905728,0.0014379124916142,-0.0014379124927317,0.0014379124916882,-0.0014379124905737,0.0014379124916133,-0.0014379124927326,0.0014379124916873,-0.0011486640188072,0.0011486640218437,-0.0011486640221921,0.0011486640191498,-0.0013707580427075,0.0013707580417295,-0.0013707580427102,0.0013707580417267,-1.3909654385726e-12,-1.3911018851452e-12,-0.00061184944347157,0.00061184943964031,-2.8708693410299e-12,1.4313968600438e-13,-0.00067747696911988,0.00067747696417001,-0.0006774769681108,0.00067747696517907,-0.00067747696911992,0.00067747696416994,-0.00067747696811084,0.00067747696517902,-0.00076386869492979,0.0007638686933946,-0.00076386869492967,0.00076386869339471,0.65495763090949,120135,2834,0.0056047220802429,0.0056047220802429,0.0025485776710339,37.680911463814,0.00021664729171051,0.00021664729171051,0.00021664729171051,1737844.7202801,0.013853352704789
38419200,0.9999971981872,0.013744652671019,0.0051437171006572,0.0051437171006572,0.0034572184697051,-0.0013479987680145,0.0013479987680165,9.1861899564378e-16,1.0470856593107e-15,-3.8284124563921e-16,2.3890446633843e-15,-0.0014370136987496,0.0014370136987506,-0.0014370136996922,0.0014370136996933,-0.0014370136987635,0.0014370136987663,-0.0014370136996765,0.0014370136996794,-0.0011473493053306,0.0011473493053333,-0.0011473493055638,0.0011473493055668,3.8357651729481e-16,-2.3947672597026e-15,1.830995509197e-12,-1.8329528280787e-12,-0.0013479987680165,0.0013479987680145,-0.0014370136981286,0.0014370136993662,-0.0014370137003153,0.0014370136990757,-0.0014370136981295,0.0014370136993652,-0.0014370137003162,0.0014370136990747,-0.0011473493034871,0.0011473493070956,-0.001147349307413,0.0011473493037987,-0.0013697069349336,0.0013697069337603,-0.0013697069349363,0.0013697069337575,-9.2434360646282e-13,-9.2447802253688e-13,-0.00061079311371785,0.00061079311120102,-2.7011548492206e-12,9.022827741159e-13,-0.00067604829072936,0.00067604828665178,-0.00067604828952339,0.00067604828785771,-0.0006760482907294,0.00067604828665171,-0.00067604828952345,0.00067604828785766,-0.00076307318778109,0.00076307318747287,-0.00076307318778095,0.00076307318747299,0.72891346290552,120135,2834,0.0056004007107283,0.0056004007107283,0.0025441868433884,37.194787268018,0.00021275829814415,0.00021275829814415,0.00021275829814415,1745592.3087558,0.013840137704363
38880000,0.99999787644388,0.013744663619194,0.005143721026291,0.005143721026291,0.0034572215666119,-0.0013487931846904,0.0013487931846924,9.1879546084112e-16,1.0465562637186e-15,-3.7737082452153e-16,2.383633063999e-15,-0.0014372878510695,0.0014372878510705,-0.0014372878521376,0.0014372878521387,-0.0014372878510845,0.0014372878510873,-0.0014372878521208,0.0014372878521237,-0.0011489051002652,0.001148905100268,-0.0011489051005122,0.0011489051005152,3.7787080924734e-16,-2.3905533489126e-15,1.9609864062858e-12,-1.9629626173983e-12,-0.0013487931846924,0.0013487931846905,-0.0014372878504132,0.0014372878517315,-0.0014372878527961,0.0014372878514757,-0.001437287850414,0.0014372878517306,-0.001437287852797,0.0014372878514747,-0.0011489050983004,0.0011489051021659,-0.0011489051024828,0.0011489050986115,-0.0013705312468971,0.001370531245639,-0.0013705312468997,0.0013705312456363,-1.2131674160498e-12,-1.2133015521175e-12,-0.00060946973271564,0.00060946972935206,-3.1074084825686e-12,7.4859336628063e-13,-0.00067681715406435,0.00067681714919462,-0.00067681715277613,0.00067681715048281,-0.00067681715406439,0.00067681714919455,-0.00067681715277617,0.00067681715048277,-0.00076111999474329,0.00076111999387398,-0.00076111999474319,0.0007611199938741,0.74537476942469,120135,2834,0.0056036760113051,0.0056036760113052,0.0025387115732288,37.193619223988,0.00021274895379191,0.00021274895379191,0.00021274895379191,1689334.2474302,0.013841232641741
