time,ASR_ext,ASR_strain,ASR_strain_xx,ASR_strain_yy,ASR_strain_zz,disp_x_101,disp_x_102,disp_x_103,disp_x_104,disp_x_105,disp_x_106,disp_x_p1_neg,disp_x_p1_pos,disp_x_p2_neg,disp_x_p2_pos,disp_x_p3_neg,disp_x_p3_pos,disp_x_p4_neg,disp_x_p4_pos,disp_x_p5_neg,disp_x_p5_pos,disp_x_p6_neg,disp_x_p6_pos,disp_y_101,disp_y_102,disp_y_103,disp_y_104,disp_y_105,disp_y_106,disp_y_p1_neg,disp_y_p1_pos,disp_y_p2_neg,disp_y_p2_pos,disp_y_p3_neg,disp_y_p3_pos,disp_y_p4_neg,disp_y_p4_pos,disp_y_p5_neg,disp_y_p5_pos,disp_y_p6_neg,disp_y_p6_pos,disp_y_p7_neg,disp_y_p7_pos,disp_y_p8_neg,disp_y_p8_pos,disp_z_101,disp_z_102,disp_z_103,disp_z_104,disp_z_105,disp_z_106,disp_z_p1_neg,disp_z_p1_pos,disp_z_p2_neg,disp_z_p2_pos,disp_z_p3_neg,disp_z_p3_pos,disp_z_p4_neg,disp_z_p4_pos,disp_z_p5_neg,disp_z_p5_pos,disp_z_p6_neg,disp_z_p6_pos,humidity,ndof,nelem,strain_xx,strain_yy,strain_zz,temp,thermal_strain_xx,thermal_strain_yy,thermal_strain_zz,vonmises,vstrain
2419200,0,0,0,0,0,0,0,0,0,0,0,0,0,0,0,0,0,0,0,0,0,0,0,0,0,0,0,0,0,0,0,0,0,0,0,0,0,0,0,0,0,0,0,0,0,0,0,0,0,0,0,0,0,0,0,0,0,0,0,0,0,0,0,0,0,0,0,0,0,0,0,0,0,0,0
2919200,0.076409991875561,0.0015596530749767,0.00051988435832558,0.00051988435832558,0.00051988435832558,-0.0001695314943818,0.00016953149438171,-4.36751363428e-17,-1.7595050718572e-17,-1.8381791390067e-18,-2.2950769457982e-16,-0.00016876627594421,0.00016876627594431,-0.00016876853250952,0.00016876853250962,-0.00016876629621759,0.00016876629621743,-0.00016876851223656,0.00016876851223641,-0.00016799200143511,0.00016799200143536,-0.00016799334528778,0.00016799334528783,-8.0129905027581e-17,1.4313556296857e-16,-2.0276937535872e-09,2.0276939162163e-09,-0.00016953149438172,0.00016953149438176,-0.00016876709554107,0.00016876563856021,-0.00016876771291344,0.00016876916989407,-0.00016876709554111,0.0001687656385602,-0.0001687677129135,0.00016876916989407,-0.00016799410056197,0.00016799016885214,-0.00016799124616037,0.00016799517787159,-0.00017146707860384,0.00017146846697679,-0.00017146707860406,0.00017146846697735,-1.0375684278361e-08,-1.0375684304349e-08,-0.00015383367729444,0.00015380721516936,-8.0895750340159e-09,-1.2340473538636e-08,-0.0001547741253889,0.00015475289589451,-0.00015477557495139,0.000154751446332,-0.00015477412538873,0.00015475289589446,-0.00015477557495139,0.00015475144633204,-0.00015944817721843,0.00015942500034957,-0.00015944817721864,0.00015942500034975,0.81617708879465,120135,2834,0.00070613070011375,0.00070613070011374,0.00064071413737066,32.407591014988,0.00017446072811991,0.00017446072811991,0.00017446072811991,1306315.2452784,0.0020550858153044
3419200,0.15584652765922,0.0031083520847957,0.0010614909518929,0.0010614909519033,0.00098537018099941,-0.00030177097509889,0.0003017709751063,3.6906519589984e-15,3.7162247071802e-15,-7.5597249379453e-15,1.5167271944371e-14,-0.00030353909435228,0.00030353909435208,-0.00030354195450824,0.00030354195450808,-0.00030353911437501,0.00030353911438999,-0.00030354193447962,0.00030354193449457,-0.00029273479400235,0.00029273479401774,-0.00029273727260329,0.00029273727261845,-6.9810367341198e-15,-3.0033754192091e-14,2.5799976599393e-09,-2.5800440292835e-09,-0.00030177097512254,0.00030177097508776,-0.000303538309747,0.00030353997248988,-0.00030354273914901,0.00030354107635771,-0.00030353830975455,0.00030353997248208,-0.00030354273915649,0.00030354107634993,-0.00029273235365886,0.00029273745154452,-0.00029273971301762,0.00029273461502767,-0.00030406102772074,0.00030405937262847,-0.00030406102774346,0.00030405937260599,-7.1083891681431e-09,-7.1083891957145e-09,-0.00025087396387567,0.00025085588290517,-9.3937480377273e-09,-4.4658796734553e-09,-0.00025690701805153,0.00025688965042642,-0.00025690539020867,0.00025689127826236,-0.00025690701805144,0.00025688965042643,-0.00025690539020866,0.00025689127826237,-0.00026434630482162,0.00026433316413757,-0.0002643463048219,0.0002643331641378,0.78776538502285,120135,2834,0.0012565838211006,0.0012565838211113,0.0010447396764661,31.910929669456,0.00017048743735565,0.00017048743735565,0.00017048743735565,2208978.9204626,0.0035642477335146
3919200,0.24312428733975,0.0047636054480196,0.0016707158909835,0.0016707158909769,0.0014221736660592,-0.00045218844292511,0.00045218844293373,4.3017803482691e-15,4.3367939845089e-15,-3.4428212947609e-15,1.223483211663e-14,-0.00046006761553497,0.00046006761553839,-0.00046006929007238,0.00046006929007584,-0.0004600676321459,0.00046006763215968,-0.00046006927345168,0.00046006927346543,-0.00042770371887112,0.00042770371888543,-0.00042770478541548,0.00042770478542956,-4.5479345931318e-15,-2.0571752923448e-14,5.8736752461271e-09,-5.8737108328737e-09,-0.00045218844293981,0.00045218844291568,-0.00046006569994383,0.00046006958595045,-0.00046007120567634,0.00046006731963867,-0.00046006569994926,0.00046006958594498,-0.00046007120568172,0.00046006731963324,-0.00042769804544896,0.00042770959289089,-0.00042771045890063,0.00042769891137663,-0.00045543632094365,0.00045543246409474,-0.00045543632095956,0.00045543246407922,-2.3812068326591e-09,-2.3812068652648e-09,-0.00034332796348069,0.00034332068288131,-7.9951858208131e-09,3.5544758112227e-09,-0.00035476780825057,0.00035475812877112,-0.00035476396950825,0.00035476196750779,-0.00035476780825047,0.00035475812877112,-0.00035476396950826,0.00035476196750781,-0.00036959651237747,0.00036959528668919,-0.00036959651237777,0.00036959528668943,0.77553102665914,120135,2834,0.0018823283465053,0.0018823283464987,0.0014295592273386,32.49637812374,0.00017517102498992,0.00017517102498992,0.00017517102498992,3061702.3124693,0.0052077372137765
4419200,0.33863759174342,0.0065581221456778,0.0023497075082665,0.0023497075082566,0.0018587071291546,-0.00062078105504669,0.00062078105505553,4.4397761325926e-15,4.4422466453554e-15,-3.2857819745573e-15,1.2263243013403e-14,-0.00063764505601856,0.00063764505602221,-0.00063764603974465,0.00063764603974831,-0.00063764506295569,0.00063764506296968,-0.00063764603279636,0.0006376460328103,-0.00057513236554635,0.0005751323655609,-0.00057513318748355,0.00057513318749779,-4.2557229317622e-15,-2.0110521551893e-14,6.2227471002082e-09,-6.2227847673366e-09,-0.00062078105506139,0.00062078105503588,-0.00063764300927359,0.00063764712996247,-0.00063764808650742,0.00063764396578122,-0.00063764300927889,0.00063764712995709,-0.00063764808651267,0.00063764396577585,-0.00057512634709116,0.00057513856998367,-0.00057513920599717,0.00057512698302023,-0.00062616135534102,0.00062615725567527,-0.00062616135535688,0.00062615725565993,-6.9729869585189e-10,-6.9729870722373e-10,-0.0004356426066587,0.00043563954818418,-6.7111933611578e-09,5.5851215107232e-09,-0.00045186267028335,0.00045185677798514,-0.00045185858074459,0.00045186086752029,-0.00045186267028323,0.00045185677798518,-0.00045185858074459,0.00045186086752027,-0.000480183608605,0.00048018610036747,-0.00048018360860532,0.00048018610036762,0.77667598890364,120135,2834,0.0025832055137128,0.0025832055137028,0.0018137022266684,33.598107558371,0.00018398486046696,0.00018398486046696,0.00018398486046696,3694233.4283679,0.0070045480122355
4919200,0.44228095751016,0.0084984964696819,0.0031011706402688,0.0031011706402568,0.0022961551891563,-0.00080877426378783,0.00080877426379747,4.863851412678e-15,4.8070590299993e-15,-2.543598765392e-15,1.2206774150252e-14,-0.00083663450901594,0.00083663450902075,-0.00083663511458432,0.00083663511458914,-0.00083663451194874,0.00083663451196321,-0.00083663511163789,0.00083663511165235,-0.00073738153683955,0.00073738153685475,-0.00073738237790924,0.00073738237792395,-3.2034021382636e-15,-1.8173459059624e-14,6.3288758925035e-09,-6.328912196165e-09,-0.00080877426380165,0.00080877426377768,-0.00083663243190692,0.00083663661561813,-0.00083663719170934,0.00083663300795939,-0.00083663243191194,0.00083663661561308,-0.00083663719171436,0.00083663300795434,-0.00073737542609996,0.00073738785604475,-0.00073738848871,0.00073737605868249,-0.00081737424886122,0.00081737006859449,-0.00081737424887645,0.00081737006858031,-2.2464087359771e-10,-2.246408292004e-10,-0.0005273562049196,0.00052735452532791,-6.3618070609866e-09,6.1718297388936e-09,-0.00054941744070727,0.00054941300115571,-0.00054941327463906,0.0005494171672228,-0.00054941744070706,0.00054941300115575,-0.00054941327463897,0.00054941716722282,-0.00059405856438886,0.00059406210878798,-0.00059405856438932,0.00059406210878808,0.7777191229172,120135,2834,0.0033641398177347,0.0033641398177227,0.0021952933697076,35.34268954251,0.00019794151634008,0.00019794151634008,0.00019794151634008,4128591.9259084,0.0089635391051823
5419200,0.54323896871881,0.01036423932502,0.0038375514524865,0.003837551452474,0.0026891364200596,-0.00099201809495016,0.0009920180949587,4.3456319498093e-15,4.2592228248428e-15,-1.9494404459325e-15,1.0520090383166e-14,-0.001031821652319,0.0010318216523235,-0.0010318219806984,0.0010318219807028,-0.0010318216532494,0.001031821653262,-0.0010318219797551,0.0010318219797677,-0.00089219374500244,0.00089219374501586,-0.00089219447104225,0.0008921944710551,-4.249134897728e-15,-1.6937061513625e-14,7.0498188464897e-09,-7.0498562988102e-09,-0.00099201809496357,0.00099201809493904,-0.0010318193349532,0.0010318239988482,-0.0010318242980818,0.0010318196341456,-0.0010318193349574,0.0010318239988439,-0.001031824298086,0.0010318196341413,-0.00089218694313772,0.00089220078139933,-0.0008922012729639,0.00089218743462041,-0.0010043148223736,0.0010043101567875,-0.0010043148223865,0.0010043101567755,8.2572506421414e-10,8.2572514304603e-10,-0.00060526424050606,0.00060526530942732,-6.0374017180273e-09,7.9522037842952e-09,-0.00063404790137447,0.00063404545118636,-0.00063404325127214,0.00063405010128835,-0.00063404790137427,0.0006340454511864,-0.00063404325127204,0.0006340501012884,-0.00069490473542884,0.0006949110522974,-0.00069490473542931,0.0006949110522975,0.76998245694114,120135,2834,0.0041247386290963,0.0041247386290838,0.0025194684049499,36.272427605219,0.00020537942084175,0.00020537942084175,0.00020537942084175,4365542.7339825,0.010827193857433
5919200,0.63462094093235,0.011943883579098,0.0044700148727017,0.0044700148726893,0.0030038538337069,-0.0011494822592762,0.0011494822592849,4.4449818559143e-15,4.3019568134665e-15,-1.9175884778118e-15,1.0655086259135e-14,-0.0012037609056072,0.0012037609056118,-0.0012037609650386,0.0012037609650431,-0.001203760904694,0.0012037609047069,-0.0012037609659377,0.0012037609659505,-0.0010184055304541,0.0010184055304678,-0.0010184062037845,0.0010184062037975,-3.8511176451171e-15,-1.6621629858485e-14,7.273827738146e-09,-7.2738646461008e-09,-0.0011494822592895,0.0011494822592653,-0.001203758504381,0.0012037633254138,-0.0012037633662813,0.0012037585452072,-0.0012037585043853,0.0012037633254095,-0.0012037633662856,0.0012037585452029,-0.0010183985078792,0.0010184127811198,-0.0010184132264182,0.0010183989530965,-0.0011621883248734,0.0011621835039461,-0.0011621883248863,0.0011621835039339,1.7447242929613e-09,1.7447244266311e-09,-0.00066253091100778,0.00066253429786874,-5.3666666944336e-09,9.0967191694442e-09,-0.0006989607492556,0.00069896034428309,-0.00069895593927749,0.00069896515426188,-0.00069896074925539,0.00069896034428312,-0.00069895593927738,0.00069896515426195,-0.00077170472787648,0.00077171311904932,-0.00077170472787702,0.00077171311904936,0.72322607134938,120135,2834,0.0047778535339317,0.0047778535339192,0.0027578429655111,36.778805307839,0.00020943044246271,0.00020943044246271,0.00020943044246271,4520151.4615127,0.012389762405035
6419200,0.71186986463021,0.013244331586739,0.0049912449401643,0.0049912449401513,0.0032618417064236,-0.0012778171353087,0.0012778171353174,4.3345146423765e-15,4.3808073458133e-15,-2.1734630139616e-15,1.0897372975089e-14,-0.0013472612478657,0.00134726124787,-0.0013472610463996,0.001347261046404,-0.0013472612444922,0.0013472612445051,-0.0013472610497582,0.0013472610497711,-0.0011174290174865,0.0011174290175001,-0.0011174296333808,0.001117429633394,-3.7928841299934e-15,-1.7054140485196e-14,7.7724257317565e-09,-7.7724634101718e-09,-0.0012778171353221,0.0012778171352974,-0.0013472586697692,0.0013472638302686,-0.0013472636245121,0.0013472584639706,-0.0013472586697737,0.0013472638302641,-0.0013472636245165,0.0013472584639662,-0.0011174215028506,0.0011174367516816,-0.0011174371480761,0.0011174218991623,-0.0012895886467744,0.001289583489161,-0.0012895886467878,0.0012895834891484,2.7083036547174e-09,2.7083036004194e-09,-0.00070484557313798,0.00070485137760403,-4.9242389278699e-09,1.0560820111644e-08,-0.0007465525165761,0.00074655405122088,-0.00074654736469864,0.00074655920309949,-0.00074655251657595,0.00074655405122087,-0.00074654736469859,0.0007465592030995,-0.00083253943944223,0.00083255021400698,-0.00083253943944257,0.0008325502140072,0.70960752268143,120135,2834,0.0053098234008854,0.0053098234008722,0.0029340667510944,36.741529078846,0.00020913223263077,0.00020913223263077,0.00020913223263077,4602757.2240136,0.013646113407565
6919200,0.78133190044274,0.014451894495376,0.0054710107207141,0.0054710107207005,0.0035098730539614,-0.0014018772541994,0.0014018772542072,4.0639934948472e-15,3.8231773222042e-15,-1.444897035858e-15,9.3010099781767e-15,-0.0014839123804228,0.0014839123804271,-0.0014839123953724,0.0014839123953766,-0.0014839123785105,0.0014839123785219,-0.0014839123972708,0.001483912397282,-0.0012165892383155,0.0012165892383278,-0.0012165899920742,0.0012165899920856,-4.461746049662e-15,-1.5390080222749e-14,7.6409637644224e-09,-7.6410007145629e-09,-0.0014018772542119,0.0014018772541879,-0.0014839098638668,0.0014839149234689,-0.0014839149119439,0.0014839098522996,-0.0014839098638705,0.0014839149234652,-0.0014839149119476,0.0014839098522959,-0.00121658187194,0.0012165968681767,-0.0012165973585062,0.0012165823621897,-0.0014146823795696,0.0014146773118052,-0.0014146823795808,0.0014146773117949,1.5834707310478e-09,1.5834709640196e-09,-0.00074624100097919,0.00074624394580076,-5.8868671238643e-09,9.317227411952e-09,-0.0007930644721008,0.00079306372801734,-0.00079305941879118,0.0007930687813285,-0.00079306447210056,0.00079306372801741,-0.00079305941879104,0.0007930687813286,-0.00089294411014326,0.00089295243674642,-0.0008929441101439,0.00089295243674637,0.73388447394116,120135,2834,0.0058237894167493,0.0058237894167356,0.0031064828079553,38.623398951936,0.00022418719161549,0.00022418719161549,0.00022418719161549,4431660.459362,0.01486361122663
7419200,0.84111434243703,0.015425932769653,0.0058588246870379,0.005858824687024,0.0037082833955908,-0.0015059040709688,0.0015059040709769,4.050582139849e-15,3.8574115704891e-15,-1.6375970313583e-15,9.8508755331026e-15,-0.0015994552527828,0.001599455252787,-0.0015994553778803,0.0015994553778848,-0.0015994552517638,0.0015994552517757,-0.0015994553788849,0.0015994553788969,-0.0012972311951037,0.0012972311951157,-0.0012972320332636,0.0012972320332751,-4.02393589505e-15,-1.5708593585216e-14,7.5393242072914e-09,-7.539361500527e-09,-0.0015059040709814,0.0015059040709574,-0.0015994527755091,0.0015994577647847,-0.0015994578551687,0.0015994528658513,-0.0015994527755131,0.0015994577647806,-0.0015994578551724,0.0015994528658472,-0.0012972239360078,0.001297238733958,-0.0012972392924192,0.0012972244943884,-0.0015185467644289,0.0015185417647864,-0.0015185467644408,0.0015185417647751,1.2488146018196e-09,1.2488147946241e-09,-0.0007743623912661,0.00077436456138847,-6.1110242829691e-09,8.8863257115277e-09,-0.00082940166997483,0.00082940032130594,-0.00082939668667898,0.00082940530460228,-0.00082940166997443,0.00082940032130585,-0.00082939668667916,0.00082940530460249,-0.00093502972128838,0.00093503729738338,-0.00093502972128806,0.00093503729738282,0.68603447808538,120135,2834,0.0062545272034041,0.0062545272033901,0.003223761688164,40.761944244157,0.00024129555395326,0.00024129555395326,0.00024129555395326,4137508.2336224,0.015857462064533
7919200,0.88598288546186,0.016136616390665,0.0061396970941352,0.006139697094121,0.0038572222024084,-0.0015764145937906,0.0015764145937984,4.0339944112986e-15,3.8238831829936e-15,-1.7508288663211e-15,9.6457641520557e-15,-0.0016809256528286,0.0016809256528327,-0.0016809253844201,0.0016809253844242,-0.0016809256487188,0.0016809256487304,-0.0016809253885153,0.0016809253885268,-0.0013476324948918,0.0013476324949042,-0.0013476332277958,0.0013476332278074,-4.2046950788633e-15,-1.5778364604035e-14,7.9847088507486e-09,-7.9847462001794e-09,-0.001576414593803,0.0015764145937788,-0.001680923002874,0.001680928307867,-0.0016809280343894,0.001680922729354,-0.001680923002878,0.0016809283078631,-0.0016809280343933,0.0016809227293501,-0.001347624783042,0.0013476404476086,-0.0013476409397034,0.0013476252750558,-0.001588009762903,0.0015880044598626,-0.0015880097629148,0.0015880044598516,3.037653325383e-09,3.0376535286816e-09,-0.00078869879391432,0.00078870554302569,-4.8125286130102e-09,1.1114300592118e-08,-0.0008473972808527,0.00084739966072645,-0.00084739198232548,0.00084740495925545,-0.00084739728085245,0.0008473996607265,-0.00084739198232541,0.00084740495925557,-0.00096140623472131,0.00096141790803523,-0.0009614062347218,0.0009614179080351,0.66517730337402,120135,2834,0.006546382393508,0.0065463823934936,0.0032837013198545,40.955967050004,0.00024284773640003,0.00024284773640003,0.00024284773640003,3981904.4380963,0.016511581674897
8419200,0.91936786763878,0.016657098714025,0.0063434593402021,0.0063434593401877,0.0039701800336356,-0.0016298925776457,0.0016298925776533,3.8767050987321e-15,3.6747112695049e-15,-1.5693049999859e-15,9.1526027472099e-15,-0.0017424446956164,0.0017424446956204,-0.0017424444469127,0.0017424444469167,-0.0017424446920797,0.0017424446920908,-0.001742444450435,0.001742444450446,-0.0013859486481348,0.0013859486481467,-0.0013859494095415,0.0013859494095526,-4.4069830167527e-15,-1.5305126993104e-14,8.1844406983439e-09,-8.184477796792e-09,-0.0016298925776579,0.0016298925776339,-0.001742441984009,0.0017424474186798,-0.0017424471585346,0.0017424417238213,-0.0017424419840127,0.0017424474186761,-0.0017424471585382,0.0017424417238176,-0.0013859407459237,0.0013859568037644,-0.0013859573118094,0.0013859412538887,-0.0016411351087656,0.0016411296734602,-0.0016411351087768,0.0016411296734499,2.9604782337169e-09,2.960478428975e-09,-0.00079719362068001,0.00079720015755941,-5.0819042540873e-09,1.1242243101215e-08,-0.00085978669176465,0.0008597888065263,-0.00085978126220502,0.00085979423608783,-0.00085978669176442,0.00085978880652635,-0.00085978126220495,0.00085979423608795,-0.00097894560304304,0.00097895724258861,-0.00097894560304351,0.00097895724258849,0.65392244317384,120135,2834,0.0067676679724407,0.0067676679724262,0.003319313448962,41.432112652359,0.00024665690121887,0.00024665690121887,0.00024665690121887,3748977.006223,0.016997823717887
8919200,0.94369523562946,0.017021814042497,0.0064852506621548,0.0064852506621403,0.0040513127182015,-0.0016683066352471,0.0016683066352546,3.9131157511175e-15,3.6051251600187e-15,-1.6006569833808e-15,9.1447206350618e-15,-0.001786914526498,0.001786914526502,-0.0017869142530105,0.0017869142530144,-0.0017869145230929,0.001786914523104,-0.0017869142564012,0.0017869142564121,-0.0014128234955936,0.0014128234956055,-0.0014128242613595,0.0014128242613705,-4.3941010573466e-15,-1.5315205384665e-14,8.3430241377137e-09,-8.3430612515439e-09,-0.0016683066352591,0.0016683066352351,-0.0017869117628249,0.001786917302854,-0.001786917016698,0.0017869114766264,-0.0017869117628287,0.0017869173028503,-0.0017869170167016,0.0017869114766227,-0.0014128154394252,0.0014128318086102,-0.0014128323175846,0.0014128159483196,-0.0016793162399241,0.0016793106989736,-0.0016793162399353,0.0016793106989633,3.0787696933765e-09,3.0787699950724e-09,-0.00080097031253884,0.00080097714632451,-5.1218437360297e-09,1.152176274661e-08,-0.00086720359963362,0.00086720589497279,-0.00086719806383443,0.00086721143077395,-0.00086720359963335,0.00086720589497287,-0.00086719806383432,0.0008672114307741,-0.00098910454996749,0.00098911654576706,-0.00098910454996809,0.00098911654576685,0.62734198792248,120135,2834,0.0069265815011252,0.0069265815011106,0.0033352674462801,41.891138212558,0.00025032910570047,0.00025032910570047,0.00025032910570047,3517464.5432682,0.017337377759877
9419200,0.96034269384024,0.017267402927463,0.0065798928170785,0.006579892817064,0.0041076172933204,-0.0016912333052472,0.0016912333052549,3.9687022882811e-15,3.7624732943176e-15,-1.8163562762684e-15,9.581766107152e-15,-0.0018147227733212,0.0018147227733251,-0.0018147221705496,0.0018147221705535,-0.001814722767582,0.0018147227675935,-0.0018147221762739,0.0018147221762852,-0.0014269625407596,0.0014269625407719,-0.0014269632155796,0.0014269632155911,-4.236282349188e-15,-1.5810136266704e-14,8.8201824633139e-09,-8.8202199342105e-09,-0.0016912333052595,0.0016912333052351,-0.0018147198333413,0.0018147257041011,-0.0018147251105438,0.0018147192397413,-0.0018147198333453,0.0018147257040972,-0.0018147251105476,0.0018147192397374,-0.0014269540038579,0.001426971304476,-0.0014269717525389,0.0014269544518397,-0.0017019349891951,0.0017019291260722,-0.0017019349892069,0.0017019291260613,4.4325140091679e-09,4.4325142091453e-09,-0.00079988694858072,0.000799897212729,-4.2787949313824e-09,1.3348538259078e-08,-0.00086759045673892,0.00086759549056987,-0.0008675845890678,0.00086760135824302,-0.00086759045673868,0.00086759549056991,-0.00086758458906772,0.00086760135824314,-0.00099320004438754,0.00099321522089879,-0.00099320004438804,0.00099321522089868,0.61542000615887,120135,2834,0.0070214158265927,0.007021415826578,0.0033309664451673,41.151541380785,0.00024441233104628,0.00024441233104628,0.00024441233104628,3367264.8927436,0.017526004935657
9919200,0.97153814812185,0.01743198386406,0.0066428239311393,0.0066428239311248,0.0041463360017955,-0.0017059138871997,0.0017059138872078,4.1714019782976e-15,3.9128804641877e-15,-2.1087002865361e-15,1.0260686543069e-14,-0.0018323657806288,0.0018323657806329,-0.0018323649983081,0.0018323649983121,-0.0018323657745477,0.0018323657745599,-0.0018323650043736,0.0018323650043857,-0.0014358193713447,0.0014358193713577,-0.0014358200007908,0.0014358200008029,-3.9733492051445e-15,-1.6521466098566e-14,9.4057605026235e-09,-9.4057984307408e-09,-0.0017059138872124,0.0017059138871876,-0.0018323626429792,0.0018323689058931,-0.0018323681359722,0.0018323618730153,-0.0018323626429835,0.0018323689058888,-0.0018323681359763,0.0018323618730111,-0.0014358102588832,0.0014358287068726,-0.0014358291133114,0.0014358106652393,-0.0017168499444584,0.0017168436902525,-0.0017168499444711,0.0017168436902405,5.1995129923121e-09,5.1995132457336e-09,-0.00079659419439533,0.00079660637439111,-4.1048769050047e-09,1.4703550087614e-08,-0.00086591646389594,0.00086592283268449,-0.00086591020207268,0.00086592909450979,-0.00086591646389568,0.00086592283268456,-0.00086591020207259,0.00086592909450994,-0.00099336081365759,0.0009933779927451,-0.00099336081365812,0.00099337799274491,0.61191532555838,120135,2834,0.0070821285822235,0.0070821285822088,0.0033174404096176,39.828786961918,0.00023383029569534,0.00023383029569534,0.00023383029569534,3226770.822486,0.017635821738009
10419200,0.97906023625917,0.017544386876113,0.006685489087237,0.0066854890872225,0.0041734087016536,-0.0017149328041084,0.0017149328041175,5.1377253989569e-15,4.8456754973515e-15,-1.752652340027e-15,9.8648751054253e-15,-0.0018431039985552,0.0018431039985607,-0.0018431030891186,0.0018431030891248,-0.0018431039918567,0.0018431039918704,-0.001843103095803,0.0018431030958155,-0.0014410442861166,0.0014410442861304,-0.0014410448837064,0.0014410448837195,-2.5840975281825e-15,-1.445441653871e-14,9.6650945290789e-09,-9.6651254357582e-09,-0.0017149328041193,0.0017149328040992,-0.0018431007699047,0.0018431072089524,-0.0018431063177812,0.0018430998787003,-0.0018431007699093,0.0018431072089487,-0.0018431063177859,0.0018430998786961,-0.0014410349161244,0.0014410538713547,-0.0014410542537504,0.0014410352984538,-0.0017263598688926,0.0017263534408566,-0.0017263598689072,0.0017263534408481,5.7187227472674e-09,5.7187230516716e-09,-0.00079210103600052,0.00079211451954524,-3.8549842627189e-09,1.5482291105366e-08,-0.0008629531310367,0.00086296049149013,-0.00086294669179455,0.00086296693073321,-0.00086295313103618,0.00086296049148942,-0.00086294669179293,0.00086296693073226,-0.00099123789654093,0.0009912563420851,-0.00099123789654335,0.00099125634208611,0.62047456207712,120135,2834,0.0071194182381282,0.0071194182381135,0.0032988925467389,38.100847273919,0.00022000677819135,0.00022000677819135,0.00022000677819135,3107676.2697295,0.017692856558445
10919200,0.98457521550929,0.017623954108913,0.006715637118522,0.0067156371185075,0.0041926798718833,-0.0017241400234162,0.001724140023424,4.0216418474845e-15,3.7441209137938e-15,-1.8110623203481e-15,9.5847071937744e-15,-0.0018532124510168,0.0018532124510208,-0.0018532119531413,0.0018532119531453,-0.0018532124487146,0.0018532124487262,-0.0018532119554286,0.0018532119554399,-0.0014478260968999,0.0014478260969123,-0.0014478268105151,0.0014478268105266,-4.1695196828593e-15,-1.5746627407224e-14,9.6377595726698e-09,-9.637796873877e-09,-0.0017241400234285,0.0017241400234043,-0.0018532092635911,0.0018532156611514,-0.0018532151405812,0.0018532087429785,-0.0018532092635951,0.0018532156611474,-0.0018532151405851,0.0018532087429746,-0.0014478167788371,0.0014478356885695,-0.0014478361286353,0.0014478172188221,-0.0017360688318635,0.0017360624292872,-0.0017360688318754,0.0017360624292763,4.0999592990035e-09,4.0999595766081e-09,-0.00079069995007954,0.00079070930311169,-5.3889613685856e-09,1.3850056392038e-08,-0.00086351707695431,0.00086352080921645,-0.00086351067826249,0.00086352720791032,-0.00086351707695404,0.00086352080921651,-0.00086351067826235,0.00086352720791046,-0.00099108815283082,0.00099110314954756,-0.00099108815283143,0.00099110314954739,0.59839954967324,120135,2834,0.0071574838934564,0.0071574838934417,0.0032931522024855,37.946339257281,0.00021877071405825,0.00021877071405825,0.00021877071405825,2986196.7152629,0.017764508719891
11419200,0.98859324617614,0.01768173156565,0.0067374347835041,0.0067374347834896,0.0042068619986563,-0.0017285519558408,0.0017285519558485,3.8332358384528e-15,3.6523001894421e-15,-1.8738839306028e-15,9.7418788628761e-15,-0.001859313787475,0.0018593137874789,-0.0018593132400414,0.0018593132400456,-0.0018593137846933,0.001859313784705,-0.0018593132428081,0.0018593132428196,-0.0014494544308514,0.0014494544308629,-0.0014494551315441,0.0014494551315553,-3.6935930456208e-15,-1.5417679735761e-14,9.6351292372759e-09,-9.635166021086e-09,-0.0017285519558526,0.001728551955829,-0.0018593105971927,0.001859316995857,-0.001859316430337,0.001859310031631,-0.0018593105971968,0.001859316995853,-0.0018593164303412,0.001859310031627,-0.0014494451128482,0.0014494640165808,-0.0014494644496065,0.0014494455457926,-0.0017403002020189,0.0017402938002583,-0.001740300202031,0.0017402938002475,4.281613391409e-09,4.2816135530862e-09,-0.00078882413761283,0.00078883395908661,-5.2112969532071e-09,1.4027934995308e-08,-0.0008611251647259,0.00086112932421794,-0.00086111876512524,0.00086113572382042,-0.00086112516472581,0.00086112932421757,-0.00086111876512511,0.00086113572382083,-0.00099119967064787,0.00099121505268001,-0.00099119967064746,0.00099121505267902,0.59529609841673,120135,2834,0.0071757340806338,0.0071757340806189,0.0032854129950541,37.628694846941,0.00021622955877552,0.00021622955877552,0.00021622955877552,2943415.7323422,0.017793785143746
11919200,0.99150508643887,0.017724466312067,0.0067534806432434,0.0067534806432289,0.004217505025595,-0.0017324966195801,0.0017324966195873,3.5015989109098e-15,3.3796614595447e-15,-1.9283528548498e-15,9.3105390988333e-15,-0.001863885605265,0.0018638856052684,-0.0018638849970766,0.0018638849970802,-0.0018638856019346,0.0018638856019459,-0.0018638850003916,0.0018638850004025,-0.0014518364430105,0.001451836443022,-0.0014518371282569,0.0014518371282681,-4.8777333415358e-15,-1.6311927003518e-14,9.6696694698028e-09,-9.6697089254564e-09,-0.0017324966195927,0.0017324966195671,-0.001863882399319,0.0018638888240249,-0.0018638882030377,0.0018638817782861,-0.0018638823993228,0.001863888824021,-0.0018638882030414,0.0018638817782817,-0.0014518270878631,0.0014518460583101,-0.0014518464834623,0.0014518275129301,-0.0017445799506086,0.0017445735249492,-0.0017445799506199,0.0017445735249379,4.5249199798061e-09,4.5249200883562e-09,-0.00078676239174586,0.00078677282955569,-5.0103461233027e-09,1.4304417640031e-08,-0.0008597380435996,0.00085974272592264,-0.00085973161774712,0.00085974915177761,-0.00085973804359976,0.0008597427259228,-0.00085973161774684,0.00085974915177745,-0.00099013197743112,0.0009901478967126,-0.00099013197743134,0.00099014789671285,0.60696177271668,120135,2834,0.0071920418784156,0.0071920418784007,0.0032768997703598,37.105361199824,0.00021204288959859,0.00021204288959859,0.00021204288959859,2878165.583545,0.017818322037606
12419200,0.99364870357003,0.017756237523799,0.0067653732222262,0.0067653732222117,0.0042254910793606,-0.0017364852251009,0.0017364852251085,3.8510588233847e-15,3.7975310468568e-15,-1.7433585063002e-15,9.4269473073483e-15,-0.0018678506385653,0.0018678506385693,-0.0018678500889038,0.0018678500889078,-0.0018678506358583,0.0018678506358694,-0.0018678500915961,0.0018678500916073,-0.0014551423156374,0.0014551423156496,-0.0014551430160807,0.0014551430160922,-4.3156328662607e-15,-1.5630832805883e-14,9.6677855066392e-09,-9.6678228217005e-09,-0.0017364852251131,0.0017364852250888,-0.001867847437696,0.0018678538578842,-0.0018678532897872,0.0018678468695566,-0.0018678474376998,0.0018678538578805,-0.0018678532897911,0.0018678468695527,-0.0014551329655282,0.0014551519334143,-0.0014551523662477,0.0014551333982805,-0.0017490770061614,0.0017490705828828,-0.0017490770061731,0.0017490705828721,4.3020460707966e-09,4.3020461325613e-09,-0.00078520922829968,0.00078521909586839,-5.2236358761071e-09,1.4081610463749e-08,-0.00085967841486015,0.00085968258540445,-0.0008596719931665,0.00085968900710009,-0.00085967841485994,0.00085968258540442,-0.0008596719931665,0.0008596890071002,-0.00098888051479393,0.00098889595985609,-0.0009888805147943,0.00098889595985598,0.61229629495378,120135,2834,0.0072085243359218,0.0072085243359071,0.0032704939587883,36.80262902194,0.00020962103217552,0.00020962103217552,0.00020962103217552,2799419.8972164,0.017845361290363
12919200,0.99520818934337,0.017778638618317,0.0067737571991205,0.006773757199106,0.0042311242200909,-0.001738153062128,0.0017381530621357,3.8937634011421e-15,3.8418826331227e-15,-1.7462407711902e-15,9.4572993212916e-15,-0.0018697066070893,0.0018697066070933,-0.0018697059588401,0.0018697059588442,-0.0018697066034939,0.0018697066035052,-0.0018697059624208,0.0018697059624322,-0.001456106119366,0.0014561061193779,-0.0014561067901163,0.0014561067901279,-4.1188741712214e-15,-1.5483219438532e-14,9.7215404699306e-09,-9.7215775150316e-09,-0.0017381530621401,0.0017381530621161,-0.0018697033817113,0.0018697098425186,-0.0018697091842323,0.0018697027233828,-0.0018697033817151,0.0018697098425147,-0.001869709184236,0.0018697027233789,-0.0014560967115005,0.0014561157830445,-0.0014561161980389,0.0014560971264151,-0.001750954261592,0.0017509478010562,-0.0017509542616037,0.0017509478010456,4.7029429066093e-09,4.7029429459095e-09,-0.00078270868566606,0.00078271956966504,-4.888667900465e-09,1.4533919184016e-08,-0.00085807565644474,0.00085808068042073,-0.00085806919395248,0.00085808714291506,-0.00085807565644464,0.00085808068042067,-0.00085806919395242,0.00085808714291516,-0.00098682520474646,0.00098684153418217,-0.00098682520474696,0.00098684153418229,0.59298586601528,120135,2834,0.0072154116140425,0.0072154116140278,0.0032601468560854,36.1372372427,0.0002042978979416,0.0002042978979416,0.0002042978979416,2744934.6313424,0.017848854311124
13419200,0.99631926227632,0.017794414727868,0.0067796524789681,0.0067796524789536,0.0042351097699463,-0.001736386448334,0.001736386448342,4.0395236541487e-15,3.9687022882811e-15,-1.7003598198806e-15,9.4447114705477e-15,-0.0018688524242089,0.0018688524242131,-0.0018688515877299,0.0018688515877343,-0.0018688524190614,0.0018688524190731,-0.0018688515928631,0.0018688515928744,-0.0014529657896264,0.0014529657896381,-0.0014529664089907,0.0014529664090025,-3.91029230796e-15,-1.522306068124e-14,9.8930291392218e-09,-9.8930649332307e-09,-0.0017363864483459,0.0017363864483226,-0.0018688491303071,0.0018688557137055,-0.0018688548816458,0.0018688482982061,-0.001868849130311,0.0018688557137018,-0.0018688548816502,0.0018688482982021,-0.0014529562048877,0.0014529756097752,-0.0014529759937851,0.0014529565888192,-0.0017489740098565,0.0017489674322884,-0.0017489740098687,0.0017489674322781,5.4611776043946e-09,5.4611776700062e-09,-0.00077872103954209,0.00077873384420706,-4.3232509067517e-09,1.5459789416647e-08,-0.00085329336457898,0.00085329998472989,-0.00085328677922729,0.00085330657008311,-0.00085329336457864,0.00085329998472948,-0.00085328677922691,0.00085330657008319,-0.00098404036125722,0.00098405840876608,-0.0009840403612572,0.00098405840876616,0.58571221969561,120135,2834,0.0072081072623675,0.0072081072623527,0.0032436081716461,34.796810884518,0.00019357448707614,0.00019357448707614,0.00019357448707614,2739740.6021983,0.017817150373713
13919200,0.99713739859722,0.017805883769557,0.0067839348197099,0.0067839348196954,0.004238014130152,-0.001735839284184,0.0017358392841913,3.6967105974405e-15,3.6345948479752e-15,-1.8935892109729e-15,9.1894251517224e-15,-0.0018686494783184,0.0018686494783223,-0.0018686487393655,0.0018686487393691,-0.0018686494744417,0.0018686494744528,-0.0018686487432275,0.0018686487432383,-0.0014516312878248,0.0014516312878364,-0.0014516319362268,0.001451631936238,-4.4908628072239e-15,-1.5753930263171e-14,9.977418931962e-09,-9.9774568434614e-09,-0.0017358392841963,0.0017358392841717,-0.0018686461655587,0.0018686527984895,-0.0018686520521395,0.0018686454191655,-0.0018686461655627,0.0018686527984856,-0.0018686520521434,0.0018686454191618,-0.0014516216275628,0.0014516412003067,-0.0014516415965467,0.0014516220237209,-0.001748539308698,0.001748532676926,-0.0017485393087098,0.0017485326769154,5.0886551325145e-09,5.0886551876947e-09,-0.00077578436121421,0.00077579620945313,-4.7640878353648e-09,1.5176098596559e-08,-0.00085035301920869,0.00085035874844106,-0.00085034638384331,0.00085036538380834,-0.0008503530192084,0.00085035874844096,-0.00085034638384323,0.00085036538380855,-0.00098169150893637,0.00098170882122576,-0.00098169150893652,0.00098170882122561,0.57829083832698,120135,2834,0.0072058416326342,0.0072058416326199,0.0032314285756879,33.82970590264,0.00018583764722112,0.00018583764722112,0.00018583764722112,2716643.7304068,0.017800143009745
14419200,0.99774076425132,0.01781415690954,0.0067870234137421,0.0067870234137276,0.0042401100820698,-0.0017345255333779,0.0017345255333845,3.0122020969407e-15,2.9262635458338e-15,-1.9682928111822e-15,9.0858989026136e-15,-0.0018676456809408,0.0018676456809439,-0.0018676448820525,0.0018676448820559,-0.0018676456766989,0.0018676456767094,-0.0018676448862799,0.0018676448862896,-0.0014496159662353,0.001449615966245,-0.001449616599489,0.0014496165994989,-4.3148681837388e-15,-1.5520249787059e-14,1.0079494515155e-08,-1.0079532135308e-08,-0.0017345255333895,0.0017345255333653,-0.0018676423314832,0.0018676490343949,-0.0018676482315232,0.0018676415285696,-0.0018676423314868,0.0018676490343909,-0.001867648231527,0.0018676415285649,-0.0014496062039143,0.0014496259760883,-0.0014496263618661,0.0014496065896106,-0.0017473192777737,0.0017473125773189,-0.0017473192777851,0.0017473125773066,5.3365473387938e-09,5.3365474222276e-09,-0.00077239595064859,0.0007724084238416,-4.6236080047544e-09,1.5525553368844e-08,-0.00084691671920481,0.00084692293758783,-0.0008469100135421,0.00084692964325208,-0.00084691671920478,0.00084692293758802,-0.00084691001354281,0.00084692964325316,-0.00097884214250744,0.00097886004551786,-0.00097884214250594,0.00097886004551632,0.56553165911811,120135,2834,0.0072004055141756,0.0072004055141609,0.0032173729158923,32.643707698487,0.0001763496615879,0.0001763496615879,0.0001763496615879,2698760.6180579,0.017774772495728
14919200,0.9981735491129,0.017820144335826,0.0067892541115249,0.0067892541115104,0.0042416361127909,-0.0017310112988617,0.001731011298869,3.630359683239e-15,3.520657152223e-15,-1.8255912882628e-15,9.1487205128683e-15,-0.0018645919343773,0.0018645919343811,-0.0018645908978772,0.001864590897881,-0.0018645919281947,0.0018645919282055,-0.0018645909040455,0.0018645909040564,-0.0014452446316167,0.0014452446316283,-0.001445245202232,0.0014452452022424,-4.3037508763061e-15,-1.5439989830858e-14,1.0313703896356e-08,-1.0313741052846e-08,-0.0017310112988737,0.0017310112988495,-0.0018645884927357,0.0018645953619692,-0.0018645943395334,0.0018645874702569,-0.0018645884927395,0.0018645953619653,-0.001864594339537,0.0018645874702531,-0.0014452346287042,0.0014452548564401,-0.0014452552052008,0.001445234977384,-0.0017438199533995,0.0017438130935519,-0.0017438199534111,0.0017438130935413,6.3004863112084e-09,6.3004864187294e-09,-0.00076711857241851,0.00076713348396265,-3.9205460820672e-09,1.6718969279241e-08,-0.00084122163392551,0.00084122986419776,-0.00084121476135754,0.00084123673676759,-0.00084122163392507,0.00084122986419773,-0.00084121476135779,0.00084123673676786,-0.00097430447778702,0.00097432457308139,-0.00097430447778711,0.00097432457308058,0.57027522422371,120135,2834,0.0071858697420616,0.007185869742047,0.0031954722497503,30.581053768866,0.00015984843015093,0.00015984843015093,0.00015984843015093,2696262.1635504,0.017722895113465
15419200,0.99846844503095,0.017824512557791,0.006790873437636,0.0067908734376215,0.0042427656825332,-0.0017257150941034,0.0017257150941105,3.5473622187545e-15,3.4090723257688e-15,-1.7940628396706e-15,9.0334887390022e-15,-0.0018591512833109,0.0018591512833144,-0.0018591498712664,0.00185914987127,-0.0018591512742276,0.0018591512742384,-0.0018591498803345,0.0018591498803452,-0.0014396531200977,0.0014396531201086,-0.0014396535876879,0.0014396535876985,-4.627093939574e-15,-1.5630377282115e-14,1.0715372539152e-08,-1.0715410853804e-08,-0.0017257150941154,0.0017257150940908,-0.0018591476866091,0.0018591548388909,-0.0018591534679821,0.0018591463156571,-0.001859147686613,0.001859154838887,-0.0018591534679859,0.0018591463156532,-0.0014396427070432,0.0014396637165283,-0.0014396640007997,0.0014396429912316,-0.0017388926038154,0.0017388854714085,-0.0017388926038269,0.001738885471398,7.8577895650351e-09,7.857789700242e-09,-0.00075873252036455,0.0007587513610322,-2.8049974682436e-09,1.8671007011206e-08,-0.00083364435776718,0.00083365578659568,-0.00083363720110379,0.00083366294326083,-0.00083364435776658,0.00083365578659542,-0.000833637201104,0.00083366294326107,-0.00096612458730111,0.00096614823827437,-0.00096612458730088,0.00096614823827394,0.60998272966583,120135,2834,0.0071639504368142,0.0071639504367993,0.0031606749448593,27.073626230237,0.0001317890098419,0.0001317890098419,0.0001317890098419,2671764.4636416,0.017642871711338
15919200,0.99869503436684,0.01782812464499,0.0067922068963759,0.0067922068963613,0.0042437108522525,-0.0017253128965578,0.0017253128965652,3.8566468879672e-15,3.5839493363373e-15,-1.6179505727206e-15,9.0773109296761e-15,-0.0018575778221021,0.001857577822106,-0.0018575768939823,0.0018575768939861,-0.0018575778185037,0.0018575778185147,-0.0018575768975662,0.001857576897577,-0.0014401977039378,0.0014401977039496,-0.0014401983032571,0.001440198303268,-4.5053917751386e-15,-1.5358423159061e-14,1.0839792283048e-08,-1.0839829573967e-08,-0.0017253128965698,0.0017253128965456,-0.0018575742239262,0.0018575814300349,-0.0018575804921724,0.0018575732860209,-0.0018575742239299,0.0018575814300312,-0.001857580492176,0.0018575732860171,-0.0014401871995905,0.0014402084631561,-0.001440208807661,0.0014401875440151,-0.001739239408232,0.0017392322020531,-0.0017392394082432,0.0017392322020429,5.9854621195904e-09,5.9854623983206e-09,-0.00075430780210852,0.00075432186797018,-4.7308682551101e-09,1.6940427714601e-08,-0.00083199740946102,0.00083200451054113,-0.00083199019757804,0.00083201172242615,-0.00083199740946076,0.00083200451054117,-0.00083199019757791,0.00083201172242629,-0.00096072520304941,0.00096074496840762,-0.00096072520304996,0.00096074496840741,0.65577890302224,120135,2834,0.0071622592300326,0.007162259230018,0.0031423229830452,25.355433655756,0.00011804346924605,0.00011804346924605,0.00011804346924605,2594375.5079189,0.017620762698858
16419200,0.99887888480271,0.017830808314229,0.0067932026145374,0.0067932026145229,0.004244403085169,-0.0017257591690804,0.0017257591690879,3.8457060457319e-15,3.6918872153798e-15,-1.6758899791821e-15,9.2424235326583e-15,-0.001856994495211,0.0018569944952151,-0.0018569937776874,0.0018569937776913,-0.0018569944934162,0.0018569944934273,-0.0018569937794674,0.0018569937794785,-0.0014417025358171,0.0014417025358289,-0.0014417031839933,0.0014417031840046,-4.6385641774014e-15,-1.510219557763e-14,1.0742259081905e-08,-1.0742296105375e-08,-0.0017257591690924,0.0017257591690684,-0.0018569909429465,0.0018569980740636,-0.001856997329966,0.0018569901988063,-0.0018569909429501,0.0018569980740599,-0.0018569973299695,0.0018569901988027,-0.0014416921370918,0.0014417132133444,-0.0014417135827739,0.0014416925064421,-0.0017400932981762,0.0017400861605363,-0.0017400932981871,0.0017400861605267,5.1337544040469e-09,5.1337545664102e-09,-0.00075128513157609,0.00075129704519063,-5.4614953166883e-09,1.5997100763958e-08,-0.00083167500207755,0.00083168023784356,-0.00083166786428035,0.00083168737564276,-0.00083167500207741,0.00083168023784347,-0.00083166786428034,0.00083168737564297,-0.00095677328241269,0.00095679118471162,-0.00095677328241298,0.00095679118471106,0.60060692861646,120135,2834,0.0071640775149023,0.0071640775148877,0.0031297993362542,24.412882070118,0.00011050305656095,0.00011050305656095,0.00011050305656095,2519544.138432,0.017611727139673
16919200,0.9990316757168,0.017833298582471,0.0067941180271799,0.0067941180271654,0.0042450625281253,-0.0017218052964134,0.0017218052964207,3.7519442042094e-15,3.5055987887163e-15,-1.5695402869157e-15,8.9533147176753e-15,-0.0018547788212433,0.0018547788212472,-0.0018547781742498,0.0018547781742534,-0.0018547788199885,0.0018547788199993,-0.0018547781754903,0.0018547781755009,-0.0014359213352699,0.0014359213352811,-0.0014359220011127,0.0014359220011232,-4.5626253208107e-15,-1.5305728996772e-14,1.0606429638694e-08,-1.0606466845571e-08,-0.0017218052964253,0.0017218052964012,-0.0018547753180064,0.0018547823561814,-0.001854781677501,0.0018547746392831,-0.00185477531801,0.0018547823561778,-0.0018547816775046,0.0018547746392795,-0.0014359110736001,0.001435931884471,-0.0014359322628385,0.0014359114518876,-0.0017351809849958,0.0017351739383029,-0.0017351809850067,0.0017351739382926,4.8161056850017e-09,4.8161059233876e-09,-0.00074872252030363,0.00074873363791855,-5.6348782778807e-09,1.5544516660607e-08,-0.00082620001984485,0.00082620467922602,-0.00082619297632257,0.00082621172275037,-0.00082620001984456,0.00082620467922609,-0.00082619297632237,0.00082621172275051,-0.00095626925016349,0.00095628639557131,-0.0009562692501638,0.00095628639557091,0.66895807833747,120135,2834,0.0071477429715356,0.007147742971521,0.00311914659909,23.780330850231,0.00010544264680185,0.00010544264680185,0.00010544264680185,2572684.7840901,0.01756763288374
17419200,0.99915153906593,0.017835140466678,0.0067947983500248,0.0067947983500103,0.0042455437666424,-0.0017224451483506,0.0017224451483581,3.9147039378936e-15,3.6037722601724e-15,-1.6698313407399e-15,9.2071304931894e-15,-0.0018535093150749,0.0018535093150789,-0.0018535083890909,0.0018535083890948,-0.001853509311199,0.0018535093112102,-0.0018535083929523,0.0018535083929633,-0.0014382043844228,0.0014382043844348,-0.0014382049684954,0.0014382049685064,-4.4491581989181e-15,-1.5528420837991e-14,1.0716220151244e-08,-1.0716257543787e-08,-0.0017224451483628,0.0017224451483385,-0.0018535057559666,0.0018535128811713,-0.0018535119482135,0.0018535048229661,-0.0018535057559704,0.0018535128811675,-0.0018535119482172,0.0018535048229623,-0.0014381939992306,0.0014382150197686,-0.0014382153537446,0.001438194333126,-0.0017370097211374,0.0017370025971901,-0.0017370097211488,0.0017370025971797,5.9968640255163e-09,5.9968643259407e-09,-0.00074448581066019,0.00074449991331044,-4.599365215923e-09,1.6826848427243e-08,-0.00082609641991436,0.00082610356673901,-0.0008260892888981,0.00082611069775728,-0.00082609641991409,0.00082610356673906,-0.00082608928889797,0.00082611069775744,-0.00095019465810235,0.0009502143703787,-0.00095019465810292,0.00095021437037848,0.63180122883188,120135,2834,0.0071503522176604,0.0071503522176459,0.0031015995198614,21.984444739931,9.1075557919446e-05,9.1075557919446e-05,9.1075557919446e-05,2470273.6538199,0.017555101860536
17919200,0.99924311561014,0.017836446229049,0.0067952822258766,0.0067952822258621,0.0042458817773103,-0.0017158240247726,0.0017158240247809,4.4351586265954e-15,4.1292856178647e-15,-1.3832518602522e-15,9.3911248722874e-15,-0.0018481321250544,0.0018481321250594,-0.001848131018536,0.0018481310185411,-0.001848132119756,0.0018481321197681,-0.0018481310238207,0.0018481310238323,-0.0014302407546582,0.0014302407546708,-0.0014302412741281,0.0014302412741408,-4.3063978542663e-15,-1.5256259460238e-14,1.089935933521e-08,-1.0899395843038e-08,-0.0017158240247846,0.0017158240247611,-0.0018481284944926,0.0018481357494787,-0.001848134649112,0.0018481273940843,-0.0018481284944966,0.0018481357494752,-0.0018481346491162,0.0018481273940807,-0.0014302301821274,0.0014302515590439,-0.0014302518467178,0.0014302304697208,-0.0017296621406833,0.0017296548918319,-0.0017296621406955,0.0017296548918214,6.7422726608505e-09,6.7422729633067e-09,-0.00073772529709414,0.00073774128555559,-4.0566897290899e-09,1.7751934080916e-08,-0.00081765912121004,0.00081766782016142,-0.00081765186040734,0.00081767508096651,-0.00081765912120988,0.00081766782016132,-0.00081765186040681,0.00081767508096658,-0.00094504393765047,0.0009450653534248,-0.00094504393765186,0.00094506535342504,0.58584131109057,120135,2834,0.0071229706656605,0.0071229706656454,0.0030735294544824,19.504841166728,7.1238729333825e-05,7.1238729333825e-05,7.1238729333825e-05,2503759.0807623,0.017470811252769
18419200,0.99931590906734,0.017837512660646,0.0067956762994493,0.0067956762994348,0.0042461600617623,-0.0017100126346036,0.001710012634614,6.1318126773318e-15,5.8033521233409e-15,-9.8473462291557e-16,1.0474327075321e-14,-0.0018437225039125,0.0018437225039188,-0.0018437214961284,0.0018437214961336,-0.0018437224998251,0.0018437224998384,-0.0018437215001997,0.001843721500213,-0.0014226467402397,0.0014226467402553,-0.0014226472965834,0.0014226472965984,-3.6415358124041e-15,-1.5398916981745e-14,1.0985011331599e-08,-1.0985042307741e-08,-0.0017100126346152,0.0017100126345945,-0.001843718853786,0.0018437261593734,-0.0018437251462658,0.0018437178406408,-0.0018437188537901,0.0018437261593707,-0.0018437251462712,0.0018437178406376,-0.0014226360910555,0.0014226576386981,-0.0014226579458264,0.0014226363981155,-0.0017233155217438,0.0017233082176647,-0.0017233155217605,0.001723308217651,6.3192599442239e-09,6.3192602614661e-09,-0.00073260679675786,0.00073262171021937,-4.549750405171e-09,1.7419237147751e-08,-0.00081006865067698,0.00081007640339739,-0.00081006133897281,0.00081008371510346,-0.00081006865067839,0.00081007640339894,-0.00081006133897091,0.00081008371510079,-0.00094168526919822,0.00094170584505651,-0.00094168526920038,0.00094170584505847,0.60198892681265,120135,2834,0.0070989491112057,0.0070989491111903,0.0030522615312607,17.481196719488,5.5049573755902e-05,5.5049573755902e-05,5.5049573755902e-05,2555233.9492578,0.017400284112635
18919200,0.99937943316973,0.017838494828692,0.006796038173776,0.0067960381737615,0.0042464184811543,-0.0017104897784087,0.0017104897784164,4.0223477082739e-15,3.6795346515657e-15,-1.8210620148643e-15,9.5552963275503e-15,-0.0018435576901782,0.0018435576901822,-0.0018435570460408,0.0018435570460447,-0.0018435576894037,0.0018435576894152,-0.0018435570468004,0.0018435570468116,-0.0014234969970142,0.0014234969970265,-0.0014234976668741,0.0014234976668854,-4.2217533812733e-15,-1.5779254857169e-14,1.0787761904976e-08,-1.0787799235642e-08,-0.0017104897784209,0.0017104897783967,-0.0018435541300476,0.0018435612864268,-0.0018435606061855,0.0018435534497636,-0.0018435541300515,0.0018435612864229,-0.0018435606061894,0.0018435534497597,-0.0014234865601531,0.0014235077275648,-0.0014235081037926,0.0014234869363001,-0.0017243649422162,0.0017243577755344,-0.0017243649422281,0.0017243577755235,4.8307637444181e-09,4.8307640837085e-09,-0.00073093448191698,0.00073094562420067,-5.79658899095e-09,1.5743170587747e-08,-0.00080977601759358,0.0008097805791702,-0.00080976885482847,0.00080978774193739,-0.00080977601759331,0.00080978057917028,-0.0008097688548283,0.00080978774193754,-0.00093948038354128,0.00093949767688523,-0.00093948038354187,0.00093949767688493,0.63537813434474,120135,2834,0.0071009107178673,0.0071009107178526,0.0030453247824567,16.875569508849,5.0204556070791e-05,5.0204556070791e-05,5.0204556070791e-05,2510965.3285176,0.017397222786894
19419200,0.99943934308732,0.017839465296186,0.0067963947291955,0.006796394729181,0.0042466758378092,-0.0017136339497369,0.0017136339497446,4.044288214477e-15,3.6454768684781e-15,-1.7838278582246e-15,9.4707106762898e-15,-0.0018457745698159,0.0018457745698199,-0.0018457742475203,0.0018457742475242,-0.0018457745710042,0.0018457745710156,-0.0018457742463173,0.0018457742463284,-0.0014275468635342,0.0014275468635465,-0.0014275476272606,0.0014275476272718,-4.2126360127438e-15,-1.5639142294681e-14,1.0326917006415e-08,-1.0326954158227e-08,-0.0017136339497491,0.001713633949725,-0.0018457711779576,0.001845778016173,-0.0018457776393927,0.001845770801135,-0.0018457711779615,0.0018457780161691,-0.0018457776393965,0.0018457708011311,-0.0014275368893516,0.0014275571578738,-0.0014275576015003,0.0014275373328976,-0.0017280165581345,0.0017280097026899,-0.0017280165581463,0.0017280097026791,3.454117415643e-09,3.454117811366e-09,-0.00073189204190927,0.00073189972039481,-6.6840639592467e-09,1.3909627260182e-08,-0.00081276465382168,0.00081276646650435,-0.00081275780975679,0.00081277331057131,-0.00081276465382139,0.00081276646650445,-0.00081275780975662,0.00081277331057148,-0.00093948607235493,0.00093950015201375,-0.00093948607235561,0.00093950015201343,0.66499874152657,120135,2834,0.0071138998171514,0.0071138998171368,0.003049314504914,17.545231294072,5.5561850352578e-05,5.5561850352578e-05,5.5561850352578e-05,2448481.6307316,0.017427718846774
19919200,0.99949711173437,0.017840385840857,0.0067967330892955,0.006796733089281,0.0042469196622802,-0.0017169184756874,0.0017169184756946,3.811471797447e-15,3.4193661289472e-15,-1.2403738721355e-15,8.4597415607023e-15,-0.0018484418840829,0.001848441884087,-0.0018484416770469,0.0018484416770512,-0.0018484418854784,0.001848441885489,-0.0018484416756383,0.0018484416756485,-0.0014315943680172,0.0014315943680289,-0.0014315951642897,0.0014315951642996,-4.3622785000921e-15,-1.4172333818827e-14,9.9939996847333e-09,-9.9940359364851e-09,-0.0017169184756988,0.0017169184756757,-0.0018484386048808,0.001848445219804,-0.0018484449562638,0.0018484383412984,-0.0018484386048836,0.0018484452198005,-0.0018484449562675,0.001848438341295,-0.0014315847212365,0.0014316043379351,-0.0014316048111266,0.0014315851943483,-0.0017314636052862,0.0017314569725691,-0.001731463605297,0.00173145697256,2.9281214584849e-09,2.928121725303e-09,-0.00073359791187666,0.00073360427842385,-6.8728602113658e-09,1.3050205277082e-08,-0.00081604934263429,0.00081605021805513,-0.00081604272231823,0.000816056838372,-0.00081604934263406,0.00081605021805514,-0.00081604272231824,0.00081605683837239,-0.00094053298039403,0.00094054573101681,-0.00094053298039443,0.0009405457310164,0.65387747033949,120135,2834,0.0071274721446299,0.0071274721446152,0.0030564150965451,18.680887978076,6.4647103824608e-05,6.4647103824608e-05,6.4647103824608e-05,2395624.1382227,0.0174625657957
20419200,0.99954869803508,0.01784124004222,0.0067970460219983,0.0067970460219838,0.0042471479982384,-0.0017161030551551,0.0017161030551623,3.7920606257391e-15,3.4653059019893e-15,-1.3910163289354e-15,8.6392654881343e-15,-0.0018480810875968,0.0018480810876008,-0.0018480805796827,0.0018480805796866,-0.0018480810857986,0.0018480810858093,-0.0018480805814669,0.0018480805814773,-0.0014303299781893,0.0014303299782007,-0.0014303306793398,0.0014303306793502,-4.6309173521831e-15,-1.484042060133e-14,9.8722309496725e-09,-9.8722677730586e-09,-0.0017161030551669,0.0017161030551431,-0.0018480778251835,0.0018480843766039,-0.0018480838421101,0.0018480772906473,-0.001848077825187,0.0018480843766004,-0.0018480838421136,0.0018480772906439,-0.0014303204326149,0.0014303398034831,-0.0014303402249698,0.0014303208540226,-0.0017303209789203,0.0017303144214602,-0.0017303209789309,0.0017303144214507,4.1582452338688e-09,4.1582455555997e-09,-0.0007324958952611,0.00073250538667513,-5.5623061623741e-09,1.4147302036319e-08,-0.00081451924197827,0.00081452291641747,-0.00081451268685941,0.00081452947153837,-0.00081451924197801,0.00081452291641754,-0.00081451268685926,0.00081452947153851,-0.00094002504105057,0.0009400403191525,-0.00094002504105116,0.00094004031915226,0.67876339722381,120135,2834,0.0071240998111005,0.0071240998110859,0.0030518518835717,18.601952257373,6.4015618058982e-05,6.4015618058982e-05,6.4015618058982e-05,2392690.1955054,0.017451058070597
20919200,0.99959160567778,0.017841925400281,0.0067972976075378,0.0067972976075233,0.0042473301852199,-0.0017147433155581,0.0017147433155655,4.072757932982e-15,3.6756524172241e-15,-1.5058363506743e-15,8.6866169827551e-15,-0.0018462289853909,0.0018462289853953,-0.0018462281715503,0.0018462281715542,-0.0018462289808576,0.0018462289808682,-0.0018462281760693,0.00184622817608,-0.0014293596901333,0.0014293596901461,-0.0014293602920047,0.0014293602920168,-4.8129117923779e-15,-1.5186335585335e-14,9.9995573103129e-09,-9.9995943679619e-09,-0.00171474331557,0.0017147433155462,-0.0018462256602408,0.0018462323114323,-0.0018462314967136,0.0018462248454801,-0.0018462256602442,0.0018462323114286,-0.0018462314967171,0.0018462248454767,-0.0014293500036919,0.0014293696181726,-0.0014293699785059,0.0014293503639457,-0.001729234092513,0.0017292274452944,-0.0017292340925243,0.0017292274452847,5.4528558538943e-09,5.452856232338e-09,-0.00072892179774427,0.00072893456156881,-4.4319763239376e-09,1.5560639213085e-08,-0.00081239362962094,0.00081240005215877,-0.00081238697502742,0.0008124067067545,-0.00081239362962025,0.00081240005215898,-0.00081238697502768,0.00081240670675448,-0.00093607540938769,0.00093609351157856,-0.00093607540938925,0.00093609351158002,0.65509998704481,120135,2834,0.0071184594041586,0.007118459404144,0.0030370363438579,17.278575321894,5.3428602575154e-05,5.3428602575154e-05,5.3428602575154e-05,2353657.2924499,0.017424511171085
21419200,0.99962604210756,0.017842476513991,0.0067974997171604,0.0067974997171459,0.0042474770796846,-0.0017098249786969,0.0017098249787043,3.8855871803318e-15,3.52130419128e-15,-1.4825429446248e-15,8.929256629104e-15,-0.0018420789503253,0.0018420789503293,-0.0018420779506915,0.0018420779506955,-0.0018420789445083,0.0018420789445193,-0.0018420779564942,0.001842077956505,-0.0014234677041672,0.001423467704179,-0.0014234682440529,0.0014234682440634,-4.5983889341392e-15,-1.5180063028796e-14,1.0259256223676e-08,-1.0259293358376e-08,-0.0017098249787089,0.0017098249786848,-0.0018420755292077,0.0018420823604239,-0.0018420813718235,0.0018420745405646,-0.0018420755292114,0.0018420823604203,-0.0018420813718271,0.0018420745405609,-0.0014234577557444,0.0014234778769201,-0.0014234781925324,0.0014234580712771,-0.0017239712569805,0.0017239644341365,-0.0017239712569913,0.0017239644341265,6.2392712016569e-09,6.2392715542133e-09,-0.00072356721105587,0.00072358195987293,-3.9239990527339e-09,1.6604354681451e-08,-0.00080605202987261,0.00080606002484561,-0.00080604519461016,0.00080606686011016,-0.0008060520298724,0.00080606002484563,-0.00080604519461004,0.00080606686011028,-0.00093178153196203,0.00093180147252572,-0.0009317815319626,0.00093180147252522,0.65600719227807,120135,2834,0.0070981176810725,0.0070981176810578,0.0030148064360174,15.233244634814,3.7065957078509e-05,3.7065957078509e-05,3.7065957078509e-05,2371746.0811602,0.017360499695189
21919200,0.99965532464357,0.017842939249223,0.0067976695285601,0.0067976695285456,0.0042476001921176,-0.0017077636945665,0.0017077636945739,3.9062336084211e-15,3.541127115115e-15,-1.5673638828151e-15,9.005371950892e-15,-0.0018400464203823,0.0018400464203863,-0.0018400456197306,0.0018400456197345,-0.0018400464167994,0.0018400464168104,-0.0018400456232992,0.0018400456233099,-0.0014211633464284,0.0014211633464402,-0.0014211639535918,0.0014211639536025,-4.5119209874404e-15,-1.5263590807962e-14,1.0339070661981e-08,-1.0339107817717e-08,-0.0017077636945784,0.0017077636945544,-0.0018400429891498,0.0018400498614546,-0.0018400490509773,0.0018400421786299,-0.0018400429891535,0.0018400498614509,-0.001840049050981,0.0018400421786262,-0.0014211533327819,0.0014211736150435,-0.0014211739672947,0.0014211536849532,-0.0017220152365925,0.0017220083645474,-0.0017220152366036,0.0017220083645373,5.4283010325226e-09,5.4283013920598e-09,-0.00072029210823727,0.00072030479423129,-4.7855079622373e-09,1.5880813722977e-08,-0.000803036177205,0.00080304233064725,-0.00080302930006303,0.00080304920779126,-0.00080303617720473,0.00080304233064733,-0.00080302930006288,0.00080304920779142,-0.00092871393800226,0.00092873221110026,-0.00092871393800291,0.0009287322111,0.64802893918605,120135,2834,0.007089586165045,0.0070895861650303,0.0030012106629478,13.997180897433,2.7177447179464e-05,2.7177447179464e-05,2.7177447179464e-05,2358831.9939314,0.017329309852621
22419200,0.99968373179638,0.01784339808209,0.0067978376166728,0.0067978376166583,0.0042477228487592,-0.0017091834914466,0.001709183491454,3.9181155983756e-15,3.545068171189e-15,-1.5939513058817e-15,9.0326064130155e-15,-0.0018416837634855,0.0018416837634895,-0.001841683479623,0.0018416834796269,-0.0018416837643304,0.0018416837643415,-0.0018416834787637,0.0018416834787744,-0.0014222652404835,0.0014222652404954,-0.0014222660169462,0.001422266016957,-4.410688785897e-15,-1.5204597090878e-14,9.9962780681837e-09,-9.9963150014054e-09,-0.0017091834914585,0.0017091834914346,-0.0018416804792277,0.0018416870990769,-0.0018416867638948,0.0018416801440034,-0.0018416804792314,0.0018416870990732,-0.0018416867638985,0.0018416801439997,-0.0014222555888602,0.0014222752082931,-0.0014222756686258,0.0014222560491132,-0.0017233826909569,0.0017233760554178,-0.0017233826909681,0.0017233760554076,3.253998196642e-09,3.2539985643422e-09,-0.00072163869192163,0.00072164587781756,-6.5568020246364e-09,1.337699783948e-08,-0.00080406477200981,0.00080406637045347,-0.00080405814705997,0.0008040729954054,-0.00080406477200953,0.00080406637045355,-0.00080405814705981,0.00080407299540556,-0.0009303484234942,0.00093036186647272,-0.00093034842349486,0.00093036186647244,0.66209700081448,120135,2834,0.0070954627527242,0.0070954627527096,0.003006794882787,14.849245338253,3.3993962706026e-05,3.3993962706026e-05,3.3993962706026e-05,2350325.4547118,0.017346946460745
22919200,0.99971059852857,0.017843810233468,0.0067979889627876,0.0067979889627731,0.0042478323079077,-0.0017109676041003,0.0017109676041078,3.9272917886375e-15,3.5792435977415e-15,-1.607245017415e-15,9.1028983832911e-15,-0.0018431168339026,0.0018431168339067,-0.0018431164663147,0.0018431164663186,-0.0018431168332626,0.0018431168332737,-0.0018431164669404,0.0018431164669512,-0.0014243328011985,0.0014243328012104,-0.0014243335484924,0.0014243335485033,-4.3792191590372e-15,-1.5254075473649e-14,9.7656504171606e-09,-9.7656874070929e-09,-0.0017109676041123,0.0017109676040884,-0.0018431136156187,0.0018431200896512,-0.0018431196846128,0.0018431132105379,-0.0018431136156224,0.0018431200896475,-0.0018431196846165,0.0018431132105342,-0.0014243233668367,0.0014243425312866,-0.0014243429829108,0.001424323818381,-0.0017254057122315,0.0017253992280091,-0.0017254057122427,0.0017253992279989,3.5625983540292e-09,3.56259869532e-09,-0.00072229029315377,0.00072229827987147,-6.035868442842e-09,1.3448789646826e-08,-0.00080557806858346,0.00080558050301515,-0.00080557159049619,0.00080558698110445,-0.00080557806858318,0.0008055805030152,-0.00080557159049605,0.00080558698110462,-0.00093065164422772,0.00093066559210171,-0.00093065164422834,0.00093066559210146,0.62916622996942,120135,2834,0.0071028360044242,0.0071028360044096,0.0030095138096164,15.356968759051,3.8055750072406e-05,3.8055750072406e-05,3.8055750072406e-05,2317839.4901688,0.017364717779885
23419200,0.99973569622454,0.017844202408947,0.0067981326542989,0.0067981326542844,0.0042479371003638,-0.0017102815378277,0.0017102815378353,4.0475822314941e-15,3.6991222884709e-15,-1.8522963547943e-15,9.3708901963252e-15,-0.0018433222996071,0.0018433222996113,-0.0018433218896803,0.0018433218896842,-0.0018433222982986,0.00184332229831,-0.0018433218909741,0.0018433218909852,-0.0014226092203927,0.001422609220405,-0.0014226099565672,0.0014226099565787,-4.1487556113051e-15,-1.5554858564344e-14,9.6357313845073e-09,-9.6357685969939e-09,-0.0017102815378398,0.0017102815378157,-0.00184331911957,0.0018433255108962,-0.001843325069732,0.0018433186783633,-0.0018433191195738,0.0018433255108924,-0.0018433250697359,0.0018433186783595,-0.0014225999097973,0.0014226188180196,-0.0014226192672202,0.0014226003589167,-0.0017243266125435,0.0017243202134608,-0.0017243266125559,0.0017243202134504,3.720204604107e-09,3.7202049287343e-09,-0.00072248879602266,0.00072249718837038,-5.7564767530039e-09,1.3473698616214e-08,-0.00080414794414101,0.00080415082621689,-0.0008041415497162,0.00080415722064368,-0.00080414794414065,0.00080415082621711,-0.00080414154971613,0.00080415722064376,-0.00093188122831055,0.0009318954265003,-0.0009318812283112,0.00093189542650041,0.64041032017656,120135,2834,0.0071000118437125,0.0071000118436981,0.0030103318259079,15.705423573964,4.0843388591713e-05,4.0843388591713e-05,4.0843388591713e-05,2342058.7425495,0.017359798023377
23919200,0.9997604300351,0.017844617977816,0.0067982843109682,0.0067982843109537,0.0042480493558939,-0.0017136144487326,0.0017136144487402,3.9617613238522e-15,3.6331831263965e-15,-1.7536523094786e-15,9.3278915099055e-15,-0.0018462671007953,0.0018462671007993,-0.0018462669259648,0.0018462669259687,-0.0018462671011354,0.0018462671011467,-0.0018462669256099,0.001846266925621,-0.0014262617750142,0.0014262617750264,-0.0014262625864191,0.0014262625864303,-4.2434586005467e-15,-1.5503095554676e-14,9.3577323714448e-09,-9.3577693750139e-09,-0.0017136144487447,0.0017136144487207,-0.0018462640256682,0.0018462702226239,-0.0018462700011059,0.001846263804108,-0.0018462640256721,0.00184627022262,-0.0018462700011097,0.0018462638041041,-0.0014262527462745,0.0014262711130387,-0.0014262716152157,0.0014262532483715,-0.0017279561208266,0.0017279499102256,-0.0017279561208383,0.001727949910215,2.7242365887302e-09,2.7242369124029e-09,-0.00072503865124998,0.00072504452713872,-6.4512582220319e-09,1.2203673015497e-08,-0.00080744952324258,0.00080745039169229,-0.00080744332341848,0.00080745659151852,-0.0008074495232423,0.00080745039169236,-0.0008074433234183,0.00080745659151867,-0.0009340004166308,0.00093401232244865,-0.0009340004166315,0.00093401232244849,0.68827840636006,120135,2834,0.0071137944907088,0.0071137944906942,0.0030209243544999,17.003353480078,5.1226827840628e-05,5.1226827840628e-05,5.1226827840628e-05,2308910.3571756,0.017398621513961
24419200,0.99978401655875,0.017845002750902,0.0067984249322711,0.0067984249322566,0.0042481528863739,-0.0017173765016022,0.0017173765016097,3.9614083934575e-15,3.6117131940529e-15,-1.6668902541175e-15,9.2333061641288e-15,-0.0018488919674713,0.0018488919674753,-0.0018488916874652,0.0018488916874691,-0.0018488919661455,0.0018488919661568,-0.0018488916887764,0.0018488916887874,-0.0014312238720246,0.0014312238720366,-0.0014312246464726,0.0014312246464836,-4.3281618952721e-15,-1.5411754939738e-14,9.1699343579643e-09,-9.169971392117e-09,-0.0017173765016143,0.0017173765015903,-0.0018488889427655,0.0018488950232522,-0.0018488947121852,0.0018488886316562,-0.0018488889427693,0.0018488950232484,-0.0018488947121889,0.0018488886316524,-0.0014312150171926,0.0014312330126634,-0.0014312335013615,0.0014312155058106,-0.0017322932341225,0.0017322871462308,-0.0017322932341339,0.0017322871462204,3.1270559440321e-09,3.1270562878122e-09,-0.00072659694821281,0.00072660385928159,-5.8820727754717e-09,1.2412474113791e-08,-0.00081140590764162,0.00081140778547974,-0.00081139982468252,0.00081141386844088,-0.00081140590764135,0.00081140778547981,-0.00081139982468236,0.00081141386844103,-0.0009342851627327,0.00093429779929549,-0.00093428516273332,0.00093429779929524,0.66831883741342,120135,2834,0.0071293370301139,0.0071293370300993,0.0030274181381832,17.881009319157,5.8248074553257e-05,5.8248074553257e-05,5.8248074553257e-05,2242834.665569,0.017436862932421
24919200,0.9998058624348,0.017845341629421,0.0067985489727445,0.00679854897273,0.004248243683946,-0.0017172248283714,0.0017172248283789,3.942703082539e-15,3.604125190567e-15,-1.6558317684173e-15,9.2345414205102e-15,-0.0018493519630254,0.0018493519630294,-0.0018493515816603,0.0018493515816642,-0.0018493519606455,0.0018493519606567,-0.0018493515840257,0.0018493515840366,-0.0014305147364081,0.0014305147364201,-0.001430515479172,0.001430515479183,-4.3416320720028e-15,-1.541935604025e-14,9.1249017384656e-09,-9.1249388979465e-09,-0.0017172248283835,0.0017172248283594,-0.001849348945415,0.0018493550018545,-0.0018493545992848,0.0018493485428029,-0.0018493489454188,0.0018493550018507,-0.0018493545992886,0.0018493485427992,-0.0014305059199183,0.0014305238247151,-0.0014305242957189,0.0014305063908418,-0.0017317157584158,0.00173170969842,-0.0017317157584273,0.0017317096984096,3.5406672157156e-09,3.5406675465369e-09,-0.00072680643566418,0.00072681439807093,-5.4371903065371e-09,1.2777512751616e-08,-0.00081073689651732,0.00081073972072776,-0.00081073083829325,0.00081074577895387,-0.00081073689651708,0.00081073972072784,-0.00081073083829307,0.00081074577895404,-0.00093520147297392,0.00093521495844181,-0.00093520147297445,0.00093521495844159,0.63528367021392,120135,2834,0.0071287152196834,0.0071287152196688,0.0030282904713482,18.351538184823,6.2012305478583e-05,6.2012305478583e-05,6.2012305478583e-05,2249917.7915615,0.017436481071248
25419200,0.9998273179137,0.017845705995825,0.006798681546276,0.0067986815462614,0.0042483429032875,-0.0017188790137394,0.0017188790137467,4.0046423668069e-15,3.5695380118875e-15,-1.8900599070261e-15,9.1660729239405e-15,-0.0018518334379558,0.0018518334379599,-0.0018518333282701,0.0018518333282735,-0.0018518334379071,0.0018518334379183,-0.0018518333283041,0.0018518333283149,-0.0014312436609658,0.0014312436609785,-0.0014312444959217,0.0014312444959325,-4.1604023143298e-15,-1.5347392246047e-14,8.9223771358724e-09,-8.9224142407703e-09,-0.0017188790137513,0.0017188790137275,-0.001851830505,0.0018518364140156,-0.0018518362612394,0.0018518303521819,-0.0018518305050039,0.0018518364140115,-0.0018518362612428,0.001851830352178,-0.0014312350568906,0.001431252569319,-0.0014312531000534,0.0014312355875438,-0.0017329886869857,0.0017329827659514,-0.001732988686997,0.0017329827659409,2.4044726147894e-09,2.4044730476165e-09,-0.00072981287742487,0.00072981796140652,-6.3384274359093e-09,1.1445140121833e-08,-0.00081210085885884,0.00081210132163856,-0.00081209494861933,0.00081210723188038,-0.00081210085885839,0.00081210132163852,-0.00081209494861921,0.00081210723188029,-0.00093911121303367,0.00093912215798154,-0.00093911121303477,0.00093912215798177,0.69486036149652,120135,2834,0.0071355734695453,0.0071355734695309,0.0030407626666069,19.918752257276,7.4550018058211e-05,7.4550018058211e-05,7.4550018058211e-05,2269503.7750121,0.017463121072943
25919200,0.99984728734216,0.017846042028793,0.0067988039628167,0.0067988039628022,0.004248434103174,-0.0017232950102951,0.0017232950103026,4.0584054302646e-15,3.5010106935853e-15,-1.654478868571e-15,9.2037188327074e-15,-0.0018547252075931,0.0018547252075973,-0.0018547249110163,0.0018547249110201,-0.0018547252053167,0.001854725205328,-0.0018547249132782,0.0018547249132891,-0.001437157676003,0.0014371576760153,-0.0014371584451165,0.0014371584451273,-4.3455143063444e-15,-1.5376451675397e-14,8.8411031045191e-09,-8.8411401409802e-09,-0.0017232950103072,0.0017232950102832,-0.001854722285382,0.001854728151949,-0.0018547278332416,0.0018547219666323,-0.0018547222853858,0.0018547281519453,-0.0018547278332453,0.0018547219666286,-0.0014371491379223,0.0014371664866848,-0.0014371669832541,0.0014371496344117,-0.0017382968370359,0.0017382909667279,-0.0017382968370473,0.0017382909667175,3.1577097288953e-09,3.1577102767951e-09,-0.00073151310407711,0.0007315201081301,-5.5335637369612e-09,1.2109495396105e-08,-0.0008168261276637,0.00081682829676782,-0.0008168202599525,0.00081683416448107,-0.00081682612766335,0.00081682829676797,-0.00081682025995228,0.00081683416448129,-0.00093911412174171,0.00093912660898579,-0.00093911412174253,0.00093912660898536,0.68893725522624,120135,2834,0.0071538166094252,0.0071538166094107,0.0030478507241016,20.733725947238,8.1069807577901e-05,8.1069807577901e-05,8.1069807577901e-05,2190573.5238664,0.017507468053264
26419200,0.99986462326382,0.017846347934871,0.0067989150297614,0.0067989150297469,0.0042485178753626,-0.0017221141000623,0.0017221141000699,4.0514644658357e-15,3.5040694236726e-15,-1.6731841794895e-15,9.2226594305557e-15,-0.0018538655246291,0.0018538655246332,-0.0018538649452966,0.0018538649453004,-0.0018538655200288,0.0018538655200401,-0.0018538649498823,0.0018538649498932,-0.0014357411099546,0.0014357411099668,-0.001435741785618,0.0014357417856288,-4.374336955244e-15,-1.5448828370589e-14,9.0136322126497e-09,-9.0136693673895e-09,-0.0017221141000744,0.0017221141000504,-0.0018538625275352,0.0018538685220112,-0.0018538679424047,0.0018538619478862,-0.0018538625275389,0.0018538685220075,-0.0018538679424085,0.0018538619478824,-0.0014357323893617,0.0014357500712048,-0.0014357505062679,0.0014357328243446,-0.0017368063156855,0.0017368003259021,-0.001736806315697,0.0017368003258916,4.349846295371e-09,4.3498468379591e-09,-0.00072990941480708,0.00072991943640843,-4.5453289820274e-09,1.3466837176886e-08,-0.00081503833845501,0.00081504301035775,-0.00081503234353832,0.00081504900527652,-0.00081503833845468,0.00081504301035789,-0.0008150323435381,0.00081504900527673,-0.00093793099970476,0.00093794612776327,-0.00093793099970556,0.00093794612776281,0.72144034154894,120135,2834,0.0071489300108934,0.0071489300108788,0.0030412027768963,20.39915881364,7.8393270509121e-05,7.8393270509121e-05,7.8393270509121e-05,2186664.385298,0.017490757657552
26919200,0.99988076285004,0.017846623982451,0.006799015440281,0.0067990154402665,0.0042485931019036,-0.0017248290889582,0.0017248290889657,4.0952866565096e-15,3.5348920114755e-15,-1.7910629313157e-15,9.3626551537824e-15,-0.0018559835255611,0.0018559835255652,-0.0018559832440017,0.0018559832440055,-0.0018559835236601,0.0018559835236716,-0.0018559832458881,0.0018559832458991,-0.0014391592515185,0.0014391592515308,-0.0014391600258272,0.0014391600258381,-4.2288708108995e-15,-1.5613972797047e-14,8.9431454057352e-09,-8.9431825087698e-09,-0.0017248290889703,0.0017248290889463,-0.0018559805721632,0.001855986504622,-0.0018559861974139,0.0018559802649128,-0.0018559805721671,0.0018559865046181,-0.0018559861974177,0.001855980264909,-0.001439150615568,0.0014391681651912,-0.0014391686618351,0.0014391511121318,-0.0017397235056777,0.0017397175680947,-0.0017397235056893,0.001739717568084,3.1094537331403e-09,3.1094542765122e-09,-0.00073130362813552,0.00073131050086743,-5.6795375540153e-09,1.2165153168533e-08,-0.000817854698015,0.00081785668929659,-0.00081784876377551,0.00081786262353816,-0.00081785469801462,0.00081785668929675,-0.00081784876377532,0.00081786262353838,-0.00093867073194082,0.00093868318311639,-0.00093867073194154,0.00093868318311602,0.69956232968217,120135,2834,0.0071601478732416,0.0071601478732271,0.0030470026932544,21.286345459305,8.5490763674441e-05,8.5490763674441e-05,8.5490763674441e-05,2142623.8249533,0.017519491732133
27419200,0.99989574497003,0.017846878210148,0.0067991078585278,0.0067991078585133,0.0042486624931071,-0.001725624509024,0.0017256245090316,4.0949925478474e-15,3.5335979333616e-15,-1.7244179084519e-15,9.355773011086e-15,-0.0018573933038131,0.0018573933038172,-0.0018573930435645,0.0018573930435683,-0.0018573933019494,0.0018573933019608,-0.0018573930454135,0.0018573930454245,-0.0014393429917436,0.0014393429917559,-0.0014393437740756,0.0014393437740864,-4.2462232219718e-15,-1.5502276530983e-14,8.8494240660647e-09,-8.8494611436542e-09,-0.0017256245090361,0.0017256245090121,-0.00185739038188,0.0018573962518191,-0.0018573959655117,0.0018573900955304,-0.0018573903818839,0.0018573962518152,-0.0018573959655155,0.0018573900955266,-0.0014393344482915,0.0014393518141868,-0.0014393523175843,0.0014393349516089,-0.0017401407315087,0.0017401348563132,-0.0017401407315203,0.0017401348563025,3.005708657508e-09,3.005709212088e-09,-0.00073272185027762,0.00073272846731424,-5.6883713758264e-09,1.1967435227925e-08,-0.00081831930333303,0.00081832113700615,-0.00081831343217249,0.00081832700816874,-0.00081831930333267,0.00081832113700628,-0.00081831343217227,0.00081832700816897,-0.00094078878839132,0.00094080096056083,-0.0009407887883921,0.00094080096056032,0.69373344004596,120135,2834,0.0071634454245381,0.0071634454245234,0.0030528926133114,22.250223726757,9.3201789814059e-05,9.3201789814059e-05,9.3201789814059e-05,2148884.881981,0.017532191329492
27919200,0.99990932433908,0.017847115651341,0.0067991940133011,0.0067991940132866,0.0042487276247532,-0.0017267275014642,0.0017267275014717,4.0450528969989e-15,3.4694822449931e-15,-1.770240038029e-15,9.3842427295909e-15,-0.0018586815359038,0.0018586815359077,-0.001858681202812,0.0018586812028158,-0.001858681533284,0.0018586815332954,-0.0018586812054172,0.0018586812054281,-0.0014401656868521,0.0014401656868644,-0.0014401664446429,0.001440166444654,-4.0870516139669e-15,-1.5408635434853e-14,8.8334153906295e-09,-8.8334525782527e-09,-0.0017267275014763,0.0017267275014522,-0.0018586786136685,0.0018586844771208,-0.0018586841250617,0.0018586782615668,-0.0018586786136724,0.0018586844771169,-0.0018586841250654,0.0018586782615631,-0.0014401571547106,0.0014401744876165,-0.0014401749768415,0.001440157643855,-0.0017411975034958,0.0017411916375387,-0.0017411975035072,0.0017411916375277,3.3049539214352e-09,3.3049544821151e-09,-0.00073375400984092,0.00073376138842382,-5.3831376394469e-09,1.2248119860986e-08,-0.000819135233584,0.00081913773653072,-0.00081912936924073,0.0008191436008761,-0.00081913523358359,0.00081913773653078,-0.00081912936924061,0.00081914360087625,-0.00094206367541879,0.00094207647226764,-0.00094206367541945,0.00094207647226742,0.714787746316,120135,2834,0.0071680099465612,0.0071680099465467,0.0030571852476943,22.918028480984,9.8544227847869e-05,9.8544227847869e-05,9.8544227847869e-05,2140889.4089683,0.017545847476077
28419200,0.99992146942034,0.017847336904901,0.0067992741376528,0.0067992741376383,0.0042487886296095,-0.0017286034168897,0.0017286034168973,4.0911691352383e-15,3.5298921642174e-15,-1.7241237997896e-15,9.3381264913515e-15,-0.0018601267228387,0.0018601267228428,-0.0018601263539062,0.0018601263539101,-0.0018601267198949,0.0018601267199063,-0.0018601263568354,0.0018601263568464,-0.0014424407546471,0.0014424407546595,-0.0014424414994119,0.0014424414994228,-4.2833397351466e-15,-1.5522039139565e-14,8.8482256679254e-09,-8.8482628165527e-09,-0.0017286034169018,0.0017286034168778,-0.001860123793247,0.0018601296683052,-0.0018601292835121,0.0018601234084115,-0.0018601237932508,0.0018601296683014,-0.0018601292835159,0.0018601234084077,-0.0014424322058597,0.0014424495670773,-0.0014424500482566,0.0014424326869586,-0.001743325272342,0.0017433193960179,-0.0017433252723536,0.0017433193960073,3.4580951390261e-09,3.4580956951385e-09,-0.00073451812973562,0.00073452589532358,-5.2492677245368e-09,1.2414909975133e-08,-0.00082090115393538,0.00082090397773465,-0.00082089527795466,0.00082090985371743,-0.00082090115393504,0.0008209039777348,-0.00082089527795444,0.00082090985371766,-0.00094237649619146,0.00094238962651866,-0.0009423764961923,0.00094238962651821,0.74447173005676,120135,2834,0.0071757612643782,0.0071757612643636,0.0030603710064749,23.441034133235,0.00010272827306588,0.00010272827306588,0.00010272827306588,2107954.461598,0.017564867224262
28919200,0.9999322942611,0.01784752597386,0.0067993427305743,0.0067993427305598,0.0042488405127257,-0.0017305089468619,0.0017305089468695,4.0839928838796e-15,3.5620088301341e-15,-1.7507112228562e-15,9.3907131201602e-15,-0.001861538819678,0.0018615388196821,-0.0018615384559836,0.0018615384559875,-0.0018615388168029,0.0018615388168143,-0.0018615384588441,0.0018615384588552,-0.0014449261455937,0.0014449261456061,-0.0014449268905787,0.0014449268905897,-4.2591051813779e-15,-1.5574122337062e-14,8.8571726763182e-09,-8.8572098399222e-09,-0.0017305089468741,0.00173050894685,-0.0018615358876206,0.0018615417682109,-0.0018615413880553,0.0018615355074226,-0.0018615358876245,0.0018615417682071,-0.0018615413880591,0.0018615355074188,-0.0014449175883007,0.0014449349671664,-0.001444935447929,0.0014449180689828,-0.0017454016084544,0.0017453957264119,-0.001745401608466,0.0017453957264012,3.4397468576041e-09,3.439747371726e-09,-0.00073514257790937,0.00073515029555233,-5.2757854854962e-09,1.240574213173e-08,-0.00082276464046732,0.00082276741171918,-0.00082275875874906,0.00082277329343948,-0.00082276464046699,0.00082276741171932,-0.00082275875874886,0.0008227732934397,-0.00094245830408341,0.00094247140072191,-0.00094245830408419,0.00094247140072151,0.7138103761733,120135,2834,0.0071836320846291,0.0071836320846146,0.0030629780422677,23.983294682461,0.00010706635745969,0.00010706635745969,0.00010706635745969,2070412.7566999,0.017583541995597
29419200,0.99994202394578,0.017847680514903,0.0067993990102718,0.0067993990102572,0.0042488824943743,-0.0017307509929555,0.001730750992963,4.0579936781375e-15,3.6071839206544e-15,-1.693065925057e-15,9.1321327843179e-15,-0.0018625582181571,0.0018625582181612,-0.0018625579165487,0.0018625579165528,-0.0018625582158184,0.0018625582158296,-0.0018625579188728,0.0018625579188838,-0.0014443328403515,0.001444332840364,-0.0014443336086976,0.0014443336087086,-4.0865810401073e-15,-1.5092272052662e-14,8.8205872930511e-09,-8.8206241251274e-09,-0.0017307509929673,0.0017307509929437,-0.0018625553022943,0.0018625611556308,-0.001862560832425,0.001862554979047,-0.0018625553022982,0.0018625611556272,-0.0018625608324288,0.0018625549790433,-0.0014443243223882,0.0014443416307347,-0.0014443421267181,0.0014443248182914,-0.0017452350546363,0.0017452291978059,-0.0017452350546482,0.0017452291977959,3.1736428761887e-09,3.1736432737882e-09,-0.0007362476781216,0.00073625472280265,-5.4979033340348e-09,1.2104907190904e-08,-0.00082255132273325,0.00082255354492032,-0.0008225454683426,0.0008225593993131,-0.00082255132273302,0.00082255354492042,-0.00082254546834245,0.00082255939931322,-0.00094444898725458,0.00094446149733354,-0.00094444898725557,0.00094446149733348,0.64935524089871,120135,2834,0.0071846440000139,0.0071846439999994,0.0030675631208696,24.777895420301,0.00011342316336241,0.00011342316336241,0.00011342316336241,2085303.705111,0.017590261822096
29919200,0.99995065727873,0.017847825657639,0.0067994516524919,0.0067994516524774,0.00424892235267,-0.0017296412501869,0.0017296412501941,3.8025897158473e-15,3.4620118849722e-15,-1.4335444414955e-15,8.6724409452351e-15,-0.0018629984125795,0.0018629984125834,-0.0018629980842564,0.0018629980842603,-0.0018629984099582,0.0018629984099689,-0.0018629980868636,0.001862998086874,-0.0014413642390518,0.0014413642390633,-0.0014413650023245,0.001441365002335,-4.5641546858544e-15,-1.4844014356433e-14,8.7989321352185e-09,-8.7989689028561e-09,-0.0017296412501987,0.001729641250175,-0.0018629955017932,0.0018630013424511,-0.0018630009950568,0.0018629951543566,-0.0018629955017967,0.0018630013424475,-0.0018630009950603,0.0018629951543531,-0.0014413557411323,0.0014413730065022,-0.0014413735002998,0.0014413562348509,-0.0017434989208214,0.0017434930775548,-0.0017434989208321,0.0017434930775452,3.2750771223466e-09,3.2750774562789e-09,-0.00073746463148117,0.00073747193850919,-5.378127115173e-09,1.2183676299702e-08,-0.00082066394070431,0.00082066641629715,-0.00082065809969922,0.00082067225730433,-0.00082066394070404,0.00082066641629722,-0.00082065809969907,0.00082067225730448,-0.00094741744801711,0.00094743016138521,-0.00094741744801773,0.00094743016138499,0.6870442823296,120135,2834,0.0071800817967674,0.0071800817967527,0.0030725994365954,25.464600000221,0.00011891680000177,0.00011891680000177,0.00011891680000177,2141227.614083,0.017586091890114
30419200,0.99995826001211,0.017847941169474,0.0067994937644669,0.0067994937644524,0.0042489536405545,-0.0017331164438717,0.001733116443878,3.147550903304e-15,2.7693859853944e-15,-1.690183660167e-15,8.585031850817e-15,-0.0018653461773598,0.001865346177362,-0.0018653458436693,0.0018653458436717,-0.0018653461746364,0.0018653461746461,-0.0018653458463766,0.0018653458463866,-0.0014458589531923,0.0014458589532031,-0.0014458597126674,0.0014458597126759,-5.1115497280175e-15,-1.552187347367e-14,8.7933603902556e-09,-8.7933999822916e-09,-0.0017331164438838,0.0017331164438585,-0.0018653432676942,0.0018653491050275,-0.0018653487533501,0.0018653429159722,-0.0018653432676972,0.0018653491050234,-0.0018653487533534,0.0018653429159687,-0.0014458504596398,0.0014458677138403,-0.0014458682062773,0.0014458509519938,-0.0017477583564855,0.0017477525170388,-0.0017477583564947,0.0017477525170275,3.3026199774073e-09,3.3026203544505e-09,-0.00073890261245267,0.00073890998722773,-5.3465908542606e-09,1.2205124049835e-08,-0.00082423457212651,0.00082423710074909,-0.00082422873409861,0.0008242429387797,-0.00082423457212678,0.00082423710074925,-0.00082422873409829,0.00082424293878007,-0.00094762021224725,0.00094763297778904,-0.00094762021224734,0.00094763297778772,0.62192905683325,120135,2834,0.007194440511501,0.0071944405114864,0.0030785865124316,26.129927768234,0.00012423942214587,0.00012423942214587,0.00012423942214587,2083080.9224383,0.01762141500006
30919200,0.99996502131426,0.017848053496307,0.0067995344671787,0.0067995344671641,0.0042489845619644,-0.0017324580782369,0.0017324580782445,4.0035835756229e-15,3.6284773878006e-15,-1.7627696780081e-15,9.3907719418927e-15,-0.0018662462372404,0.0018662462372444,-0.0018662459869593,0.0018662459869632,-0.0018662462351621,0.0018662462351735,-0.0018662459890227,0.0018662459890338,-0.0014434529092463,0.0014434529092585,-0.0014434537002824,0.0014434537002936,-4.2279296631804e-15,-1.5554773893217e-14,8.6899342625859e-09,-8.6899713884935e-09,-0.001732458078249,0.001732458078225,-0.0018662433667718,0.0018662491319041,-0.001866248857442,0.0018662430922673,-0.0018662433667757,0.0018662491319002,-0.0018662488574458,0.0018662430922635,-0.0014434445214041,0.0014434615741469,-0.0014434620881818,0.0014434450353586,-0.0017463931408829,0.0017463873711844,-0.0017463931408946,0.0017463873711737,2.9493884803528e-09,2.9493888489011e-09,-0.00074077556756156,0.0007407820498968,-5.5870549051956e-09,1.1750253216368e-08,-0.0008228895914321,0.00082289142339345,-0.00082288382622936,0.0008228971885983,-0.00082288959143182,0.00082289142339354,-0.0008228838262292,0.00082289718859846,-0.00095119656719161,0.00095120851825433,-0.00095119656719225,0.00095120851825407,0.67884299133575,120135,2834,0.0071917467467428,0.007191746746728,0.0030863391989819,27.118823741399,0.00013215058993119,0.00013215058993119,0.00013215058993119,2142971.6411669,0.017623811411436
31419200,0.9999710702486,0.0178481549885,0.00679957126367,0.0067995712636555,0.0042490124611747,-0.0017379446018313,0.001737944601839,4.0119362616305e-15,3.7068867571541e-15,-1.8354145175817e-15,9.555119862353e-15,-0.0018701152618786,0.0018701152618826,-0.0018701150936592,0.0018701150936631,-0.001870115260068,0.0018701152600795,-0.0018701150954549,0.0018701150954662,-0.0014505417449666,0.0014505417449789,-0.0014505425571802,0.0014505425571916,-4.1473438897263e-15,-1.5714526825375e-14,8.511413576766e-09,-8.5114507569042e-09,-0.0017379446018435,0.0017379446018194,-0.0018701124530252,0.0018701180973424,-0.0018701179025268,0.0018701122581673,-0.0018701124530291,0.0018701180973385,-0.0018701179025307,0.0018701122581634,-0.0014505335329599,0.0014505502364644,-0.0014505507692445,0.0014505340656593,-0.0017528877559108,0.0017528821062304,-0.0017528877559227,0.0017528821062195,2.5953650353102e-09,2.5953653384881e-09,-0.00074372742315342,0.00074373301223772,-5.7585060385621e-09,1.1217649638326e-08,-0.00082886853118538,0.00082886969251126,-0.00082886288655025,0.00082887533714848,-0.00082886853118513,0.00082886969251133,-0.0008288628865501,0.00082887533714862,-0.00095230531498933,0.00095231639639032,-0.00095230531498991,0.00095231639639012,0.68615599951589,120135,2834,0.0072144182493973,0.0072144182493828,0.0030986142511348,28.435763258354,0.00014268610606683,0.00014268610606683,0.00014268610606683,2063207.2954736,0.017682457285846
31919200,0.99997628044305,0.017848243636325,0.0067996033513003,0.0067996033512858,0.004249036933739,-0.0017396045509938,0.0017396045510014,3.9754079657802e-15,3.6571235715029e-15,-1.785063114606e-15,9.4135947740826e-15,-0.0018717020988311,0.001871702098835,-0.001871701808744,0.0018717018087479,-0.0018717020958627,0.0018717020958741,-0.0018717018116977,0.0018717018117088,-0.0014524094260461,0.0014524094260584,-0.0014524101992824,0.0014524101992937,-4.2376352490343e-15,-1.559238487658e-14,8.5226394237989e-09,-8.5226765533168e-09,-0.001739604551006,0.0017396045509819,-0.0018716992775677,0.0018717049357838,-0.0018717046300217,0.0018716989717632,-0.0018716992775716,0.0018717049357799,-0.0018717046300255,0.0018716989717593,-0.0014524011963509,0.0014524179193508,-0.0014524184290348,0.0014524017059547,-0.0017544665528189,0.0017544608935369,-0.0017544665528307,0.0017544608935261,3.0918232513888e-09,3.0918235627948e-09,-0.00074501937041324,0.00074502622310325,-5.2885055720533e-09,1.1721364109984e-08,-0.00083046953128691,0.00083047177947384,-0.00083046387328613,0.00083047743747673,-0.00083046953128666,0.0008304717794739,-0.000830463873286,0.00083047743747688,-0.00095348437661645,0.00095349651853751,-0.00095348437661708,0.00095349651853729,0.69501900710611,120135,2834,0.0072212810294358,0.0072212810294212,0.0031039856614453,29.268439146659,0.00014934751317327,0.00014934751317327,0.00014934751317327,2046126.2403344,0.017701892475116
32419200,0.99998055864757,0.017848319991545,0.006799630919743,0.0067996309197284,0.0042490581520741,-0.0017398859281005,0.0017398859281081,3.9741727093988e-15,3.654770702205e-15,-1.7423585368486e-15,9.3688902574219e-15,-0.0018718772778381,0.0018718772778422,-0.0018718767846291,0.001871876784633,-0.0018718772733684,0.0018718772733797,-0.0018718767890842,0.0018718767890953,-0.0014528378540182,0.0014528378540304,-0.001452838560219,0.0014528385602302,-4.2846338132605e-15,-1.5571700306274e-14,8.7156988264314e-09,-8.7157360387284e-09,-0.0017398859281126,0.0017398859280885,-0.0018718743809746,0.0018718801761866,-0.0018718796815069,0.0018718738862525,-0.0018718743809784,0.0018718801761827,-0.0018718796815107,0.0018718738862486,-0.0014528294262002,0.0014528465243785,-0.0014528469880945,0.0014528298898356,-0.0017547457011712,0.0017547399103754,-0.0017547457011829,0.0017547399103647,3.9474208005104e-09,3.9474211131123e-09,-0.00074461832975207,0.00074462734904491,-4.6469393293771e-09,1.2765799558446e-08,-0.00083048608172152,0.00083049007911174,-0.00083048028673877,0.00083049587409657,-0.00083048608172126,0.00083049007911181,-0.00083048028673863,0.00083049587409671,-0.00095299112206972,0.00095300520465594,-0.00095299112207032,0.00095300520465572,0.72871755840359,120135,2834,0.0072224399486247,0.0072224399486101,0.0031023314696133,29.299074155223,0.00014959259324178,0.00014959259324178,0.00014959259324178,2029811.9909836,0.017702568864755
32919200,0.99998404416019,0.017848377833573,0.0067996518747671,0.0067996518747525,0.0042490740840536,-0.0017406639370268,0.0017406639370343,3.9109393470169e-15,3.6537119110209e-15,-1.6573023117285e-15,9.2100127580793e-15,-0.0018720744065797,0.0018720744065837,-0.0018720738760918,0.0018720738760957,-0.0018720744021577,0.0018720744021689,-0.0018720738804992,0.0018720738805102,-0.0014542815532056,0.0014542815532176,-0.0014542822448683,0.0014542822448794,-4.3868659842555e-15,-1.5428819675775e-14,8.8651705556108e-09,-8.8652077335663e-09,-0.0017406639370389,0.0017406639370148,-0.0018720714601841,0.0018720773547987,-0.0018720768225017,0.0018720709278446,-0.0018720714601879,0.0018720773547949,-0.0018720768225054,0.0018720709278408,-0.0014542729789911,0.0014542903700502,-0.0014542908191399,0.0014542734280005,-0.0017557355713259,0.0017557296810019,-0.0017557355713373,0.0017557296809915,4.1291139618395e-09,4.1291142082776e-09,-0.00074388185420154,0.00074389132446261,-4.6151939344087e-09,1.309788707427e-08,-0.00083115549217841,0.0008311597732856,-0.00083114959710427,0.00083116566836178,-0.00083115549217817,0.00083115977328564,-0.00083114959710416,0.0008311656683619,-0.00095164094831751,0.00095165551247035,-0.00095164094831803,0.0009516555124702,0.677864078603,120135,2834,0.0072256443862625,0.0072256443862479,0.0030992884422862,29.174720784212,0.0001485977662737,0.0001485977662737,0.0001485977662737,1993200.6332122,0.017705998675071
33419200,0.99998692441904,0.017848428736834,0.006799670237404,0.0067996702373895,0.0042490882620403,-0.0017390094036693,0.0017390094036768,3.9694081490705e-15,3.5705379813391e-15,-1.7133006010192e-15,9.1950720380375e-15,-0.0018715835048222,0.0018715835048262,-0.0018715830378644,0.0018715830378682,-0.0018715835011534,0.0018715835011646,-0.0018715830415187,0.0018715830415296,-0.0014513487704038,0.001451348770416,-0.0014513494850173,0.0014513494850284,-4.3509259057296e-15,-1.5372658477858e-14,8.9453533394906e-09,-8.9453904224152e-09,-0.0017390094036814,0.0017390094036574,-0.0018715805374397,0.0018715864813039,-0.0018715860052612,0.0018715800613545,-0.0018715805374434,0.0018715864813001,-0.0018715860052649,0.0018715800613507,-0.0014513401223576,0.0014513576725847,-0.0014513581331206,0.0014513405828134,-0.0017534960537339,0.0017534901111504,-0.0017534960537452,0.00175349011114,3.8621244235837e-09,3.8621248003267e-09,-0.00074367055046064,0.0007436793427408,-4.9526652407118e-09,1.2914413110798e-08,-0.00082880097967992,0.00082880463950957,-0.00082879503491871,0.00082881058427291,-0.00082880097967963,0.00082880463950963,-0.00082879503491852,0.00082881058427306,-0.00095278136018725,0.00095279541335616,-0.00095278136018785,0.00095279541335582,0.72119041982179,120135,2834,0.0072188178107366,0.0072188178107219,0.0030984002836195,29.315980651165,0.00014972784520932,0.00014972784520932,0.00014972784520932,2030681.1319824,0.017691192115688
33919200,0.99998937173843,0.017848471543556,0.0067996857001842,0.0067996857001696,0.0042491001432021,-0.0017422307750966,0.0017422307751041,4.0195830868488e-15,3.5598324260335e-15,-1.6834779826679e-15,9.2588936177438e-15,-0.0018738242411188,0.0018738242411229,-0.0018738239309973,0.0018738239310012,-0.0018738242388432,0.0018738242388544,-0.0018738239332584,0.0018738239332693,-0.0014555513225879,0.0014555513226,-0.0014555520881413,0.0014555520881522,-4.3036332328412e-15,-1.5470347933769e-14,8.889534055154e-09,-8.88957115549e-09,-0.0017422307751087,0.0017422307750846,-0.0018738213027592,0.0018738272016156,-0.0018738268693711,0.0018738209704724,-0.001873821302763,0.0018738272016117,-0.0018738268693749,0.0018738209704686,-0.0014555427371389,0.0014555601808175,-0.0014555606736474,0.0014555432298886,-0.0017572745802226,0.0017572686776741,-0.0017572745802341,0.0017572686776635,3.2193940897381e-09,3.2193944562092e-09,-0.00074520012461845,0.00074520728182085,-5.5207121863209e-09,1.222001429979e-08,-0.00083226956979083,0.00083227184204531,-0.00083226366948135,0.00083227774235684,-0.00083226956979056,0.00083227184204539,-0.00083226366948119,0.00083227774235699,-0.00095321601725447,0.00095322866767373,-0.00095321601725511,0.00095322866767346,0.71426718353705,120135,2834,0.0072321269616561,0.0072321269616416,0.0031047639856499,30.069089981796,0.00015575271985437,0.00015575271985437,0.00015575271985437,1978948.3401977,0.017724765032026
34419200,0.99999149763376,0.017848507981163,0.006799698864313,0.0067996988642985,0.0042491102525521,-0.0017444393948563,0.0017444393948638,3.9887604990459e-15,3.5692439032253e-15,-1.6928894598596e-15,9.2672463037514e-15,-0.0018762623134883,0.0018762623134923,-0.0018762621709776,0.0018762621709814,-0.0018762623124756,0.0018762623124869,-0.0018762621719757,0.0018762621719866,-0.0014576236152231,0.0014576236152352,-0.0014576244377172,0.0014576244377282,-4.2741047231522e-15,-1.5405207000986e-14,8.733400604047e-09,-8.7334375852818e-09,-0.0017444393948683,0.0017444393948444,-0.0018762594366271,0.001876265224459,-0.0018762650478529,0.0018762592599789,-0.0018762594366309,0.0018762652244551,-0.0018762650478567,0.0018762592599751,-0.0014576151904243,0.001457632330758,-0.0014576328625729,0.0014576157221592,-0.0017592654959387,0.0017592596997946,-0.0017592654959502,0.0017592596997841,2.5095740009522e-09,2.5095744157242e-09,-0.00074778075330308,0.00074778611318353,-6.0566302637095e-09,1.1357640318558e-08,-0.00083451595255712,0.00083451677582335,-0.00083451016335147,0.00083452256503114,-0.00083451595255684,0.00083451677582349,-0.00083451016335128,0.00083452256503131,-0.00095601663033289,0.0009560276738034,-0.00095601663033356,0.00095602767380308,0.69956538257053,120135,2834,0.0072412651727676,0.007241265172753,0.0031154780061086,31.478087806319,0.00016702470245055,0.00016702470245055,0.00016702470245055,1972746.4083383,0.017754267764836
34919200,0.99999336882719,0.017848540850378,0.0067997107186713,0.0067997107186567,0.0042491194130496,-0.0017478312429085,0.0017478312429155,3.5983606607871e-15,3.1760206218089e-15,-1.8660606401872e-15,9.0673700568924e-15,-0.001879979795789,0.0018799797957927,-0.0018799798322965,0.0018799798323001,-0.0018799797960047,0.0018799797960152,-0.0018799798320668,0.0018799798320771,-0.0014607090376301,0.0014607090376416,-0.0014607099218838,0.001460709921894,-4.3190445267427e-15,-1.5436595633077e-14,8.4986528675234e-09,-8.4986905248419e-09,-0.0017478312429205,0.0017478312428963,-0.0018799770063045,0.0018799826310095,-0.0018799826217945,0.0018799769970473,-0.0018799770063079,0.0018799826310054,-0.0018799826217983,0.0018799769970433,-0.001460700850369,0.0014607175330108,-0.0014607181092032,0.001460701426479,-0.0017624695017055,0.0017624638642466,-0.0017624695017171,0.0017624638642356,1.7515831475701e-09,1.7515835535601e-09,-0.00075205268503242,0.00075205612634366,-6.562265116399e-09,1.0368010682086e-08,-0.0008381062992423,0.00083810561679425,-0.00083810067354109,0.00083811124249648,-0.0008381062992422,0.00083810561679437,-0.00083810067354159,0.00083811124249715,-0.00096058580770175,0.00096059509009521,-0.00096058580770193,0.00096059509009402,0.71680103022223,120135,2834,0.0072553020284023,0.0072553020283878,0.0031332116755508,33.570811242596,0.00018376648994077,0.00018376648994077,0.00018376648994077,1971016.2295175,0.017800886811596
35419200,0.99999498665342,0.01784856760673,0.0067997203919627,0.0067997203919482,0.0042491268228195,-0.0017529350181896,0.0017529350181973,4.0939337566633e-15,3.6767700301406e-15,-1.6019510614947e-15,9.2804223718198e-15,-0.0018847004212243,0.0018847004212285,-0.0018847005269579,0.001884700526962,-0.0018847004214448,0.0018847004214563,-0.0018847005267227,0.0018847005267337,-0.0014662748875485,0.0014662748875608,-0.0014662757932009,0.001466275793212,-4.3291618647238e-15,-1.5385503673681e-14,8.2578673729389e-09,-8.2579045803784e-09,-0.0017529350182018,0.0017529350181778,-0.0018846977121509,0.0018847031761415,-0.0018847032360457,0.0018846977720127,-0.0018846977121547,0.0018847031761378,-0.0018847032360495,0.001884697772009,-0.0014662669362025,0.0014662831470737,-0.0014662837446043,0.0014662675336525,-0.001767747536177,0.0017677420594889,-0.0017677475361885,0.0017677420594785,1.4337852343216e-09,1.4337856442151e-09,-0.00075701134785927,0.00075701399359978,-6.6379724999562e-09,9.80830743221e-09,-0.00084374039164118,0.00084373917782522,-0.00084373492716618,0.00084374464230245,-0.00084374039164083,0.00084373917782525,-0.00084373492716599,0.00084374464230264,-0.00096502245190961,0.00096503090299655,-0.00096502245191049,0.00096503090299633,0.67521869884076,120135,2834,0.0072764086216933,0.0072764086216786,0.0031538067054331,35.926499307206,0.00020261199445765,0.00020261199445765,0.00020261199445765,1939744.5082331,0.017864817245738
35919200,0.99999629530619,0.017848590136151,0.0067997285118986,0.0067997285118841,0.0042491331123687,-0.001754484269763,0.0017544842697704,3.9556438636776e-15,3.5536561441265e-15,-1.6363617749769e-15,9.13819142276e-15,-0.0018871507420011,0.0018871507420051,-0.0018871506607468,0.0018871506607507,-0.001887150740119,0.0018871507401301,-0.0018871506626144,0.0018871506626253,-0.0014668527316914,0.0014668527317034,-0.0014668535763419,0.0014668535763528,-4.3325735252058e-15,-1.5281601861597e-14,8.1165746056045e-09,-8.1166115562502e-09,-0.001754484269775,0.0017544842697511,-0.0018871480641825,0.0018871534458588,-0.0018871533385795,0.001887147956861,-0.0018871480641863,0.0018871534458551,-0.0018871533385832,0.0018871479568573,-0.0014668449067616,0.0014668608360191,-0.0014668614013285,0.0014668454719911,-0.0017688639285358,0.0017688585419202,-0.0017688639285471,0.0017688585419098,2.1901536309076e-09,2.1901540260332e-09,-0.00076023363030121,0.00076023820850732,-5.767579027598e-09,1.0415609785517e-08,-0.00084514148421125,0.00084514202705811,-0.00084513610367473,0.00084514740759673,-0.00084514148421096,0.00084514202705821,-0.00084513610367456,0.0008451474075969,-0.00096919142997379,0.00096920139621106,-0.00096919142997446,0.00096920139621077,0.70236605942018,120135,2834,0.0072828335383094,0.0072828335382948,0.0031671804732837,37.534304842824,0.00021547443874259,0.00021547443874259,0.00021547443874259,1965383.6902481,0.017891503408604
36419200,0.9999972605265,0.017848606518647,0.0067997344212091,0.0067997344211946,0.0042491376762436,-0.0017556843471828,0.0017556843471904,3.98693702534e-15,3.57800834136e-15,-1.6677725801042e-15,9.2258946258403e-15,-0.0018877087705266,0.0018877087705307,-0.0018877082570087,0.0018877082570126,-0.0018877087650319,0.0018877087650432,-0.0018877082624889,0.0018877082624998,-0.0014686243836198,0.0014686243836319,-0.0014686250823298,0.0014686250823408,-4.3650431215172e-15,-1.5432078652502e-14,8.3823419296305e-09,-8.3823790993996e-09,-0.0017556843471949,0.0017556843471709,-0.0018877059770999,0.0018877115557888,-0.0018877110504498,0.0018877054717184,-0.0018877059771036,0.001887711555785,-0.0018877110504535,0.0018877054717146,-0.0014686162765706,0.0014686327191531,-0.0014686331894361,0.0014686167467734,-0.0017704930151833,0.0017704874448508,-0.0017704930151947,0.0017704874448403,3.9858873132014e-09,3.9858877162192e-09,-0.0007599895677887,0.00075999870481367,-4.2864367072715e-09,1.2465188272748e-08,-0.00084622051547953,0.00084622482736702,-0.00084621493889085,0.00084623040395779,-0.00084622051547924,0.00084622482736712,-0.00084621493889068,0.00084623040395796,-0.00096826223041895,0.00096827617858987,-0.00096826223041963,0.00096827617858959,0.69281233383112,120135,2834,0.0072877863288053,0.0072877863287907,0.0031661869952366,37.488426462495,0.00021510741169996,0.00021510741169996,0.00021510741169996,1930957.6104369,0.017900579841548
36919200,0.9999979558991,0.017848617872805,0.006799738521501,0.0067997385214865,0.0042491408298171,-0.00175417748513,0.0017541774851376,4.0029365365659e-15,3.5935372787264e-15,-1.6604786852807e-15,9.2462469452674e-15,-0.0018864600621679,0.0018864600621719,-0.0018864593949653,0.0018864593949692,-0.0018864600558263,0.0018864600558375,-0.0018864594012924,0.0018864594013033,-0.001466780447355,0.0014667804473671,-0.0014667810960117,0.0014667810960227,-4.3505729753349e-15,-1.5434790541163e-14,8.6673424789481e-09,-8.6673796490564e-09,-0.0017541774851422,0.0017541774851181,-0.0018864571674592,0.0018864629407277,-0.0018864622896882,0.0018864565163772,-0.001886457167463,0.001886462940724,-0.001886462289692,0.0018864565163735,-0.0014667720559505,0.0014667890555761,-0.0014667894874733,0.0014667724877674,-0.0017688844431057,0.0017688786811577,-0.0017688844431172,0.0017688786811472,4.6443495438818e-09,4.644349946503e-09,-0.00075823084690154,0.0007582416457313,-3.9265571466355e-09,1.3408040056675e-08,-0.00084412874777604,0.0008441343187347,-0.00084412297548851,0.00084414009102421,-0.00084412874777575,0.00084413431873474,-0.00084412297548837,0.0008441400910244,-0.00096685728312951,0.00096687281498539,-0.00096685728313021,0.00096687281498504,0.66632586588125,120135,2834,0.0072815553877074,0.0072815553876928,0.0031588882541626,36.86241319697,0.00021009930557576,0.00021009930557576,0.00021009930557576,1934566.5193861,0.017880464381576
37419200,0.99999849254355,0.017848626727824,0.0067997417163156,0.0067997417163011,0.0042491432952076,-0.0017548550612228,0.0017548550612304,4.0053482275963e-15,3.5863022056352e-15,-1.7847690059437e-15,9.3720078092417e-15,-0.0018876854565961,0.0018876854566001,-0.001887685163276,0.0018876851632798,-0.0018876854539771,0.0018876854539885,-0.0018876851658802,0.0018876851658913,-0.0014668172056223,0.0014668172056346,-0.0014668179807378,0.001466817980749,-4.2797516094673e-15,-1.5597371511926e-14,8.6711982032234e-09,-8.6712355610734e-09,-0.001754855061235,0.0017548550612108,-0.0018876825883964,0.0018876883437993,-0.0018876880314898,0.0018876822760444,-0.0018876825884003,0.0018876883437954,-0.0018876880314936,0.0018876822760406,-0.0014668088323803,0.0014668258473515,-0.0014668263540375,0.0014668093389851,-0.0017693394715504,0.0017693337136707,-0.0017693394715622,0.0017693337136601,3.1245297412584e-09,3.1245301435724e-09,-0.00075978226534807,0.00075978919082547,-5.4004474856393e-09,1.1904465662233e-08,-0.00084453946689202,0.00084454169162309,-0.00084453371133201,0.00084454744718524,-0.00084453946689171,0.00084454169162323,-0.00084453371133179,0.00084454744718538,-0.00096901867509884,0.00096903098367513,-0.00096901867509942,0.00096903098367492,0.67334138242737,120135,2834,0.0072843685196922,0.0072843685196776,0.0031653159065127,37.672998406985,0.00021658398725588,0.00021658398725588,0.00021658398725588,1949511.1030633,0.017892730042788
37919200,0.99999888835803,0.017848633045911,0.0067997439988034,0.0067997439987889,0.0042491450483189,-0.001755394925773,0.0017553949257806,4.0185242956647e-15,3.606478059865e-15,-1.7382410155772e-15,9.3593023150329e-15,-0.0018880087629544,0.0018880087629584,-0.0018880082607724,0.0018880082607762,-0.0018880087585936,0.001888008758605,-0.0018880082651185,0.0018880082651295,-0.0014674845508203,0.0014674845508325,-0.0014674852562193,0.0014674852562304,-4.2938688252548e-15,-1.5567223765639e-14,8.8081434876762e-09,-8.808180717901e-09,-0.0017553949257852,0.0017553949257611,-0.0018880058361353,0.0018880116923382,-0.0018880111876057,0.0018880053313603,-0.0018880058361392,0.0018880116923344,-0.0018880111876095,0.0018880053313565,-0.0014674760332236,0.0014674933130597,-0.0014674937738732,0.0014674764939566,-0.0017700868965856,0.0017700810443221,-0.0017700868965972,0.0017700810443115,3.9819143278174e-09,3.981914732797e-09,-0.00075963518732511,0.00075964429547024,-4.7041841359166e-09,1.2894091789816e-08,-0.00084483743729957,0.00084484146004887,-0.00084483158080887,0.00084484731654166,-0.00084483743729928,0.00084484146004897,-0.00084483158080869,0.00084484731654183,-0.00096865825814495,0.00096867247607804,-0.00096865825814564,0.00096867247607773,0.65161955566969,120135,2834,0.0072865980570186,0.0072865980570039,0.0031647137213173,37.67645360231,0.00021661162881848,0.00021661162881848,0.00021661162881848,1934092.9742234,0.017896657730622
38419200,0.999999174522,0.017848637903909,0.0067997457477998,0.0067997457477853,0.0042491464083244,-0.001753863642029,0.0017538636420365,3.9708786923817e-15,3.5601265346958e-15,-1.8655900663276e-15,9.3595376019627e-15,-0.0018869358411372,0.0018869358411412,-0.0018869352090914,0.0018869352090952,-0.001886935835882,0.0018869358358932,-0.0018869352143319,0.001886935214343,-0.001465356078149,0.0014653560781615,-0.0014653567436728,0.0014653567436838,-4.1515790544626e-15,-1.5535923136374e-14,8.9880937780691e-09,-8.988131755263e-09,-0.0017538636420412,0.0017538636420168,-0.0018869328477401,0.0018869388287227,-0.0018869382025026,0.0018869322214775,-0.0018869328477441,0.0018869388287187,-0.0018869382025064,0.0018869322214736,-0.0014653473790041,0.0014653650099646,-0.0014653654428763,0.0014653478118335,-0.0017684080994797,0.0017684021255867,-0.0017684080994919,0.0017684021255758,4.5203375859774e-09,4.520337987895e-09,-0.00075835909934175,0.00075836957187329,-4.35838080964e-09,1.3610387682113e-08,-0.00084269740907958,0.00084270250979259,-0.00084269142762996,0.0008427084912447,-0.00084269740907919,0.00084270250979299,-0.00084269142762982,0.00084270849124477,-0.00096794640900271,0.00096796188695789,-0.00096794640900388,0.0009679618869575,0.69258612734672,120135,2834,0.0072802715915294,0.0072802715915147,0.0031594129828501,37.198573740899,0.00021278858992719,0.00021278858992719,0.00021278858992719,1949598.0617751,0.017878380210955
38880000,0.9999993743527,0.017848641343578,0.0067997469860776,0.0067997469860631,0.004249147371437,-0.0017555778122997,0.0017555778123073,4.0174655044807e-15,3.5925373092748e-15,-1.7307118338238e-15,9.3397146781276e-15,-0.0018877116023458,0.0018877116023498,-0.0018877110985095,0.0018877110985133,-0.0018877115987663,0.0018877115987776,-0.0018877111020743,0.0018877111020854,-0.0014680052348198,0.001468005234832,-0.0014680059408863,0.0014680059408973,-4.300456859289e-15,-1.556384978783e-14,9.1154622145089e-09,-9.1154994514474e-09,-0.0017555778123119,0.0017555778122877,-0.0018877085788759,0.0018877146356265,-0.0018877141219936,0.0018877080652006,-0.0018877085788798,0.0018877146356226,-0.0018877141219974,0.0018877080651968,-0.0014679964203664,0.001468014304071,-0.001468014755397,0.0014679968716118,-0.0017706676963691,0.0017706616406406,-0.0017706676963807,0.0017706616406299,4.0349423774989e-09,4.0349428126491e-09,-0.00075825343690692,0.00075826265981596,-4.9495565811021e-09,1.3258192209237e-08,-0.00084446701171156,0.00084447093211994,-0.0008444609534644,0.00084447699036917,-0.00084446701171125,0.00084447093212005,-0.00084446095346421,0.00084447699036935,-0.00096681187818962,0.00096682640572667,-0.00096681187819033,0.00096682640572633,0.70236788724108,120135,2834,0.0072873460270426,0.007287346027028,0.0031589841516548,37.193693957569,0.00021274955166056,0.00021274955166056,0.00021274955166056,1904316.6294842,0.017892352228588
