time,ASR_ext,ASR_strain,ASR_strain_xx,ASR_strain_yy,ASR_strain_zz,disp_x_101,disp_x_102,disp_x_103,disp_x_104,disp_x_105,disp_x_106,disp_x_p1_neg,disp_x_p1_pos,disp_x_p2_neg,disp_x_p2_pos,disp_x_p3_neg,disp_x_p3_pos,disp_x_p4_neg,disp_x_p4_pos,disp_x_p5_neg,disp_x_p5_pos,disp_x_p6_neg,disp_x_p6_pos,disp_y_101,disp_y_102,disp_y_103,disp_y_104,disp_y_105,disp_y_106,disp_y_p1_neg,disp_y_p1_pos,disp_y_p2_neg,disp_y_p2_pos,disp_y_p3_neg,disp_y_p3_pos,disp_y_p4_neg,disp_y_p4_pos,disp_y_p5_neg,disp_y_p5_pos,disp_y_p6_neg,disp_y_p6_pos,disp_y_p7_neg,disp_y_p7_pos,disp_y_p8_neg,disp_y_p8_pos,disp_z_101,disp_z_102,disp_z_103,disp_z_104,disp_z_105,disp_z_106,disp_z_p1_neg,disp_z_p1_pos,disp_z_p2_neg,disp_z_p2_pos,disp_z_p3_neg,disp_z_p3_pos,disp_z_p4_neg,disp_z_p4_pos,disp_z_p5_neg,disp_z_p5_pos,disp_z_p6_neg,disp_z_p6_pos,humidity,ndof,nelem,strain_xx,strain_yy,strain_zz,temp,thermal_strain_xx,thermal_strain_yy,thermal_strain_zz,vonmises,vstrain
2419200,0,0,0,0,0,0,0,0,0,0,0,0,0,0,0,0,0,0,0,0,0,0,0,0,0,0,0,0,0,0,0,0,0,0,0,0,0,0,0,0,0,0,0,0,0,0,0,0,0,0,0,0,0,0,0,0,0,0,0,0,0,0,0,0,0,0,0,0,0,0,0,0,0,0,0
3419200,0.15985851961479,0.0026637872423177,0.00088792908077257,0.00088792908077257,0.00088792908077257,-0.00024147131126122,0.00024147130473303,-2.1737375276342e-12,-2.1737734824181e-12,-2.1148829211902e-12,-2.1599207548742e-12,-0.00024944912117682,0.00024944911615264,-0.00024944912199065,0.00024944911696661,-0.00024944912195469,0.00024944911693452,-0.00024944912276085,0.00024944911774072,-0.00024309414881677,0.00024309414393649,-0.00024309414910351,0.00024309414422313,-2.113232913276e-12,-2.1627973816092e-12,-2.4332666502087e-12,-1.9151701373695e-12,-0.00024147131126166,0.00024147130473257,-0.00024944912129094,0.0002494491160733,-0.00024944912187615,0.00024944911704711,-0.00024944912206638,0.00024944911684974,-0.00024944912265155,0.00024944911782353,-0.00024309414909096,0.00024309414370995,-0.00024309414883132,0.00024309414444794,-0.00024309414870736,0.00024309414409993,-0.00024309414897071,0.00024309414430205,-2.2203852937534e-12,-2.2203493610276e-12,-0.00024147131130801,0.0002414713046862,-1.9092034545568e-12,-2.4679647781642e-12,-0.00024944912110503,0.00024944911618499,-0.00024944912211721,0.0002494491168113,-0.00024944912192451,0.00024944911700432,-0.00024944912291909,0.00024944911761314,-0.00024309414924213,0.0002430941440897,-0.00024309414896541,0.00024309414381279,0.75746877217741,125301,3014,0.0010056238984701,0.0010056238984701,0.00100562389847,31.882660336571,0.00017026128269257,0.00017026128269257,0.00017026128269257,1737154.8719037,0.0030214307347051
4419200,0.3500899606729,0.00561221277343,0.0018707375911431,0.0018707375911434,0.0018707375911435,-0.00046363717564153,0.00046363716294414,-4.7281467495388e-12,-4.7281459995617e-12,-4.5128462679972e-12,-4.686254279325e-12,-0.0004964875767947,0.00049648756565148,-0.00049648757957878,0.0004964875684359,-0.00049648757951769,0.00049648756832068,-0.00049648758228202,0.00049648757108524,-0.00047062301053278,0.00047062300041419,-0.00047062301172667,0.00047062300160808,-4.5104556145824e-12,-4.6911699067295e-12,-7.0100971825103e-12,-2.4480389160676e-12,-0.00046363717564246,0.00046363716294324,-0.00049648757760149,0.00049648756491061,-0.00049648757877179,0.00049648756917856,-0.00049648758031688,0.00049648756756737,-0.00049648758148714,0.00049648757183523,-0.00047062301282284,0.0004706229982417,-0.0004706230094401,0.00047062300377776,-0.00047062300967089,0.00047062300147122,-0.00047062301081469,0.00047062300234542,-5.1255002136044e-12,-5.1254862728538e-12,-0.00046363717604157,0.00046363716254415,-2.7060977423362e-12,-7.3812170530034e-12,-0.00049648757634683,0.00049648756597852,-0.00049648758073114,0.00049648756721702,-0.00049648757915873,0.00049648756879016,-0.00049648758348144,0.00049648756996714,-0.00047062301289359,0.00047062300045559,-0.00047062301174483,0.00047062299930662,0.73992840791513,125301,3014,0.0019299668491578,0.0019299668491579,0.0019299668491579,33.607449932582,0.00018405959946066,0.00018405959946066,0.00018405959946066,3281707.100927,0.0058067302855905
5419200,0.54947183541147,0.0085088713415713,0.0028362904471906,0.0028362904471904,0.0028362904471903,-0.00067717568470399,0.00067717568273798,-2.0491615171693e-13,-2.0496797366322e-13,-5.2226845682185e-14,-1.8766160530207e-13,-0.00075365509306612,0.00075365509169297,-0.00075365509388032,0.00075365509250739,-0.00075365509396142,0.00075365509243628,-0.00075365509476481,0.00075365509323987,-0.00069198321182861,0.00069198321099193,-0.00069198321123866,0.00069198321040182,-5.1497066649457e-14,-1.8946469360131e-13,1.4765254733533e-12,-1.8869893014686e-12,-0.0006771756847042,0.00067717568273763,-0.00075365509252387,0.00075365509226239,-0.00075365509442226,0.00075365509193902,-0.0007536550934146,0.00075365509299943,-0.00075365509531299,0.00075365509267595,-0.00069198321022852,0.00069198321268844,-0.00069198321283923,0.00069198320870501,-0.0006919832122679,0.00069198321065268,-0.00069198321170407,0.00069198320982852,-1.3712013460342e-13,-1.3705869530388e-13,-0.00067717568463594,0.00067717568280579,-1.6892822318227e-12,1.561801670384e-12,-0.00075365509355472,0.00075365509118348,-0.00075365509331559,0.00075365509308598,-0.00075365509438666,0.00075365509201533,-0.00075365509411978,0.00075365509389009,-0.00069198321061743,0.00069198321103002,-0.00069198321123466,0.00069198321164692,0.72499638738019,125301,3014,0.0028176460498044,0.0028176460498041,0.0028176460498039,36.279054089696,0.00020543243271757,0.00020543243271757,0.00020543243271757,4249916.7013822,0.0084889122234538
6419200,0.70567786809727,0.010314079282882,0.0034380264276275,0.0034380264276272,0.003438026427627,-0.00079599092687532,0.00079599092558048,-2.0701988156708e-13,-2.0707667394975e-13,-1.5241338799326e-13,-2.0251322512469e-13,-0.00091864954497775,0.00091864954415967,-0.00091864954547265,0.00091864954465479,-0.00091864954554533,0.00091864954464046,-0.00091864954602981,0.00091864954512512,-0.00081193555400731,0.00081193555354877,-0.00081193555380204,0.00081193555334333,-1.5129278473267e-13,-2.0480753922614e-13,1.5443889481947e-12,-1.9591395948852e-12,-0.00079599092687554,0.00079599092558007,-0.00091864954441099,0.0009186495447509,-0.00091864954603888,0.00091864954406475,-0.00091864954497445,0.00091864954522532,-0.00091864954660237,0.00091864954453906,-0.00081193555233231,0.00081193555530963,-0.00081193555547779,0.00081193555158189,-0.00081193555453242,0.00081193555303248,-0.00081193555434816,0.00081193555275928,1.8209570180719e-13,1.821656114362e-13,-0.00079599092648107,0.00079599092597441,-1.4461802907731e-12,1.9513769603028e-12,-0.00091864954520184,0.00091864954398747,-0.00091864954456232,0.0009186495455851,-0.00091864954568117,0.00091864954446667,-0.00091864954505023,0.00091864954607292,-0.00081193555283984,0.00081193555430571,-0.00081193555304355,0.00081193555450906,0.59839168540088,125301,3014,0.0033112818297432,0.0033112818297428,0.0033112818297425,36.740630765688,0.00020912504612551,0.00020912504612551,0.00020912504612551,4522365.0101166,0.0099836453420271
7419200,0.83141123319263,0.011575697768522,0.003858565922841,0.0038585659228407,0.0038585659228404,-0.00087536507812242,0.00087536507614011,-3.9501843245804e-13,-3.9509372427557e-13,-3.5865295516312e-13,-3.9025531326218e-13,-0.0010353762569119,0.0010353762557222,-0.0010353762574296,0.0010353762562401,-0.0010353762574885,0.0010353762562338,-0.001035376257997,0.0010353762567425,-0.00089204752323403,0.00089204752234844,-0.00089204752303513,0.00089204752214942,-3.5723171201747e-13,-3.9293201641721e-13,1.3645502017956e-12,-2.1554244796633e-12,-0.00087536507812268,0.00087536507613962,-0.001035376256342,0.0010353762563141,-0.0010353762579989,0.0010353762556495,-0.0010353762569152,0.0010353762568197,-0.0010353762585723,0.001035376256155,-0.00089204752154848,0.00089204752411564,-0.00089204752472189,0.00089204752038143,-0.00089204752377827,0.00089204752180193,-0.00089204752359385,0.00089204752156598,-4.4531904286774e-14,-4.4443524633771e-14,-0.00087536507776986,0.00087536507649229,-1.6813228426236e-12,1.7322257140464e-12,-0.0010353762571829,0.0010353762555076,-0.0010353762565573,0.0010353762571287,-0.0010353762576809,0.0010353762560054,-0.0010353762570667,0.001035376257638,-0.00089204752211097,0.00089204752307449,-0.00089204752230408,0.00089204752326731,0.52694121020036,125301,3014,0.0036409537175653,0.0036409537175649,0.0036409537175645,40.779745468468,0.00024143796374774,0.00024143796374774,0.00024143796374774,4550436.2796921,0.010983183901301
8419200,0.90737027260502,0.012258086223485,0.004086028741162,0.0040860287411617,0.0040860287411614,-0.00090408795467696,0.0009040879547926,2.8662236153066e-13,2.865620692549e-13,2.9776594757234e-13,2.8807359660819e-13,-0.0010898874079891,0.0010898874084723,-0.0010898874082629,0.0010898874087464,-0.0010898874083261,0.0010898874087515,-0.0010898874085933,0.0010898874090188,-0.00092251337438882,0.00092251337508785,-0.00092251337422287,0.00092251337492174,2.9900564281172e-13,2.8558220948306e-13,2.1694035189506e-12,-1.5969886412297e-12,-0.00090408795467722,0.00090408795479211,-0.0010898874073699,0.0010898874091031,-0.0010898874088816,0.0010898874081168,-0.0010898874077048,0.0010898874093777,-0.0010898874092165,0.0010898874083912,-0.00092251337257649,0.00092251337696733,-0.00092251337603619,0.00092251337304142,-0.00092251337498979,0.00092251337446704,-0.00092251337483925,0.00092251337429929,6.3375505098293e-13,6.3382863697022e-13,-0.00090408795432924,0.00090408795513993,-1.1418564553044e-12,2.5304564315871e-12,-0.0010898874083159,0.0010898874082131,-0.001089887407356,0.0010898874096762,-0.0010898874085678,0.0010898874084648,-0.0010898874076241,0.0010898874099443,-0.00092251337326111,0.00092251337588474,-0.00092251337341622,0.00092251337603949,0.47156008474719,125301,3014,0.0037602717760154,0.0037602717760149,0.0037602717760146,41.436352883515,0.00024669082306812,0.00024669082306812,0.00024669082306812,4341621.8762296,0.01134528062678
9419200,0.94944429828236,0.012586174839932,0.0041953916133111,0.0041953916133107,0.0041953916133104,-0.00090937117092992,0.0009093711719589,5.8580189827177e-13,5.8571963607894e-13,5.8516775587967e-13,5.8625882548942e-13,-0.0011111099837996,0.0011111099850432,-0.0011111099839502,0.0011111099851939,-0.0011111099840146,0.0011111099852039,-0.0011111099841594,0.0011111099853488,-0.00092916741063069,0.00092916741202683,-0.0009291674104932,0.00092916741188916,5.8668874764397e-13,5.8340357999463e-13,2.5924359434864e-12,-1.4217390604425e-12,-0.00090937117093021,0.00090937117195837,-0.0011111099831363,0.0011111099857145,-0.0011111099846128,0.0011111099845238,-0.0011111099833498,0.0011111099858708,-0.0011111099848263,0.00111110998468,-0.00092916740869517,0.00092916741402467,-0.00092916741242998,0.0009291674098902,-0.00092916741128107,0.00092916741135,-0.00092916741115787,0.00092916741122591,9.3470197490804e-13,9.3479717788201e-13,-0.00090937117058127,0.00090937117230714,-9.7042113371225e-13,2.9542470880146e-12,-0.001111109984171,0.0011111099847436,-0.001111109983002,0.0011111099861675,-0.0011111099842987,0.0011111099848712,-0.0011111099831478,0.0011111099863132,-0.0009291674094893,0.0009291674128954,-0.00092916740961326,0.000929167413019,0.40621133923259,125301,3014,0.0037822600577091,0.0037822600577086,0.0037822600577083,41.144138655837,0.0002443531092467,0.0002443531092467,0.0002443531092467,4097500.5689091,0.011412103159856
10419200,0.97049011246502,0.012765091410036,0.0042550304700122,0.0042550304700119,0.0042550304700116,-0.00090570719424457,0.00090570719733064,1.2639845037881e-12,1.2639244173884e-12,1.2415245428657e-12,1.2612364553862e-12,-0.0011154332248558,0.0011154332277778,-0.0011154332247415,0.0011154332276637,-0.0011154332248137,0.0011154332276836,-0.0011154332246954,0.0011154332275654,-0.00092691273283739,0.00092691273579314,-0.00092691273273703,0.00092691273569264,1.243086066997e-12,1.2583405751033e-12,3.4845613872768e-12,-9.5750477769489e-13,-0.00090570719424486,0.0009057071973301,-0.0011154332241145,0.0011154332285193,-0.001115433225482,0.0011154332269234,-0.0011154332240718,0.0011154332284216,-0.0011154332254394,0.0011154332268256,-0.0009269127306883,0.0009269127379941,-0.00092691273488748,0.00092691273349052,-0.00092691273357084,0.00092691273501739,-0.00092691273348705,0.00092691273495898,1.6327738551736e-12,1.6328462647263e-12,-0.00090570719387655,0.00090570719769825,-4.9997313792854e-13,3.8637859051693e-12,-0.0011154332252891,0.0011154332274277,-0.001115433223705,0.0011154332287331,-0.00111543322515,0.0011154332272884,-0.0011154332235884,0.0011154332286165,-0.0009269127316419,0.00092691273679008,-0.00092691273172461,0.00092691273687247,0.43665130715676,125301,3014,0.0037670801065678,0.0037670801065674,0.003767080106567,38.086342959582,0.00021989074367666,0.00021989074367666,0.00021989074367666,3972795.5831302,0.011366111176047
11419200,0.98265391654255,0.012861231220976,0.004287077073659,0.0042870770736586,0.0042870770736583,-0.00090228103998063,0.00090228104145855,7.3099184517149e-13,7.3093867032536e-13,7.2632904644032e-13,7.3115881065905e-13,-0.0011204898260786,0.0011204898276835,-0.0011204898261708,0.0011204898277759,-0.0011204898262338,0.0011204898277859,-0.0011204898263198,0.0011204898278721,-0.0009245995794478,0.00092459958119113,-0.00092459957933812,0.00092459958108132,7.2768529780419e-13,7.2848888854686e-13,3.0261492283102e-12,-1.565044538573e-12,-0.00090228103998092,0.00090228104145803,-0.0011204898253217,0.0011204898284511,-0.001120489826927,0.0011204898270095,-0.0011204898254751,0.001120489828549,-0.0011204898270805,0.0011204898271073,-0.00092459957723084,0.00092459958347366,-0.00092459958155621,0.00092459957879778,-0.00092459958019708,0.00092459958041349,-0.00092459958010018,0.00092459958032232,1.0899550849733e-12,1.0900214064766e-12,-0.00090228103962247,0.0009022810418163,-1.0985803655945e-12,3.398798374925e-12,-0.0011204898265376,0.001120489827297,-0.0011204898251194,0.0011204898288519,-0.0011204898266062,0.0011204898273655,-0.001120489825206,0.0011204898289384,-0.00092459957823004,0.00092459958219363,-0.00092459957832436,0.00092459958228765,0.40445605707229,125301,3014,0.0037528968829636,0.0037528968829631,0.0037528968829628,37.62592212387,0.00021620737699096,0.00021620737699096,0.00021620737699096,3775051.444405,0.011323157086922
12419200,0.98963112575108,0.012923649147675,0.0043078830492252,0.0043078830492248,0.0043078830492246,-0.00090002279838807,0.00090002280017836,8.3075117994523e-13,8.3070212262037e-13,8.2216435403158e-13,8.3051046671062e-13,-0.0011214360164208,0.0011214360182795,-0.0011214360164721,0.001121436018331,-0.001121436016536,0.0011214360183425,-0.0011214360165811,0.0011214360183877,-0.00092308752976439,0.00092308753174355,-0.00092308752966412,0.00092308753164314,8.2354032540997e-13,8.2781408033338e-13,3.2026615960888e-12,-1.5420399252004e-12,-0.00090002279838836,0.00090002280017783,-0.001121436015638,0.0011214360190726,-0.0011214360172542,0.001121436017539,-0.0011214360157515,0.0011214360191311,-0.0011214360173677,0.0011214360175974,-0.00092308752747208,0.000923087534101,-0.00092308753195758,0.00092308752928467,-0.00092308753054163,0.00092308753093548,-0.00092308753045386,0.00092308753085878,1.1970533426068e-12,1.1971154877671e-12,-0.00090002279802279,0.00090002280054322,-1.0688323626109e-12,3.5825443204361e-12,-0.0011214360169,0.0011214360178747,-0.0011214360153891,0.0011214360194396,-0.0011214360169272,0.0011214360179017,-0.0011214360154348,0.0011214360194852,-0.00092308752852359,0.00092308753278819,-0.00092308752860762,0.0009230875328719,0.45322610794666,125301,3014,0.0037435348202204,0.0037435348202199,0.0037435348202195,36.800418768027,0.00020960335014421,0.00020960335014421,0.00020960335014421,3704479.7098083,0.011294782169066
13419200,0.99352770902986,0.012955589228155,0.0043185297427188,0.0043185297427184,0.0043185297427181,-0.00089254860419481,0.00089254860687592,1.1208013191126e-12,1.1207520559117e-12,1.1065637834713e-12,1.1193982296231e-12,-0.0011192336846469,0.0011192336871852,-0.0011192336845944,0.0011192336871329,-0.0011192336846612,0.0011192336871464,-0.001119233684603,0.0011192336870884,-0.0009163181770653,0.00091631817972068,-0.00091631817698069,0.00091631817963594,1.1078290640532e-12,1.1168581675143e-12,3.5821726718632e-12,-1.3414275306211e-12,-0.00089254860419507,0.00089254860687541,-0.0011192336838322,0.0011192336880078,-0.0011192336854084,0.0011192336863114,-0.0011192336838449,0.0011192336879649,-0.0011192336854212,0.0011192336862684,-0.00091631817468412,0.00091631818216376,-0.00091631817936302,0.00091631817719204,-0.0009163181778749,0.00091631817887659,-0.00091631817780402,0.00091631817882179,1.4835363848641e-12,1.4835985006136e-12,-0.00089254860383305,0.00089254860723727,-8.7601181196988e-13,3.9575741576496e-12,-0.0011192336851619,0.0011192336867472,-0.0011192336834857,0.0011192336882693,-0.0011192336850851,0.0011192336866702,-0.0011192336834284,0.001119233688212,-0.0009163181758137,0.00091631818080762,-0.00091631817588115,0.00091631818087475,0.4150894025916,125301,3014,0.0037125352260546,0.0037125352260541,0.0037125352260538,34.785275957743,0.00019348220766194,0.00019348220766194,0.00019348220766194,3574723.7208682,0.011200790521003
14419200,0.99577806829201,0.01297267704431,0.004324225681437,0.0043242256814366,0.0043242256814363,-0.00088713629802281,0.00088713630081847,1.1550058330117e-12,1.1549538051893e-12,1.1378229902887e-12,1.1533622508691e-12,-0.0011143458208787,0.0011143458235265,-0.0011143458208067,0.0011143458234546,-0.0011143458208741,0.0011143458234694,-0.0011143458207963,0.0011143458233917,-0.00091119164329052,0.00091119164602725,-0.00091119164321564,0.00091119164595222,1.139087134043e-12,1.1507899084965e-12,3.7031775368285e-12,-1.3940202187863e-12,-0.00088713629802308,0.00088713630081795,-0.0011143458200357,0.001114345824378,-0.0011143458216492,0.0011143458226042,-0.0011143458200294,0.0011143458243167,-0.0011143458216429,0.0011143458225428,-0.00091119164082461,0.00091119164855587,-0.0009111916456826,0.00091119164342272,-0.00091119164413082,0.0009111916451501,-0.00091119164406929,0.00091119164510944,1.5310019054133e-12,1.531067050482e-12,-0.00088713629764797,0.00088713630119289,-9.1422314463989e-13,4.0921153563319e-12,-0.001114345821411,0.0011143458230728,-0.0011143458196574,0.0011143458246323,-0.0011143458213142,0.0011143458229758,-0.0011143458195805,0.0011143458245554,-0.00091119164200709,0.00091119164716565,-0.000911191642064,0.00091119164722225,0.38312450045663,125301,3014,0.0036900668591053,0.0036900668591048,0.0036900668591045,32.633969291971,0.00017627175433577,0.00017627175433577,0.00017627175433577,3566491.5617914,0.01113263509131
15419200,0.99694932560791,0.012984605724378,0.0043282019081262,0.0043282019081258,0.0043282019081255,-0.00087541927833219,0.00087541928347559,1.9236851150931e-12,1.9235951472534e-12,1.884288583336e-12,1.9184010559293e-12,-0.0011031688508191,0.0011031688553451,-0.0011031688504518,0.001103168854978,-0.0011031688505291,0.0011031688550031,-0.0011031688501579,0.001103168854632,-0.00089974091602331,0.00089974092053276,-0.00089974091598592,0.0008997409204951,1.8856998338814e-12,1.9156970098596e-12,4.652664750315e-12,-8.0620459489434e-13,-0.00087541927833246,0.00087541928347506,-0.001103168849908,0.0011031688562559,-0.0011031688513623,0.0011031688540683,-0.0011031688496174,0.0011031688559105,-0.0011031688510717,0.0011031688537229,-0.00089974091337601,0.00089974092323119,-0.00089974091863447,0.00089974091779578,-0.00089974091693471,0.00089974091956776,-0.00089974091691467,0.00089974091959271,2.3201288275393e-12,2.3202317949819e-12,-0.00087541927793699,0.00087541928387036,-3.2186787303977e-13,5.0592143121226e-12,-0.0011031688514022,0.0011031688548532,-0.001103168849224,0.0011031688562427,-0.0011031688510081,0.001103168854459,-0.001103168848855,0.0011031688558736,-0.00089974091469569,0.00089974092178944,-0.00089974091471157,0.0008997409218049,0.51103778709309,125301,3014,0.0036414256487697,0.0036414256487692,0.0036414256487689,27.044461045441,0.00013155568836353,0.00013155568836353,0.00013155568836353,3583968.2121153,0.010985106021431
16419200,0.99770196826864,0.012991561059726,0.0043305203532424,0.004330520353242,0.0043305203532417,-0.00086470186513839,0.00086470186832404,1.2790610137993e-12,1.2789706342074e-12,1.2628798022419e-12,1.2772696273485e-12,-0.0010990542018963,0.0010990542048004,-0.0010990542017896,0.0010990542046939,-0.0010990542018566,0.0010990542047068,-0.0010990542017435,0.0010990542045939,-0.00088978775094842,0.00088978775398299,-0.00088978775088573,0.00088978775392009,1.2640398336695e-12,1.2748521864937e-12,4.0591125552617e-12,-1.5018863702406e-12,-0.00086470186513866,0.00086470186832354,-0.0010990542009786,0.0010990542057295,-0.0010990542027067,0.0010990542037658,-0.0010990542009369,0.0010990542056315,-0.0010990542026649,0.0010990542036677,-0.00088978774825663,0.00088978775674093,-0.00088978775357841,0.00088978775116124,-0.00088978775186425,0.00088978775303122,-0.00088978775181565,0.00088978775300012,1.656475984031e-12,1.6565785985433e-12,-0.0008647018647619,0.00086470186870012,-1.0152622491411e-12,4.4503051197628e-12,-0.0010990542025035,0.0010990542042712,-0.0010990542005627,0.0010990542059479,-0.0010990542023717,0.0010990542041392,-0.0010990542004505,0.0010990542058356,-0.00088978774959927,0.00088978775521226,-0.00088978774964399,0.0008897877552566,0.46538451425637,125301,3014,0.0035969698557152,0.0035969698557147,0.0035969698557144,24.406322701773,0.00011045058161419,0.00011045058161419,0.00011045058161419,3412161.2076542,0.010850354374644
17419200,0.99820752386655,0.012996874457643,0.0043322914858814,0.004332291485881,0.0043322914858807,-0.00085858214222659,0.00085858214527778,1.2309468954173e-12,1.2308672802024e-12,1.2126942618463e-12,1.2292070956258e-12,-0.0010920663874826,0.0010920663903127,-0.0010920663873834,0.0010920663902137,-0.0010920663874505,0.0010920663902278,-0.0010920663873448,0.0010920663901223,-0.0008838927735605,0.0008838927764867,-0.00088389277350322,0.00088389277642923,1.2139349688596e-12,1.226707081926e-12,4.0447968630007e-12,-1.5837613634148e-12,-0.00085858214222685,0.00085858214527728,-0.0010920663865543,0.001092066391253,-0.001092066388311,0.0010920663892744,-0.0010920663865202,0.0010920663911636,-0.0010920663882769,0.0010920663891849,-0.00088389277083619,0.00088389277927861,-0.00088389277622855,0.00088389277363651,-0.00088389277448914,0.00088389277552032,-0.0008838927744451,0.00088389277549827,1.6223297918796e-12,1.6224220831779e-12,-0.00085858214183641,0.00085858214566754,-1.0816523680273e-12,4.450327295556e-12,-0.0010920663880885,0.0010920663897859,-0.001092066386133,0.0010920663914917,-0.0010920663879639,0.0010920663896612,-0.0010920663860281,0.0010920663913869,-0.00088389277219231,0.0008838927777461,-0.0008838927722309,0.0008838927777843,0.52521873377382,125301,3014,0.0035715531180622,0.0035715531180617,0.0035715531180613,21.96928987843,9.0954319027442e-05,9.0954319027442e-05,9.0954319027442e-05,3433200.834583,0.01077326609039
18419200,0.99852161618996,0.013000042231564,0.0043333474105217,0.0043333474105213,0.004333347410521,-0.00084591733207022,0.00084591733655193,1.695135155961e-12,1.6950562171961e-12,1.6667084949643e-12,1.6915845438416e-12,-0.0010828208399525,0.0010828208438798,-0.0010828208396836,0.001082820843611,-0.0010828208397556,0.0010828208436293,-0.0010828208394812,0.0010828208433549,-0.0008716998079925,0.00087169981200044,-0.00087169980795993,0.0008716998119677,1.668037833892e-12,1.6889613114795e-12,4.6019852824534e-12,-1.2126004498856e-12,-0.00084591733207048,0.00084591733655141,-0.001082820838989,0.0010828208448507,-0.0010828208406464,0.0010828208426412,-0.0010828208387907,0.0010828208445961,-0.0010828208404481,0.0010828208423865,-0.0008716998051746,0.00087169981487917,-0.00087169981077869,0.00087169980908772,-0.00087169980895678,0.00087169981099144,-0.00087169980893983,0.00087169981100542,2.0849924813815e-12,2.0850848020906e-12,-0.00084591733168148,0.00084591733694023,-7.2072374709013e-13,5.0043170921362e-12,-0.0010828208405956,0.0010828208433211,-0.0010828208384041,0.0010828208449221,-0.0010828208403005,0.001082820843026,-0.001082820838131,0.0010828208446489,-0.00087169980661864,0.00087169981331418,-0.0008716998066312,0.00087169981332638,0.50516361584657,125301,3014,0.0035189887588604,0.0035189887588599,0.0035189887588595,17.466071129368,5.4928569034944e-05,5.4928569034944e-05,5.4928569034944e-05,3354404.8635356,0.010613926537051
19419200,0.99878189322857,0.01300345696989,0.0043344856566303,0.0043344856566299,0.0043344856566296,-0.00084486139936342,0.00084486140075359,6.8653355628288e-13,6.8645508809179e-13,6.8353213326841e-13,6.8761586145449e-13,-0.0010815375708133,0.0010815375723316,-0.0010815375709229,0.0010815375724413,-0.0010815375709822,0.0010815375724478,-0.0010815375710835,0.0010815375725493,-0.0008708016033548,0.00087080160502608,-0.00087080160328435,0.00087080160495544,6.8487717224215e-13,6.8497308189547e-13,3.5266269059725e-12,-2.1544529306441e-12,-0.0008448613993637,0.00084486140075307,-0.001081537569884,0.0010815375732815,-0.0010815375718516,0.0010815375714925,-0.00108153757005,0.0010815375733923,-0.0010815375720176,0.0010815375716032,-0.000870801600609,0.00087080160785069,-0.00087080160603127,0.00087080160212985,-0.00087080160428448,0.00087080160407003,-0.00087080160422423,0.00087080160401551,1.0744183243165e-12,1.0745095568236e-12,-0.00084486139897683,0.00084486140113976,-1.6400587208613e-12,3.9315100274203e-12,-0.001081537571424,0.0010815375717913,-0.0010815375696673,0.0010815375737178,-0.0010815375715091,0.0010815375718763,-0.0010815375697685,0.0010815375738189,-0.00087080160197003,0.00087080160627709,-0.00087080160202378,0.00087080160633045,0.65325215552177,125301,3014,0.0035146004151961,0.0035146004151956,0.0035146004151953,17.551719730038,5.5613757840303e-05,5.5613757840303e-05,5.5613757840303e-05,3343772.0255057,0.010600617945658
20419200,0.99900843726665,0.01300663992837,0.0043355466427902,0.0043355466427898,0.0043355466427895,-0.00084154045347336,0.00084154045423885,4.8237302854098e-13,4.8228776643979e-13,4.8729752515981e-13,4.8488048135178e-13,-0.0010839512037483,0.0010839512047558,-0.0010839512039412,0.0010839512049488,-0.0010839512039973,0.0010839512049516,-0.0010839512041817,0.0010839512051361,-0.0008681058119142,0.00086810581311722,-0.00086810581183697,0.00086810581303976,4.8881965096575e-13,4.8200562616192e-13,3.2299778980835e-12,-2.2661546537455e-12,-0.00084154045347366,0.00084154045423832,-0.0010839512028509,0.0010839512056749,-0.0010839512048378,0.0010839512040309,-0.0010839512030971,0.001083951205865,-0.001083951205084,0.0010839512042209,-0.00086810580925949,0.00086810581585232,-0.00086810581449294,0.00086810581030352,-0.00086810581280961,0.00086810581220329,-0.00086810581274086,0.00086810581213003,8.4303868692327e-13,8.431388015119e-13,-0.00084154045311381,0.00084154045459799,-1.7765835795323e-12,3.6080575704355e-12,-0.0010839512043506,0.0010839512042185,-0.0010839512027413,0.001083951206167,-0.0010839512045204,0.0010839512043882,-0.0010839512029253,0.0010839512063508,-0.00086810581058045,0.00086810581430384,-0.00086810581064265,0.00086810581436562,0.70012779305903,125301,3014,0.003500846093862,0.0035008460938614,0.0035008460938611,18.60007411349,6.4000592907922e-05,6.4000592907922e-05,6.4000592907922e-05,3163698.2931396,0.010558982510477
21419200,0.99916245715418,0.01300865600547,0.0043362186684902,0.0043362186684898,0.0043362186684895,-0.00083047777071278,0.00083047777454551,1.4724041367114e-12,1.4723274037614e-12,1.4513828818375e-12,1.4704940774153e-12,-0.0010749803798294,0.0010749803832151,-0.0010749803796474,0.0010749803830332,-0.0010749803797158,0.0010749803830476,-0.0010749803795279,0.0010749803828598,-0.00085757752182734,0.00085757752534072,-0.00085757752180358,0.00085757752531669,1.4528473677883e-12,1.4677104547325e-12,4.281823514922e-12,-1.3378872856309e-12,-0.00083047777071306,0.00083047777454499,-0.0010749803789,0.0010749803841537,-0.001074980380576,0.0010749803820958,-0.0010749803787848,0.0010749803839818,-0.0010749803804609,0.0010749803819239,-0.00085757751910613,0.00085757752812604,-0.00085757752452635,0.00085757752253081,-0.00085757752275672,0.00085757752437472,-0.00085757752274566,0.00085757752438655,1.8392683410265e-12,1.8393500444128e-12,-0.00083047777034723,0.00083047777491063,-8.65370519407e-13,4.6617551306984e-12,-0.0010749803804587,0.0010749803826643,-0.0010749803784222,0.0010749803842872,-0.0010749803802522,0.0010749803824576,-0.0010749803782352,0.0010749803841002,-0.00085757752051852,0.00085757752660862,-0.0008575775205234,0.00085757752661301,0.64990944923706,125301,3014,0.0034549203261135,0.0034549203261129,0.0034549203261125,15.216724420476,3.6933795363811e-05,3.6933795363811e-05,3.6933795363811e-05,3098903.5005024,0.010419780086593
22419200,0.99929002300381,0.013010372340466,0.0043367907801558,0.0043367907801554,0.0043367907801551,-0.00082869746023454,0.00082869746199933,8.0141581141472e-13,8.0133390215229e-13,7.9564312011942e-13,8.0236616473502e-13,-0.0010717712208192,0.0010717712226247,-0.0010717712208858,0.0010717712226914,-0.0010717712209461,0.0010717712226989,-0.001071771221005,0.0010717712227581,-0.00085585538996712,0.00085585539191685,-0.00085585538992065,0.00085585539187018,7.9708236502728e-13,7.9960424727147e-13,3.5747006698888e-12,-1.9727804445384e-12,-0.00082869746023482,0.0008286974619988,-0.0010717712199096,0.001071771223552,-0.0010717712217947,0.0010717712217653,-0.001071771220034,0.001071771223621,-0.0010717712219191,0.0010717712218342,-0.00085585538728518,0.00085585539467358,-0.0008558553926038,0.0008558553891124,-0.0008558553908772,0.0008558553909804,-0.00085585539084004,0.00085585539095223,1.1734150647399e-12,1.173509591264e-12,-0.00082869745986411,0.00082869746236934,-1.4792282517688e-12,3.9626998392988e-12,-0.0010717712214244,0.0010717712220898,-0.001071771219668,0.0010717712239315,-0.0010717712214672,0.0010717712221325,-0.0010717712197269,0.0010717712239903,-0.00085585538864427,0.00085585539315427,-0.00085585538867361,0.00085585539318321,0.66642562144511,125301,3014,0.0034475146391553,0.0034475146391548,0.0034475146391545,14.857990881683,3.4063927053464e-05,3.4063927053464e-05,3.4063927053464e-05,3115508.2180821,0.010397315538846
23419200,0.99940332453533,0.013011808209316,0.0043372694031058,0.0043372694031054,0.0043372694031051,-0.00082875689526237,0.00082875689620149,5.3397962846536e-13,5.3389327816213e-13,5.3598478779735e-13,5.3628699915324e-13,-0.0010727736723672,0.0010727736735219,-0.0010727736725376,0.0010727736736925,-0.0010727736725944,0.0010727736736965,-0.0010727736727567,0.001072773673859,-0.00085603095980973,0.00085603096113922,-0.00085603095974918,0.00085603096107848,5.3738704519488e-13,5.335531892869e-13,3.2348738712171e-12,-2.1678239419758e-12,-0.00082875689526265,0.00082875689620097,-0.001072773671484,0.0010727736744252,-0.0010727736734201,0.0010727736727903,-0.0010727736717085,0.0010727736745945,-0.0010727736736445,0.0010727736729594,-0.00085603095719994,0.0008560309638273,-0.00085603096236016,0.00085603095838936,-0.00085603096069214,0.00085603096023669,-0.00085603096063924,0.00085603096018456,8.9630491261782e-13,8.9640396841526e-13,-0.00082875689490164,0.0008287568965618,-1.6790450739726e-12,3.6140842833824e-12,-0.001072773672954,0.0010727736730007,-0.0010727736713527,0.0010727736748968,-0.0010727736731016,0.0010727736731482,-0.0010727736715145,0.0010727736750586,-0.00085603095850691,0.00085603096232885,-0.00085603095855156,0.0008560309623731,0.62875729639221,125301,3014,0.0034477656687761,0.0034477656687756,0.0034477656687753,15.707951104727,4.0863608837813e-05,4.0863608837813e-05,4.0863608837813e-05,3069578.0570187,0.010398089733521
24419200,0.9995102973334,0.013013240059515,0.0043377466865053,0.0043377466865049,0.0043377466865046,-0.00083297996442047,0.00083297996443519,2.3348430839112e-13,2.3340584020003e-13,2.4303861945465e-13,2.3718150426785e-13,-0.001076008995643,0.0010760089960722,-0.0010760089959274,0.0010760089963567,-0.0010760089959804,0.0010760089963575,-0.0010760089962561,0.0010760089966333,-0.00086022906169057,0.00086022906232315,-0.00086022906161292,0.00086022906224531,2.4445486782239e-13,2.3444490404558e-13,2.8360308203044e-12,-2.3699688910407e-12,-0.00083297996442075,0.00083297996443466,-0.0010760089947951,0.0010760089969431,-0.0010760089967746,0.001076008995487,-0.0010760089951295,0.0010760089972226,-0.001076008997109,0.0010760089957665,-0.00086022905917848,0.00086022906491721,-0.00086022906412618,0.00086022905965023,-0.00086022906253676,0.00086022906146239,-0.00086022906246514,0.00086022906138403,5.9043560965624e-13,5.9052754802406e-13,-0.00083297996406525,0.00083297996478998,-1.8814086124936e-12,3.210787736168e-12,-0.0010760089961989,0.0010760089955776,-0.0010760089947799,0.0010760089975206,-0.0010760089964611,0.0010760089958397,-0.0010760089950547,0.0010760089977954,-0.00086022906040918,0.00086022906345748,-0.000860229060472,0.00086022906351992,0.66255127740754,125301,3014,0.0034652932018558,0.0034652932018553,0.003465293201855,17.887330808974,5.8298646471795e-05,5.8298646471795e-05,5.8298646471795e-05,3070844.1647074,0.01045120973435
25419200,0.99960781609373,0.01301477879661,0.0043382595988705,0.0043382595988701,0.0043382595988698,-0.00083553924383894,0.00083553924395286,2.6578729214537e-13,2.6569400087771e-13,2.7509350784687e-13,2.6947925288792e-13,-0.0010801182714488,0.0010801182719539,-0.0010801182717219,0.0010801182722271,-0.0010801182717753,0.0010801182722281,-0.0010801182720401,0.001080118272493,-0.00086291736653402,0.00086291736724235,-0.0008629173664592,0.00086291736716726,2.7655962126124e-13,2.6662611210824e-13,2.7921857493552e-12,-2.2616304750041e-12,-0.00083553924383926,0.0008355392439523,-0.0010801182706245,0.0010801182727992,-0.0010801182725454,0.0010801182713829,-0.0010801182709483,0.0010801182730678,-0.0010801182728691,0.0010801182716515,-0.00086291736409566,0.00086291736976025,-0.00086291736889904,0.00086291736464819,-0.00086291736735558,0.00086291736640714,-0.00086291736728654,0.00086291736633118,6.1060843456676e-13,6.1071340194831e-13,-0.0008355392434958,0.00083553924429558,-1.788586786372e-12,3.1542443605882e-12,-0.0010801182719912,0.0010801182714724,-0.0010801182706106,0.0010801182733553,-0.0010801182722426,0.0010801182717236,-0.0010801182708746,0.0010801182736191,-0.00086291736529235,0.00086291736834246,-0.00086291736535266,0.00086291736840232,0.77991302017261,125301,3014,0.0034759291169852,0.0034759291169847,0.0034759291169843,19.931984407862,7.4655875262893e-05,7.4655875262893e-05,7.4655875262893e-05,3007622.3443602,0.010483469848625
26419200,0.99968775484543,0.013016122033128,0.0043387073443764,0.004338707344376,0.0043387073443758,-0.00083243507658965,0.00083243507782408,6.2997025484114e-13,6.2987458129332e-13,6.3109479401666e-13,6.3229791902672e-13,-0.0010810321186286,0.0010810321199987,-0.0010810321187683,0.0010810321201386,-0.001081032118826,0.0010810321201433,-0.0010810321189587,0.0010810321202761,-0.00086028245018812,0.00086028245174788,-0.00086028245013141,0.00086028245169094,6.3252323594572e-13,6.2954857838484e-13,3.14384681977e-12,-1.8848252884761e-12,-0.00083243507658994,0.00083243507782356,-0.0010810321178037,0.0010810321208392,-0.0010810321195925,0.0010810321192993,-0.001081032117999,0.0010810321209788,-0.0010810321197877,0.0010810321194388,-0.0008602824477593,0.00086028245424929,-0.00086028245256145,0.00086028244918853,-0.00086028245100995,0.00086028245090784,-0.00086028245095985,0.00086028245085888,9.6475464505489e-13,9.6486352408165e-13,-0.00083243507625649,0.00083243507815682,-1.4317604077612e-12,3.4940928755082e-12,-0.0010810321191804,0.0010810321195116,-0.0010810321176707,0.0010810321212569,-0.0010810321192984,0.0010810321196295,-0.001081032117803,0.0010810321213892,-0.00086028244897763,0.00086028245285242,-0.00086028244901884,0.00086028245289322,0.82922923068302,125301,3014,0.0034630645602381,0.0034630645602376,0.0034630645602372,20.395380522056,7.8363044176447e-05,7.8363044176447e-05,7.8363044176447e-05,2880877.7387474,0.010444516707615
27419200,0.99975748199123,0.013017179829427,0.0043390599431427,0.0043390599431424,0.0043390599431421,-0.00083318518220957,0.00083318518246261,3.0895235583525e-13,3.0886165272381e-13,3.1799102088671e-13,3.1257478929004e-13,-0.0010832234888451,0.0010832234894552,-0.0010832234891041,0.0010832234897143,-0.0010832234891579,0.0010832234897153,-0.0010832234894091,0.0010832234899667,-0.00086132064640545,0.00086132064721686,-0.00086132064634306,0.00086132064715426,3.1934631144296e-13,3.0985914614813e-13,2.7703198649533e-12,-2.1533725334162e-12,-0.00083318518220986,0.00083318518246208,-0.0010832234880409,0.0010832234902785,-0.0010832234899076,0.0010832234888921,-0.0010832234883511,0.0010832234905333,-0.0010832234902179,0.0010832234891469,-0.00086132064402946,0.00086132064966943,-0.0008613206487203,0.00086132064470064,-0.00086132064720627,0.00086132064640343,-0.00086132064714906,0.00086132064633955,6.3838535070692e-13,6.3848775934311e-13,-0.00083318518188185,0.00083318518278991,-1.6990425660041e-12,3.1162406539283e-12,-0.0010832234893809,0.0010832234889794,-0.001083223488029,0.001083223490807,-0.0010832234896189,0.0010832234892173,-0.0010832234882794,0.0010832234910573,-0.00086132064521286,0.00086132064829283,-0.00086132064526083,0.00086132064834039,0.74718867332314,125301,3014,0.0034661852387299,0.0034661852387294,0.003466185238729,22.257776059113,9.3262208472906e-05,9.3262208472906e-05,9.3262208472906e-05,2807853.282219,0.010453989284031
28419200,0.99981478054465,0.01301817185799,0.0043393906193302,0.0043393906193298,0.0043393906193296,-0.00083565648726389,0.00083565648798593,4.5986583376738e-13,4.5977695412966e-13,4.6342871021807e-13,4.6272721694233e-13,-0.0010833260734178,0.0010833260744031,-0.0010833260736167,0.0010833260746022,-0.0010833260736727,0.0010833260746059,-0.0010833260738643,0.0010833260747976,-0.00086371134422778,0.000863711345392,-0.00086371134417419,0.0008637113453382,4.6477128797048e-13,4.6005602832472e-13,2.8949529380132e-12,-1.9761436003843e-12,-0.00083565648726417,0.0008356564879854,-0.00108332607262,0.0010833260752175,-0.0010833260744138,0.001083326073789,-0.0010833260728726,0.0010833260754152,-0.0010833260746664,0.0010833260739867,-0.00086371134187641,0.00086371134781681,-0.00086371134652669,0.00086371134291241,-0.00086371134502303,0.00086371134458016,-0.00086371134497489,0.0008637113445324,7.9487427596002e-13,7.9497630225495e-13,-0.00083565648693083,0.00083565648831856,-1.520971344193e-12,3.2456419949238e-12,-0.0010833260739422,0.0010833260739415,-0.0010833260725454,0.0010833260756931,-0.0010833260741198,0.001083326074119,-0.0010833260727365,0.0010833260758842,-0.00086371134304691,0.00086371134647362,-0.00086371134308512,0.00086371134651143,0.8493285419621,125301,3014,0.0034764277363427,0.0034764277363422,0.0034764277363418,23.444957877489,0.00010275966301991,0.00010275966301991,0.00010275966301991,2846422.6395461,0.010485011286605
29419200,0.99986133725903,0.013018746169796,0.004339582056599,0.0043395820565987,0.0043395820565984,-0.00083541345441934,0.00083541345504357,4.2806171712602e-13,4.2797554328799e-13,4.3404056388812e-13,4.3133926405804e-13,-0.0010863650050884,0.0010863650059885,-0.0010863650053027,0.001086365006203,-0.0010863650053579,0.0010863650062054,-0.0010863650055649,0.0010863650064126,-0.0008637124691333,0.00086371247022445,-0.0008637124690815,0.00086371247017245,4.3550382012587e-13,4.2853238657092e-13,2.83776723417e-12,-1.9825850264203e-12,-0.00083541345441963,0.00083541345504303,-0.0010863650042991,0.0010863650067944,-0.0010863650060913,0.0010863650053983,-0.0010863650045663,0.0010863650070062,-0.0010863650063585,0.0010863650056101,-0.0008637124668068,0.00086371247262439,-0.00086371247140938,0.00086371246777149,-0.00086371246991889,0.00086371246942476,-0.00086371246987238,0.0008637124693748,7.5209675925438e-13,7.5219716795167e-13,-0.00083541345409717,0.00083541345536532,-1.5383044029153e-12,3.1774379608631e-12,-0.0010863650056138,0.0010863650055243,-0.0010863650042498,0.0010863650072748,-0.0010863650058073,0.0010863650057176,-0.0010863650044562,0.0010863650074811,-0.00086371246797352,0.00086371247128876,-0.00086371246801048,0.00086371247132533,0.60881578646039,125301,3014,0.0034754393169575,0.003475439316957,0.0034754393169567,24.784377773591,0.00011347502218873,0.00011347502218873,0.00011347502218873,2737726.0326354,0.010482054702733
30419200,0.99989836992466,0.01301913377327,0.0043397112577569,0.0043397112577566,0.0043397112577563,-0.00084228314930058,0.00084228314988929,4.1577791591713e-13,4.1568080123686e-13,4.1812859410552e-13,4.1881458785477e-13,-0.0010858826655951,0.0010858826664896,-0.0010858826658066,0.0010858826667013,-0.0010858826658622,0.0010858826667059,-0.0010858826660665,0.0010858826669103,-0.00087015124759093,0.00087015124865267,-0.00087015124753538,0.0008701512485969,4.1965413570785e-13,4.15919652396e-13,2.8043856473369e-12,-1.9738235518611e-12,-0.00084228314930089,0.00084228314988873,-0.0010858826648124,0.0010858826672885,-0.0010858826665884,0.0010858826659036,-0.0010858826650774,0.0010858826674997,-0.0010858826668534,0.0010858826661146,-0.00087015124528518,0.00087015125103171,-0.00087015124984258,0.00087015124621672,-0.00087015124837191,0.00087015124785405,-0.00087015124832141,0.00087015124780666,7.5848059364439e-13,7.5858997265588e-13,-0.00084228314896015,0.00084228315022929,-1.5113756373353e-12,3.162794217043e-12,-0.0010858826660973,0.0010858826660507,-0.0010858826647436,0.0010858826677841,-0.0010858826662873,0.0010858826662407,-0.0010858826649473,0.0010858826679877,-0.0008701512464162,0.0008701512497244,-0.00087015124645605,0.00087015124976384,0.51512748248588,125301,3014,0.0035039137505318,0.0035039137505313,0.0035039137505309,26.135131496499,0.00012428105197199,0.00012428105197199,0.00012428105197199,2920282.7511833,0.010568294209225
31419200,0.99992835054811,0.013019538379632,0.0043398461265443,0.0043398461265439,0.0043398461265436,-0.00085028575069909,0.00085028575058588,1.8824439632173e-13,1.8816084005079e-13,1.9783832382207e-13,1.9237460838188e-13,-0.0010916514695421,0.0010916514698697,-0.0010916514698422,0.0010916514701699,-0.0010916514698948,0.0010916514701712,-0.001091651470187,0.0010916514704635,-0.00087764929520866,0.00087764929574284,-0.00087764929513385,0.00087764929566783,1.9933538675912e-13,1.8953821709051e-13,2.5223624555069e-12,-2.1468075663474e-12,-0.00085028575069938,0.00085028575058535,-0.0010916514687801,0.0010916514706508,-0.0010916514706035,0.00109165146939,-0.0010916514691302,0.0010916514709469,-0.0010916514709537,0.0010916514696861,-0.00087764929295757,0.00087764929807071,-0.00087764929738624,0.00087764929333887,-0.00087764929596744,0.00087764929497127,-0.00087764929589704,0.00087764929489564,5.26343597035e-13,5.2644027055227e-13,-0.00085028575036322,0.00085028575092132,-1.6841396830417e-12,2.8769827130941e-12,-0.0010916514700275,0.001091651469444,-0.0010916514688012,0.001091651471228,-0.0010916514703066,0.001091651469723,-0.0010916514690925,0.0010916514715192,-0.00087764929403757,0.00087764929677254,-0.00087764929409775,0.00087764929683233,0.66479676253864,125301,3014,0.0035371286899625,0.003537128689962,0.0035371286899616,28.446526107618,0.00014277220886095,0.00014277220886095,0.00014277220886095,2981694.9434663,0.010668978609441
32419200,0.99995024645037,0.013019886261083,0.0043399620870281,0.0043399620870277,0.0043399620870274,-0.00084874695787534,0.00084874695882764,5.3765751610842e-13,5.3758195959309e-13,5.4042735796224e-13,5.4052789900842e-13,-0.001096011991795,0.001096011992958,-0.0010960119919678,0.001096011993131,-0.0010960119920244,0.0010960119931353,-0.0010960119921904,0.0010960119933015,-0.00087648833098589,0.00087648833232784,-0.00087648833093464,0.00087648833227635,5.4217871013518e-13,5.3742068326997e-13,2.8767201613723e-12,-1.8023753129533e-12,-0.00084874695787565,0.00084874695882709,-0.0010960119910266,0.0010960119937402,-0.0010960119927352,0.0010960119923501,-0.0010960119912543,0.0010960119939125,-0.0010960119929628,0.0010960119925223,-0.00087648832872741,0.00087648833465623,-0.00087648833319466,0.0008764883299467,-0.00087648833174966,0.00087648833154783,-0.0008764883317046,0.00087648833150211,8.5949309601707e-13,8.5958138743748e-13,-0.00084874695755542,0.00084874695914715,-1.3653844060907e-12,3.2133029534475e-12,-0.0010960119923006,0.0010960119925152,-0.0010960119909399,0.0010960119941792,-0.0010960119924524,0.0010960119926669,-0.0010960119911055,0.0010960119943447,-0.00087648832985176,0.00087648833336724,-0.00087648832988787,0.00087648833340292,0.7835582016357,125301,3014,0.0035307798686837,0.0035307798686832,0.0035307798686828,29.298459221988,0.00014958767377591,0.00014958767377591,0.00014958767377591,2821077.8741376,0.01064979525522
33419200,0.99996546294371,0.013020137162989,0.0043400457209967,0.0043400457209963,0.004340045720996,-0.00084483791528826,0.0008448379168541,7.3480331696894e-13,7.3473714251993e-13,7.3329186314282e-13,7.3688237110232e-13,-0.0010958755782776,0.0010958755799068,-0.001095875578379,0.0010958755800084,-0.0010958755784378,0.0010958755800143,-0.0010958755785329,0.0010958755801096,-0.00087310202351579,0.00087310202532032,-0.00087310202347925,0.00087310202528361,7.3492532392645e-13,7.3386789517779e-13,3.1003339532862e-12,-1.6316895770614e-12,-0.00084483791528857,0.00084483791685354,-0.0010958755774985,0.0010958755806976,-0.0010958755791572,0.0010958755792188,-0.0010958755776571,0.0010958755808004,-0.0010958755793158,0.0010958755793216,-0.00087310202123019,0.00087310202767276,-0.00087310202576629,0.00087310202292992,-0.00087310202429063,0.00087310202452671,-0.00087310202426085,0.00087310202450041,1.0535828431791e-12,1.0536625466266e-12,-0.00084483791497136,0.00084483791717058,-1.2017806834839e-12,3.4330601811915e-12,-0.0010958755787969,0.0010958755794523,-0.0010958755773454,0.0010958755810641,-0.0010958755788773,0.0010958755795325,-0.0010958755774404,0.0010958755811589,-0.00087310202239025,0.00087310202638045,-0.00087310202241104,0.00087310202640087,0.80945760226261,125301,3014,0.0035145729310779,0.0035145729310774,0.003514572931077,29.317385110672,0.00014973908088537,0.00014973908088537,0.00014973908088537,2706907.7410731,0.010600695021599
34419200,0.99997698166413,0.01302030972038,0.0043401032401272,0.0043401032401268,0.0043401032401265,-0.00084704297968326,0.00084704297969337,2.2798982918486e-13,2.279253605661e-13,2.3893098023433e-13,2.3221525892442e-13,-0.0010986756930056,0.0010986756934269,-0.0010986756932956,0.0010986756937172,-0.0010986756933484,0.0010986756937174,-0.0010986756936309,0.0010986756940001,-0.00087547297481486,0.00087547297544118,-0.00087547297475619,0.00087547297538233,2.4043153260982e-13,2.2932705855401e-13,2.5565504133861e-12,-2.1015870398875e-12,-0.00084704297968358,0.00084704297969281,-0.0010986756922446,0.0010986756942059,-0.0010986756940559,0.0010986756929394,-0.0010986756925851,0.0010986756944912,-0.0010986756943964,0.0010986756932246,-0.00087547297256824,0.00087547297776246,-0.00087547297700415,0.00087547297305965,-0.00087547297557118,0.00087547297467431,-0.0008754729755169,0.0008754729746115,5.4433634148665e-13,5.4441407440608e-13,-0.00084704297936888,0.00084704298000733,-1.6622981738142e-12,2.8889562737807e-12,-0.0010986756935091,0.0010986756929813,-0.0010986756922768,0.0010986756947531,-0.001098675693779,0.0010986756932512,-0.0010986756925585,0.0010986756950347,-0.00087547297368307,0.00087547297646399,-0.00087547297372759,0.00087547297650811,0.73398852679868,125301,3014,0.0035237289927873,0.0035237289927868,0.0035237289927865,31.490035649542,0.00016712028519633,0.00016712028519633,0.00016712028519633,2659176.1535285,0.010628456879809
35419200,0.99998601654184,0.013020429534403,0.0043401431781347,0.0043401431781343,0.004340143178134,-0.00085664952525423,0.00085664952355602,-3.2585228073062e-13,-3.2591410237142e-13,-3.0048199695184e-13,-3.1926729072107e-13,-0.0011058597438068,0.0011058597428784,-0.0011058597443089,0.0011058597433807,-0.0011058597443549,0.0011058597433745,-0.001105859744848,0.0011058597438678,-0.00088486347115109,0.00088486347049174,-0.00088486347105374,0.00088486347039419,-2.991168183561e-13,-3.2182409680358e-13,1.8957470131602e-12,-2.5483009302516e-12,-0.00085664952525449,0.00085664952355553,-0.0011058597430872,0.0011058597436222,-0.0011058597450277,0.0011058597426379,-0.0011058597436321,0.0011058597441125,-0.0011058597455726,0.0011058597431281,-0.00088486346901248,0.00088486347271389,-0.00088486347319341,0.00088486346817123,-0.00088486347186488,0.00088486346977792,-0.00088486347176905,0.00088486346965942,-1.4166626042828e-14,-1.4094157668452e-14,-0.00085664952494464,0.00085664952386521,-2.1016751776189e-12,2.2256409640786e-12,-0.0011058597442726,0.0011058597424625,-0.0011058597433298,0.001105859744371,-0.0011058597447557,0.0011058597429454,-0.0011058597438214,0.0011058597448625,-0.00088486347002204,0.00088486347143535,-0.0008848634701074,0.00088486347152025,0.64952121200817,125301,3014,0.0035635963264738,0.0035635963264733,0.003563596326473,35.945825118283,0.00020276660094626,0.00020276660094626,0.00020276660094626,2684373.553314,0.010749308453948
36419200,0.99999179656864,0.013020509963747,0.0043401699879159,0.0043401699879155,0.0043401699879153,-0.00086130548180168,0.00086130548223335,3.6475426877217e-13,3.6469206479011e-13,3.705475770847e-13,3.6820236931742e-13,-0.0011082785910292,0.0011082785917878,-0.0011082785912644,0.0011082785920231,-0.0011082785913194,0.0011082785920262,-0.0011082785915478,0.0011082785922548,-0.00088927347928159,0.00088927348022767,-0.00088927347922491,0.00088927348017084,3.7186747996397e-13,3.6556513922123e-13,2.5844343432607e-12,-1.8558272822555e-12,-0.00086130548180196,0.00086130548223282,-0.001108278590301,0.00110827859253,-0.0011082785919919,0.001108278591282,-0.0011082785905891,0.0011082785927638,-0.00110827859228,0.0011082785915156,-0.00088927347714001,0.00088927348243961,-0.00088927348136764,0.00088927347795793,-0.00088927348000543,0.00088927347949037,-0.0008892734799526,0.0008892734794365,6.8032953992896e-13,6.804047435139e-13,-0.00086130548148832,0.00086130548254629,-1.4244475576343e-12,2.9149050840035e-12,-0.0011082785915001,0.0011082785913773,-0.0011082785902823,0.0011082785930246,-0.0011082785917151,0.0011082785915922,-0.0011082785905101,0.0011082785932523,-0.00088927347818813,0.00088927348121563,-0.00088927347823003,0.00088927348125717,0.6811981079479,125301,3014,0.0035829120387189,0.0035829120387184,0.003582912038718,37.486239726616,0.00021508991781292,0.00021508991781292,0.00021508991781292,2733627.6761108,0.010807857822837
37419200,0.99999520914788,0.013020555534324,0.0043401851781084,0.004340185178108,0.0043401851781077,-0.00086093816300191,0.0008609381644331,6.9048890603789e-13,6.9042055518479e-13,6.8837992634813e-13,6.9250385918834e-13,-0.0011094608479583,0.0011094608495055,-0.0011094608480713,0.0011094608496187,-0.0011094608481302,0.0011094608496253,-0.0011094608482372,0.0011094608497325,-0.00088896811663559,0.00088896811833577,-0.00088896811660195,0.00088896811830197,6.8968469341624e-13,6.8987175945012e-13,2.9554537574936e-12,-1.5754012641456e-12,-0.0008609381630022,0.00086093816443257,-0.0011094608472115,0.0011094608502625,-0.0011094608488174,0.0011094608488628,-0.0011094608473817,0.0011094608503779,-0.0011094608489876,0.0011094608489781,-0.00088896811444767,0.0008889681205887,-0.00088896811879109,0.00088896811604809,-0.00088896811737846,0.00088896811757396,-0.00088896811735029,0.00088896811755258,1.0061852323201e-12,1.0062660239696e-12,-0.00086093816268835,0.00086093816474624,-1.1512333012011e-12,3.2846963900741e-12,-0.0011094608484477,0.0011094608490807,-0.001109460847074,0.0011094608506385,-0.00110946084854,0.0011094608491729,-0.0011094608471809,0.0011094608507453,-0.0008889681155493,0.00088896811936238,-0.00088896811556707,0.00088896811937979,0.65495763090949,125301,3014,0.0035813978069085,0.003581397806908,0.0035813978069077,37.681166277292,0.00021664933021834,0.00021664933021834,0.00021664933021834,2691082.0812024,0.010803285655915
38419200,0.999997170461,0.013020584756597,0.0043401949188661,0.0043401949188657,0.0043401949188654,-0.00085993068401873,0.00085993068595196,8.5363698079973e-13,8.5357286511136e-13,8.465389623452e-13,8.5485222308667e-13,-0.0011081608330476,0.0011081608349966,-0.0011081608330977,0.0011081608350468,-0.0011081608331586,0.0011081608350557,-0.001108160833203,0.0011081608351002,-0.00088800208196587,0.0008880020840437,-0.00088800208194355,0.00088800208402121,8.4790055506991e-13,8.5219351019088e-13,3.1780450006825e-12,-1.4716438227084e-12,-0.00085993068401899,0.00085993068595143,-0.0011081608322797,0.0011081608357733,-0.0011081608338649,0.0011081608342713,-0.0011081608323892,0.0011081608358281,-0.0011081608339744,0.001108160834326,-0.00088800207971905,0.00088800208635363,-0.00088800208419159,0.00088800208171038,-0.00088800208273087,0.00088800208325582,-0.00088800208271493,0.00088800208325213,1.1764378841596e-12,1.1765147935748e-12,-0.00085993068369809,0.00085993068627216,-1.0431465737647e-12,3.5138852414532e-12,-0.0011081608335523,0.0011081608345595,-0.0011081608320743,0.0011081608360946,-0.001108160833581,0.0011081608345882,-0.0011081608321187,0.0011081608361389,-0.00088800208086395,0.00088800208510848,-0.00088800208086956,0.0008880020851137,0.72891346290552,125301,3014,0.0035772128328758,0.0035772128328752,0.0035772128328749,37.194176559487,0.00021275341247589,0.00021275341247589,0.00021275341247589,2699994.3457442,0.010790591275561
38880000,0.99999785542933,0.013020595189757,0.0043401983965859,0.0043401983965855,0.0043401983965852,-0.00085821348623126,0.00085821348781781,7.4001189314463e-13,7.3994510106743e-13,7.3741732534807e-13,7.4191202627334e-13,-0.0011087849625775,0.0011087849642374,-0.0011087849626744,0.0011087849643345,-0.0011087849627334,0.0011087849643409,-0.0011087849628241,0.0011087849644318,-0.00088647600262438,0.00088647600444077,-0.00088647600259689,0.00088647600441312,7.3879551312532e-13,7.3922894279852e-13,3.098653394332e-12,-1.6195187614002e-12,-0.00085821348623153,0.00085821348781728,-0.0011087849618004,0.0011087849650257,-0.0011087849634507,0.0011087849635473,-0.0011087849619546,0.0011087849651248,-0.001108784963605,0.0011087849636463,-0.00088647600034513,0.00088647600678614,-0.00088647600487728,0.00088647600206675,-0.0008864760033981,0.00088647600364746,-0.00088647600337672,0.00088647600363254,1.0605199253737e-12,1.0605990111929e-12,-0.00085821348591283,0.00085821348813581,-1.1886532462828e-12,3.4329623165342e-12,-0.0011087849630935,0.0011087849637864,-0.0011087849616419,0.0011087849653895,-0.0011087849631694,0.0011087849638623,-0.0011087849617324,0.00110878496548,-0.00088647600150862,0.00088647600550944,-0.00088647600152,0.00088647600552045,0.74537476942469,125301,3014,0.0035700989118275,0.003570098911827,0.0035700989118266,37.193611324062,0.00021274889059249,0.00021274889059249,0.00021274889059249,2634849.9426656,0.010769045839048
