time,ASR_ext,ASR_strain,ASR_strain_xx,ASR_strain_yy,ASR_strain_zz,disp_x_101,disp_x_102,disp_x_103,disp_x_104,disp_x_105,disp_x_106,disp_x_p1_neg,disp_x_p1_pos,disp_x_p2_neg,disp_x_p2_pos,disp_x_p3_neg,disp_x_p3_pos,disp_x_p4_neg,disp_x_p4_pos,disp_x_p5_neg,disp_x_p5_pos,disp_x_p6_neg,disp_x_p6_pos,disp_y_101,disp_y_102,disp_y_103,disp_y_104,disp_y_105,disp_y_106,disp_y_p1_neg,disp_y_p1_pos,disp_y_p2_neg,disp_y_p2_pos,disp_y_p3_neg,disp_y_p3_pos,disp_y_p4_neg,disp_y_p4_pos,disp_y_p5_neg,disp_y_p5_pos,disp_y_p6_neg,disp_y_p6_pos,disp_y_p7_neg,disp_y_p7_pos,disp_y_p8_neg,disp_y_p8_pos,disp_z_101,disp_z_102,disp_z_103,disp_z_104,disp_z_105,disp_z_106,disp_z_p1_neg,disp_z_p1_pos,disp_z_p2_neg,disp_z_p2_pos,disp_z_p3_neg,disp_z_p3_pos,disp_z_p4_neg,disp_z_p4_pos,disp_z_p5_neg,disp_z_p5_pos,disp_z_p6_neg,disp_z_p6_pos,humidity,ndof,nelem,strain_xx,strain_yy,strain_zz,temp,thermal_strain_xx,thermal_strain_yy,thermal_strain_zz,vonmises,vstrain
2419200,0,0,0,0,0,0,0,0,0,0,0,0,0,0,0,0,0,0,0,0,0,0,0,0,0,0,0,0,0,0,0,0,0,0,0,0,0,0,0,0,0,0,0,0,0,0,0,0,0,0,0,0,0,0,0,0,0,0,0,0,0,0,0,0,0,0,0,0,0,0,0,0,0,0,0
2919200,0.076591007606146,0.0015632833425035,0.00052109444750117,0.00052109444750117,0.00052109444750117,-0.00016096571785797,0.00016094868823195,-6.4142903526342e-09,-6.4142903226204e-09,-6.2157047061717e-09,-6.3706471391544e-09,-0.00016266409291616,0.00016264986801987,-0.00016266548271291,0.0001626512578168,-0.00016266537828718,0.00016265116144754,-0.00016266676685068,0.00016265255001089,-0.0001639246785769,0.00016391111979318,-0.0001639256094667,0.00016391205068056,-6.2156999986435e-09,-6.3706534118773e-09,-1.2719707311487e-08,-1.0887463489655e-10,-0.00016096571785885,0.00016094868823102,-0.000162666199252,0.00016264776733008,-0.00016266337637538,0.00016265335850735,-0.00016266748400974,0.00016264906013702,-0.00016266466113299,0.0001626546513143,-0.00016393085806841,0.00016390495257863,-0.00016391942997879,0.00016391821789087,-0.00016392253099628,0.00016391348597264,-0.00016392336795971,0.00016391413830529,-7.5413141475955e-09,-7.541314114898e-09,-0.0001609668536325,0.00016094755245734,-1.2267236762904e-09,-1.3844038768571e-08,-0.00016266301250998,0.00016265079123776,-0.00016266865172281,0.00016264801682242,-0.00016266444490868,0.00016265222363626,-0.00016267002606166,0.00016264939116132,-0.00016392883485193,0.00016390884109543,-0.00016392793813699,0.00016390794437793,0.81617710461644,125301,3014,0.00067042955705015,0.0006704295570504,0.00067042955705033,32.433347817048,0.00017466678253638,0.00017466678253638,0.00017466678253638,1138288.5041111,0.0020133148659096
3419200,0.15543360756478,0.0030766892356625,0.0010255630785475,0.0010255630785475,0.0010255630785674,-0.00027391280694317,0.00027389383657154,-7.9080689805386e-09,-7.9080555222145e-09,-7.594005595783e-09,-7.842415524986e-09,-0.00028351373931088,0.00028349697162793,-0.00028351594092972,0.00028349917322411,-0.00028351584740166,0.00028349902350171,-0.00028351804193921,0.0002835012180122,-0.00027935264426393,0.00027933623598514,-0.00027935466951579,0.00027933826132434,-7.5939994537904e-09,-7.8424229465304e-09,-1.4421340770934e-08,-1.3947849121035e-09,-0.00027391280694387,0.00027389383657069,-0.00028351593519688,0.00028349480675009,-0.00028351374504108,0.00028350133810379,-0.0002835180396934,0.00028349685501962,-0.0002835158496528,0.00028350338648634,-0.00027935904399254,0.00027932988792434,-0.00027934826979293,0.00027934460938055,-0.00027935036776592,0.00027933883046748,-0.00027935227768394,0.00027934041001212,-8.9192488940687e-09,-8.9192354019221e-09,-0.00027391383103649,0.00027389281248713,-2.3563268150391e-09,-1.542058535618e-08,-0.00028351243946172,0.00028349805037913,-0.00028351907278088,0.00028349596200335,-0.0002835147119476,0.00028350032283646,-0.00028352125369672,0.00028349814289359,-0.00027935785898598,0.00027933510529668,-0.00027935588178394,0.00027933312799668,0.78776539792416,125301,3014,0.0011406131407561,0.0011406131407562,0.001140613140775,31.910845927109,0.00017048676741687,0.00017048676741687,0.00017048676741687,1900831.2340687,0.0034277098442212
3919200,0.24173593720937,0.0046613045594265,0.0015537681864692,0.0015537681864702,0.0015537681864871,-0.00039374352391626,0.00039373368847015,-4.0294401944268e-09,-4.0294222623276e-09,-3.811903042214e-09,-3.9921359147822e-09,-0.00041769336167269,0.00041768495689105,-0.00041769441243845,0.00041768600762704,-0.00041769439856729,0.00041768591470645,-0.00041769544091025,0.00041768695701597,-0.00040124258066904,0.0004012339950634,-0.00040124319377643,0.0004012346082472,-3.81189798121e-09,-3.9921411189514e-09,-6.4337685923999e-09,-1.6250937486402e-09,-0.00039374352391666,0.0003937336884702,-0.00041769418226106,0.00041768416338927,-0.00041769359184809,0.00041768680113157,-0.00041769521490936,0.00041768511694967,-0.00041769462457193,0.00041768775476763,-0.00040124496052166,0.00040123166875543,-0.00040124081392672,0.00040123693455383,-0.00040124166942912,0.00040123508746056,-0.00040124224929174,0.00040123539670289,-4.0934417047393e-09,-4.0934237056568e-09,-0.00039374358888925,0.0003937336235059,-1.6272801847515e-09,-6.4863312705174e-09,-0.00041769254313724,0.00041768565963875,-0.0004176952618699,0.00041768512692348,-0.00041769363616313,0.00041768675263033,-0.00041769630224646,0.0004176861672672,-0.00040124406230031,0.00040123375513918,-0.00040124348535277,0.0004012331781071,0.77553103716342,125301,3014,0.0016392381912163,0.0016392381912173,0.0016392381912345,32.49706751008,0.00017517654008064,0.00017517654008064,0.00017517654008064,2718607.0266504,0.0049298513057113
4419200,0.33620268731142,0.0063538342234263,0.0021179447411358,0.0021179447411363,0.0021179447411542,-0.00052171572113043,0.00052171000971283,-2.352169542688e-09,-2.3521476118139e-09,-2.2748821146188e-09,-2.3447053111269e-09,-0.00056528578165516,0.00056528155683526,-0.00056528619249382,0.00056528196764113,-0.00056528619548121,0.0005652819534402,-0.00056528660190297,0.00056528235982295,-0.00053238026323786,0.00053237525942538,-0.00053238070340763,0.00053237569972904,-2.2748773079676e-09,-2.3447093476838e-09,-2.9302158276178e-09,-1.7741004364211e-09,-0.00052171572113029,0.0005217100097132,-0.00056528598233756,0.00056528136770675,-0.00056528599180873,0.00056528215677229,-0.00056528639392129,0.00056528176206117,-0.00056528640346496,0.00056528255119786,-0.00053238084603066,0.00053237471013452,-0.00053238012061452,0.00053237624901924,-0.00053238002042247,0.00053237553147998,-0.00053238046887909,0.00053237589241882,-1.941278540979e-09,-1.9412565314602e-09,-0.00052171530273702,0.00052171042811576,-1.3146578406274e-09,-2.5134358978101e-09,-0.00056528514853359,0.00056528217695173,-0.00056528596674943,0.00056528218721609,-0.00056528556279281,0.00056528259117306,-0.00056528637774119,0.00056528259817092,-0.00053238048407278,0.00053237591351474,-0.00053238005574732,0.00053237548504397,0.77667599660927,125301,3014,0.0021714630838416,0.0021714630838421,0.0021714630838614,33.599428494332,0.00018399542795466,0.00018399542795466,0.00018399542795466,3497752.4082768,0.0065357139502969
4919200,0.43896336451334,0.0081571730848675,0.0027190576949509,0.0027190576949515,0.0027190576949651,-0.0006574084704298,0.00065740452565485,-1.6635481003651e-09,-1.6635197786127e-09,-1.6772509427821e-09,-1.6708154298826e-09,-0.00072825759886917,0.00072825512705996,-0.00072825762256158,0.00072825515071196,-0.00072825760869186,0.00072825518211656,-0.00072825763199377,0.00072825520537178,-0.00067250819347693,0.00067250465833247,-0.00067250846432685,0.00067250492928443,-1.6772463292284e-09,-1.6708182324477e-09,-2.1066461981669e-09,-1.2204200982363e-09,-0.00065740847042925,0.00065740452565561,-0.00072825774078008,0.0007282549788352,-0.00072825748064798,0.00072825529893948,-0.00072825775038312,0.00072825503366542,-0.00072825749030343,0.00072825535382017,-0.00067250863230686,0.00067250422698219,-0.00067250802549578,0.00067250536063543,-0.00067250804726988,0.00067250475105274,-0.00067250833784548,0.00067250508662194,-1.1628368106631e-09,-1.1628083874725e-09,-0.0006574079623481,0.00065740503374438,-6.9667175330321e-10,-1.6058332641461e-09,-0.00072825694967852,0.00072825581460411,-0.0007282572579585,0.00072825551381939,-0.00072825695344883,0.00072825581832925,-0.00072825728188735,0.00072825553770361,-0.00067250810321729,0.00067250526865493,-0.00067250783578908,0.00067250500111231,0.77771912791946,125301,3014,0.0027354985364125,0.0027354985364129,0.0027354985364288,35.34479948983,0.00019795839591864,0.00019795839591864,0.00019795839591864,4145793.4756277,0.0082403950411461
5419200,0.53939915779061,0.009864963518352,0.0032883211727788,0.0032883211727793,0.003288321172794,-0.00078152312959703,0.00078152103297913,-9.7723637083497e-10,-9.7720678520938e-10,-1.0530856191925e-09,-9.9397128562422e-10,-0.00088512316592873,0.00088512249617649,-0.00088512294161501,0.00088512227182949,-0.00088512292860866,0.00088512233455513,-0.00088512270956269,0.00088512211546945,-0.00080064436831405,0.00080064232899429,-0.00080064470771182,0.00080064266854687,-1.0530812131474e-09,-9.9397357573257e-10,-1.2772395865778e-09,-6.7720164214537e-10,-0.00078152312959628,0.00078152103298005,-0.00088512324496974,0.00088512239053972,-0.00088512286257107,0.00088512237746924,-0.00088512301026846,0.00088512223153109,-0.00088512262790331,0.00088512221849149,-0.00080064465373152,0.00080064202081167,-0.00080064442229264,0.00080064297673073,-0.00080064431292404,0.0008006422831456,-0.00080064467271919,0.00080064278368204,-4.9915227482887e-10,-4.9912257391268e-10,-0.00078152264763285,0.00078152151495186,-2.1025620786129e-10,-8.0590709406206e-10,-0.00088512261560417,0.00088512311896236,-0.00088512255497355,0.00088512266819567,-0.00088512235992442,0.00088512286324492,-0.00088512233485803,0.00088512244804304,-0.00080064432092796,0.00080064303162653,-0.00080064397453246,0.00080064268506362,0.76998246047966,125301,3014,0.003251153080796,0.0032511530807963,0.0032511530808138,36.273583620683,0.00020538866896547,0.00020538866896547,0.00020538866896547,4638430.9028512,0.0098014303143184
5919200,0.63068437481485,0.011291425674045,0.0037638085580096,0.00376380855801,0.0037638085580255,-0.00088031952756116,0.00088031936478519,-2.2193592895089e-10,-2.2190868634196e-10,-3.5339831907099e-10,-2.4574694077612e-10,-0.0010192414793574,0.0010192425920828,-0.0010192410210381,0.001019242133715,-0.0010192410110118,0.0010192422195427,-0.0010192405571857,0.0010192417656616,-0.000899567018823,0.00089956659001718,-0.00089956728280529,0.00089956685413937,-3.5339405712686e-10,-2.4574885822489e-10,8.0370206118579e-10,-1.2475446051798e-09,-0.0008803195275603,0.00088031936478622,-0.0010192411229928,0.0010192429287858,-0.0010192413773996,0.0010192417970149,-0.0010192406568789,0.0010192425584716,-0.0010192409113186,0.0010192414267311,-0.0008995660079252,0.00089956758371582,-0.00089956829370093,0.0008995658604419,-0.00089956744028221,0.00089956602269003,-0.00089956772059456,0.00089956653090461,4.2840577129187e-10,4.2843311228016e-10,-0.0008803188749206,0.00088032001743463,-6.0541855614339e-10,1.4495614996118e-09,-0.0010192412250855,0.0010192429513086,-0.001019240034305,0.0010192431373062,-0.0010192407227206,0.0010192424488907,-0.0010192395785479,0.0010192426814964,-0.00089956628856836,0.00089956782658775,-0.00089956600655535,0.00089956754442216,0.7232260738188,125301,3014,0.0036614641216565,0.0036614641216569,0.003661464121675,36.779436130061,0.00020943548904049,0.00020943548904049,0.00020943548904049,4947458.1046304,0.011045321016531
6419200,0.70817675333812,0.012459648888246,0.0041532162960763,0.0041532162960768,0.0041532162960932,-0.00095602868198436,0.00095603017592923,3.9008136995838e-10,3.9010937627928e-10,2.0897605860133e-10,3.6100683157734e-10,-0.0011264006303589,0.0011264033507104,-0.0011263999541633,0.0011264026744656,-0.0011263999454915,0.0011264027812106,-0.0011263992747274,0.001126402110391,-0.00097478108427659,0.00097478199389448,-0.00097478137979589,0.00097478228956168,2.0898047067199e-10,3.610046459805e-10,1.6610472713152e-09,-8.8085435466869e-10,-0.00095602868198348,0.00095603017593024,-0.0011264001863714,0.0011264037689274,-0.0011264003981474,0.0011264022562516,-0.0011263995042075,0.0011264032021252,-0.0011263997160114,0.0011264016894746,-0.00097477982975519,0.0009747832225459,-0.00097478263431566,0.00097478106091209,-0.0009747816256704,0.00097478127420529,-0.00097478192653076,0.00097478188646614,1.1009406944293e-09,1.1009689646539e-09,-0.00095602797104794,0.00095603088687497,-1.9034932459115e-10,2.3655224832207e-09,-0.0011264004195154,0.0011264036902547,-0.0011263988339337,0.0011264038191239,-0.001126399691186,0.0011264029618718,-0.0011263981602833,0.0011264031454203,-0.0009747802473709,0.00097478340145196,-0.00097477992383926,0.00097478307775926,0.70960752511191,125301,3014,0.0039758011642063,0.0039758011642066,0.0039758011642257,36.741496754542,0.00020913197403633,0.00020913197403633,0.00020913197403633,5186380.3290893,0.011999323059949
6919200,0.77815815122174,0.013545661687182,0.004515220562388,0.0045152205623883,0.0045152205624054,-0.001026496762818,0.0010264963410559,-3.581981186757e-10,-3.5817027379105e-10,-5.3458517517221e-10,-3.8252976050781e-10,-0.0012271850225981,0.0012271862171708,-0.0012271844408177,0.0012271856353401,-0.001227184406872,0.0012271857358547,-0.0012271838275595,0.0012271851564856,-0.0010473848859331,0.0010473842296935,-0.0010473853214987,0.0010473846654104,-5.345806142358e-10,-3.825320601655e-10,8.2371362628969e-10,-1.5400798653882e-09,-0.0010264967628171,0.0010264963410569,-0.0012271846196542,0.0012271866081826,-0.0012271848437582,0.0012271852443313,-0.0012271840051517,0.0012271861280842,-0.0012271842292799,0.0012271847642542,-0.0010473837260552,0.0010473853819217,-0.001047386481375,0.0010473835131837,-0.0010473854114829,0.0010473835411694,-0.0010473858273882,0.0010473842904804,3.228845979207e-10,3.2291279547105e-10,-0.0010264960842984,0.0010264970195852,-8.605555643094e-10,1.5028955356613e-09,-0.0012271848044736,0.0012271865493585,-0.001227183380058,0.0012271867067992,-0.0012271841710134,0.0012271859158439,-0.0012271827942696,0.0012271861209567,-0.0010473842546304,0.0010473857169936,-0.0010473837909247,0.0010473852531234,0.73388447106055,125301,3014,0.0042683001284369,0.0042683001284371,0.004268300128457,38.625673877661,0.00022420539102128,0.00022420539102128,0.00022420539102128,5291247.9309268,0.012887917115261
7419200,0.83859484258194,0.014417525489048,0.0048058418296766,0.004805841829677,0.0048058418296946,-0.0010776985829187,0.0010776974869092,-6.508347249459e-10,-6.5080714561196e-10,-8.1972987566793e-10,-6.7143895750074e-10,-0.0013100240595485,0.001310024631547,-0.0013100235734573,0.0013100241454046,-0.0013100235284253,0.0013100242384886,-0.0013100230429391,0.0013100237529447,-0.0010987131457434,0.0010987119012141,-0.0010987136733853,0.0010987124290078,-8.1972473151757e-10,-6.7144047608119e-10,4.4550186623712e-10,-1.7471403292477e-09,-0.0010776985829174,0.0010776974869107,-0.0013100236903164,0.0013100249957226,-0.0013100239426847,0.0013100237812319,-0.0013100231594874,0.0013100246029519,-0.0013100234118773,0.0013100233884794,-0.0010987120738558,0.0010987129754381,-0.0010987147452702,0.0010987113547885,-0.0010987136483319,0.0010987112506663,-0.0010987141413366,0.0010987120810325,-1.4949096550656e-11,-1.4920816561649e-11,-0.0010776979519152,0.0010776981179226,-1.1011660247515e-09,1.0817912921804e-09,-0.0013100238542681,0.0013100249394357,-0.0013100225894235,0.0013100251332796,-0.0013100233187953,0.0013100244039073,-0.0013100220949593,0.0013100246387607,-0.0010987126845253,0.0010987134077117,-0.0010987121293304,0.0010987128523479,0.68603447197177,125301,3014,0.0044808250512551,0.0044808250512555,0.0044808250512758,40.76459772057,0.00024131678176456,0.00024131678176456,0.00024131678176456,5185141.0564271,0.01353412202012
7919200,0.88406000136546,0.0150545283111,0.0050181761036939,0.0050181761036942,0.0050181761037121,-0.001106890793732,0.0011068928780746,5.3770348173361e-10,5.3773059866991e-10,3.2654846934488e-10,5.110693811224e-10,-0.0013623844589677,0.0013623877883011,-0.0013623837458615,0.001362387075143,-0.0013623837181451,0.0013623871872704,-0.001362383009384,0.0013623864784511,-0.0011279674413716,0.0011279687597914,-0.0011279679697019,0.0011279692882744,3.2655276715548e-10,5.110677224488e-10,1.7977451284797e-09,-7.2230857071005e-10,-0.001106890793731,0.0011068928780757,-0.0013623840189581,0.0013623882047304,-0.0013623841858675,0.0013623866587165,-0.0013623832802995,0.0013623876058583,-0.0013623834472293,0.0013623860598616,-0.0011279661995288,0.0011279699794088,-0.0011279692115424,0.0011279680686592,-0.0011279680237284,0.0011279680006072,-0.0011279685198131,0.0011279688869957,1.187568512803e-09,1.1875966493552e-09,-0.0011068901506775,0.0011068935211391,-9.30546775523e-11,2.441937207421e-09,-0.0013623843158161,0.0013623880537372,-0.0013623827007854,0.0013623881407069,-0.0013623835518134,0.0013623872896789,-0.0013623819845993,0.0013623874244657,-0.0011279669122817,0.001127970336135,-0.0011279663488109,0.0011279697724965,0.66517729631285,125301,3014,0.0046020062366179,0.0046020062366181,0.0046020062366388,40.956256837729,0.00024285005470183,0.00024285005470183,0.00024285005470183,5091697.6650851,0.01390279055867
8419200,0.91795055971503,0.015523433996543,0.0051744779988413,0.0051744779988416,0.0051744779988597,-0.0011250257873499,0.0011250277255778,4.763195754404e-10,4.7634645861914e-10,2.622271218179e-10,4.508214538611e-10,-0.0013999403717532,0.0013999436209577,-0.0013999396618344,0.0013999429109865,-0.0013999396300636,0.0013999430226927,-0.0013999389237644,0.0013999423163349,-0.0011464978594128,0.0011464990573894,-0.0011464984291376,0.0011464996272674,2.6222935179992e-10,4.5082256408454e-10,1.8457112130569e-09,-8.9304208783035e-10,-0.0011250257873485,0.0011250277255792,-0.0013999398980854,0.0013999440744511,-0.0013999401354994,0.001399942457495,-0.001399939158196,0.001399943477984,-0.0013999393956295,0.0013999418610442,-0.0011464965124688,0.0011465003868282,-0.001146499776077,0.0011464982978329,-0.0011464984852115,0.0011464982571988,-0.00114649901421,0.0011464991891263,1.1282881549537e-09,1.1283161996852e-09,-0.0011250251435728,0.001125028369365,-2.5729580443685e-10,2.4931540016213e-09,-0.0013999402637808,0.0013999438481378,-0.001399938581409,0.0013999440103674,-0.0013999395037376,0.0013999430880387,-0.0013999378670469,0.0013999432959499,-0.0011464973362749,0.0011465007136853,-0.0011464967295931,0.0011465001068352,0.65392243464143,125301,3014,0.0046773044037275,0.0046773044037276,0.0046773044037487,41.432700660788,0.00024666160528631,0.00024666160528631,0.00024666160528631,4924166.3363519,0.014131995115769
8919200,0.9426776788866,0.015853371509225,0.0052844571697355,0.0052844571697358,0.0052844571697541,-0.0011345471011073,0.0011345492744227,5.6071653293599e-10,5.6074311797677e-10,3.4146807738463e-10,5.35527519296e-10,-0.0014251990758511,0.0014252025535435,-0.0014251983474592,0.0014252018250989,-0.0014251983147583,0.0014252019378258,-0.0014251975898978,0.0014252012129063,-0.001156207388214,0.0011562087759184,-0.0011562079823667,0.001156209370224,3.4147279883664e-10,5.3552520572881e-10,2.0077556009096e-09,-8.8629349523807e-10,-0.0011345471011063,0.0011345492744237,-0.0014251985764064,0.0014252030330995,-0.0014251988468997,0.0014252013455457,-0.0014251978170719,0.0014252024191341,-0.001425198087584,0.0014252007315959,-0.0011562059655584,0.001156210181628,-0.0011562094050192,0.0011562079645156,-0.0011562080463483,0.0011562079431811,-0.0011562085944241,0.001156208905948,1.2109866028964e-09,1.2110147015968e-09,-0.0011345464600657,0.0011345499154745,-2.5262266206579e-10,2.65362248039e-09,-0.0014251989976399,0.0014252027502697,-0.0014251972453339,0.0014252029466228,-0.0014251982196914,0.0014252019722653,-0.0014251965121833,0.0014252022134167,-0.0011562068672493,0.001156210481126,-0.0011562062342013,0.0011562098479089,0.62734197840703,125301,3014,0.0047168662466599,0.0047168662466601,0.0047168662466813,41.891712430499,0.00025033369944399,0.00025033369944399,0.00025033369944399,4731609.1465278,0.01425249337695
9419200,0.95961170224424,0.016076744292871,0.0053589147642839,0.0053589147642842,0.0053589147643026,-0.0011366065606076,0.0011366112764104,1.5241272320475e-09,1.5241542533397e-09,1.2674091750491e-09,1.4936825261712e-09,-0.001437634552153,0.001437640298549,-0.0014376336170795,0.0014376393634232,-0.0014376335985836,0.0014376394933091,-0.0014376326698099,0.0014376385644768,-0.0011586490608452,0.0011586525185808,-0.0011586496653192,0.0011586531232089,1.2674119161804e-09,1.4936829776905e-09,3.265729097045e-09,-2.1744464613737e-10,-0.0011366065606063,0.0011366112764118,-0.0014376339430101,0.0014376408746548,-0.0014376342262194,0.0014376387873194,-0.0014376329925819,0.0014376400725531,-0.0014376332758096,0.0014376379852329,-0.0011586473428344,0.001158654202066,-0.0011586513833259,0.0011586514397277,-0.0011586498391364,0.0011586515394485,-0.0011586503988195,0.0011586525619554,2.2084783391792e-09,2.2085057169604e-09,-0.0011366058864152,0.0011366119506131,4.2579792404805e-10,3.9415126785521e-09,-0.0014376345561027,0.0014376404317796,-0.001437632387947,0.0014376406255044,-0.0014376335689154,0.0014376394445359,-0.0014376314525902,0.0014376396900917,-0.0011586484180425,0.0011586543663612,-0.001158647767588,0.001158653715739,0.61541999810711,125301,3014,0.0047254616412883,0.0047254616412885,0.0047254616413098,41.150649124844,0.00024440519299875,0.00024440519299875,0.00024440519299875,4591340.7820969,0.014278729825453
9919200,0.97100598679709,0.016227209543349,0.0054090698477766,0.0054090698477769,0.0054090698477953,-0.0011351099305267,0.0011351160659567,2.066573961084e-09,2.0666007137079e-09,1.7891590143026e-09,2.0336291342024e-09,-0.001444178515344,0.0014441855427982,-0.0014441774641318,0.0014441844915311,-0.0014441774527052,0.0014441846306153,-0.0014441764092151,0.0014441835870712,-0.0011575312368845,0.0011575358610665,-0.0011575318562628,0.0011575364806012,1.7891652960258e-09,2.0336261901875e-09,3.9910751620832e-09,1.4209955159442e-10,-0.0011351099305303,0.0011351160659607,-0.001444177839312,0.0014441861790606,-0.0014441781401625,0.0014441838552747,-0.0014441767805396,0.0014441852707318,-0.0014441770814006,0.0014441829469548,-0.0011575293366302,0.0011575377185353,-0.0011575337565273,0.0011575346231487,-0.0011575320893655,0.0011575347950125,-0.001157532662328,0.0011575358588873,2.7675359267066e-09,2.7675632893707e-09,-0.0011351092403539,0.0011351167561418,7.8876838049094e-10,4.6815125073888e-09,-0.0014441785733873,0.0014441856315512,-0.0014441761603358,0.0014441858353679,-0.0014441774687928,0.0014441845268977,-0.0014441751110995,0.001444184786072,-0.0011575305318219,0.001157537801295,-0.0011575298624146,0.0011575371317114,0.61191532076091,125301,3014,0.004719298112675,0.0047192981126905,0.0047192981127006,39.827161114192,0.00023381728891354,0.00023381728891354,0.00023381728891354,4463190.1369921,0.014260054140015
10419200,0.97866454370183,0.016330451699357,0.0054434838997793,0.0054434838997799,0.0054434838997982,-0.0011316708179541,0.001131677972951,2.4562664752158e-09,2.4562937460298e-09,2.1653150095834e-09,2.4216159569713e-09,-0.0014469086077002,0.0014469165552949,-0.0014469074741071,0.0014469154216508,-0.0014469074669695,0.0014469155662749,-0.0014469063416948,0.0014469144409423,-0.0011545134233594,0.0011545188838683,-0.0011545140620086,0.0011545195226712,2.1653208813916e-09,2.4216151979264e-09,4.5871385346796e-09,3.2542635846749e-10,-0.0011316708179529,0.0011316779729543,-0.0014469078602573,0.0014469172601152,-0.0014469082215473,0.0014469147168382,-0.0014469067236784,0.0014469162752411,-0.0014469070849885,0.0014469137319795,-0.0011545113196367,0.0011545209408796,-0.0011545161657251,0.0011545174656633,-0.0011545143529177,0.0011545177318305,-0.0011545149446691,0.0011545188325077,3.1746394955014e-09,3.1746664885003e-09,-0.001131670110809,0.0011316786801077,9.8330115653052e-10,5.294059120569e-09,-0.0014469087236211,0.001446916592522,-0.0014469060868173,0.0014469168531171,-0.0014469075355441,0.0014469154043866,-0.0014469049562363,0.0014469157224796,-0.0011545126522926,0.0011545209296212,-0.001154511960697,0.0011545202378585,0.62047456220516,125301,3014,0.0047050699725881,0.0047050699725924,0.0047050699726122,38.098728570332,0.00021998982856266,0.00021998982856266,0.00021998982856266,4354708.4147208,0.01421683203126
10919200,0.98428180043999,0.016403667932336,0.0054678893107723,0.0054678893107729,0.0054678893107912,-0.0011307092974456,0.0011307133571714,1.280421975664e-09,1.280449246478e-09,1.0315258475052e-09,1.2528431139734e-09,-0.001451423735596,0.0014514289475173,-0.0014514228547632,0.0014514280666322,-0.0014514228273588,0.0014514281896215,-0.0014514219497569,0.0014514273119613,-0.0011537636118241,0.0011537665534261,-0.0011537642551302,0.0011537671968875,1.0315306491733e-09,1.2528409682302e-09,3.4893135175896e-09,-9.2843983595732e-10,-0.0011307092974446,0.0011307133571726,-0.0014514229832604,0.0014514296813113,-0.0014514236070949,0.0014514273328415,-0.0014514220766321,0.0014514289250184,-0.0014514227004841,0.0014514265765628,-0.0011537614440857,0.001153768706206,-0.0011537664228667,0.0011537650441098,-0.0011537645446953,0.0011537654285182,-0.0011537651346521,0.0011537664798046,1.9966446192598e-09,1.9966715350846e-09,-0.0011307085926251,0.0011307140620023,-2.2900713481276e-10,4.2016621341501e-09,-0.0014514238599446,0.001451428953059,-0.001451421444686,0.0014514295024497,-0.0014514229270388,0.0014514280200963,-0.0014514205591548,0.0014514286168621,-0.0011537628263033,0.001153768626837,-0.0011537621355252,0.0011537679358912,0.59839955055737,125301,3014,0.0047011069105876,0.0047011069105882,0.0047011069106094,37.946110858588,0.00021876888686871,0.00021876888686871,0.00021876888686871,4240834.885835,0.014204841863112
11419200,0.98837518478019,0.016456985127681,0.0054856617092205,0.0054856617092211,0.0054856617092394,-0.0011289584770752,0.0011289629089112,1.4194663383071e-09,1.4194937438229e-09,1.1633603517869e-09,1.3911833206574e-09,-0.0014518319372727,0.0014518374876092,-0.0014518310261117,0.0014518365763964,-0.0014518310006404,0.0014518367026719,-0.0014518300931343,0.0014518357951081,-0.0011524555641421,0.0011524588087748,-0.0011524562094497,0.0011524594542372,1.1633644056706e-09,1.391180521901e-09,3.6632735427532e-09,-8.2430939808008e-10,-0.001128958477074,0.001128962908912,-0.0014518311714538,0.0014518382328007,-0.0014518317919279,0.0014518358312088,-0.0014518302366409,0.0014518374496759,-0.0014518308571333,0.0014518350480984,-0.0011524533612274,0.0011524609941984,-0.00115245841236,0.0011524572688136,-0.0011524565135915,0.0011524576628086,-0.0011524571044425,0.0011524587257783,2.1451167160686e-09,2.1451432871392e-09,-0.0011289577632448,0.0011289636227519,-1.1937911388825e-10,4.3844470446524e-09,-0.0014518320672712,0.0014518374904654,-0.0014518295964268,0.0014518380341288,-0.0014518311037111,0.0014518365268462,-0.001451828681267,0.0014518371189146,-0.0011524547599531,0.0011524609050704,-0.0011524540656353,0.001152460210583,0.59529610019421,125301,3014,0.0046938557294162,0.0046938557294151,0.0046938557294376,37.628307557302,0.00021622646045842,0.00021622646045842,0.00021622646045842,4190759.3952018,0.014182793896895
11919200,0.99134206010202,0.016496539265152,0.0054988464217108,0.0054988464217115,0.0054988464217297,-0.0011269840054623,0.0011269889294864,1.607502275556e-09,1.607529578016e-09,1.3453501984455e-09,1.5784227314161e-09,-0.0014526406270326,0.0014526466181695,-0.0014526396780619,0.001452645669146,-0.0014526396547899,0.0014526457979636,-0.0014526387099142,0.0014526448530303,-0.0011507081264587,0.0011507117743621,-0.0011507087805369,0.0011507124285956,1.3453542653471e-09,1.5784196785829e-09,3.9129742166435e-09,-6.9793974912807e-10,-0.0011269840054611,0.0011269889294871,-0.0014526398387279,0.0014526473836991,-0.0014526404663611,0.001452644903619,-0.0014526388685269,0.0014526465655289,-0.0014526394961772,0.0014526440854626,-0.0011507058620876,0.0011507140183575,-0.0011507110449061,0.0011507101846018,-0.0011507091002478,0.0011507106002631,-0.0011507096998387,0.0011507116796898,2.3360561591761e-09,2.3360828410669e-09,-0.0011269832889275,0.0011269896460315,5.7267491105692e-12,4.6363585411056e-09,-0.0014526407775673,0.0014526466031895,-0.0014526382257338,0.0014526471516397,-0.0014526397759045,0.0014526456014699,-0.0014526372734213,0.0014526461992697,-0.0011507073077523,0.0011507139031136,-0.0011507066034387,0.001150713198633,0.60696177594784,125301,3014,0.0046856829097331,0.0046856829097319,0.0046856829097544,37.10472407151,0.00021203779257208,0.00021203779257208,0.00021203779257208,4127921.8144715,0.01415796553278
12419200,0.99352647665763,0.016526006191802,0.0055086687305942,0.0055086687305948,0.0055086687306131,-0.0011254103461077,0.0011254148643555,1.45437152636e-09,1.4543988158792e-09,1.1995042720855e-09,1.4264862214134e-09,-0.0014542127510017,0.0014542183793996,-0.00145421183787,0.0014542174662172,-0.0014542118113233,0.0014542175910318,-0.0014542109014823,0.0014542166811316,-0.0011492770665532,0.0011492803853923,-0.0011492777261829,0.0011492810451785,1.1995088306479e-09,1.4264838983042e-09,3.7935802811313e-09,-8.8480840321908e-10,-0.0011254103461069,0.0011254148643562,-0.0014542119547776,0.0014542191566544,-0.00145421263409,0.0014542166889658,-0.0014542110167397,0.0014542183699179,-0.0014542116960671,0.0014542159022423,-0.0011492747710298,0.0011492826653514,-0.0011492800217042,0.001149278765219,-0.0011492780477123,0.0011492792095646,-0.0011492786519226,0.001149280284772,2.1771172778263e-09,2.177143970952e-09,-0.0011254096354088,0.0011254155750646,-1.8008398970479e-10,4.5123060478094e-09,-0.0014542129150929,0.0014542183465776,-0.0014542103801152,0.0014542189510419,-0.0014542119498636,0.0014542173812924,-0.0014542094623453,0.0014542180332153,-0.001149276248837,0.0011492825253467,-0.0011492755398623,0.001149281816204,0.61229629907733,125301,3014,0.0046791750468705,0.0046791750468702,0.0046791750468918,36.80225273609,0.00020961802188872,0.00020961802188872,0.00020961802188872,4053908.2251421,0.014138214143748
12919200,0.99511575051734,0.016546792341775,0.0055155974472519,0.0055155974472525,0.0055155974472708,-0.0011228152358206,0.0011228205489314,1.7577547451521e-09,1.7577820060251e-09,1.4937852412392e-09,1.7285605104571e-09,-0.0014538054741038,0.0014538118021463,-0.0014538045004025,0.001453810828393,-0.0014538044777276,0.0014538109572903,-0.0014538035081348,0.0014538099876388,-0.0011469171541142,0.0011469211247997,-0.0011469178195597,0.0011469217903999,1.4937891063621e-09,1.7285567659832e-09,4.1665343045431e-09,-6.5099714293291e-10,-0.0011228152358205,0.0011228205489318,-0.0014538046512087,0.0014538126021597,-0.0014538053232947,0.0014538100283821,-0.0014538036568803,0.0014538117593437,-0.0014538043289837,0.0014538091855807,-0.0011469147886485,0.0011469234698193,-0.0011469201850247,0.0011469194453803,-0.0011469181635221,0.0011469199149479,-0.0011469187740758,0.0011469210069577,2.4836390875307e-09,2.4836658437722e-09,-0.0011228145220911,0.0011228212626705,4.9553349679182e-11,4.8872044414649e-09,-0.0014538056625069,0.0014538117495669,-0.0014538030169496,0.0014538123424091,-0.0014538046361774,0.0014538107231806,-0.0014538020398622,0.0014538113652652,-0.0011469163155598,0.001146923297101,-0.001146915599262,0.0011469225806356,0.59298587103216,125301,3014,0.004668428045371,0.0046684280453717,0.0046684280453913,36.136432503046,0.00020429146002437,0.00020429146002437,0.00020429146002437,3999158.5031008,0.01410554820653
13419200,0.99624808227271,0.016561447097166,0.0055204823657153,0.0055204823657159,0.0055204823657342,-0.0011187427498161,0.0011187495094677,2.3078445203164e-09,2.3078716773103e-09,2.022815208031e-09,2.2755699641643e-09,-0.0014499836827555,0.0014499913016312,-0.001449982593202,0.0014499902120264,-0.0014499825786569,0.0014499903508591,-0.001449981494838,0.0014499892669811,-0.0011432398221464,0.0011432449741647,-0.0011432404945682,0.0011432456467416,2.0228205648406e-09,2.2755662850304e-09,4.8514838709846e-09,-2.3576588114635e-10,-0.0011187427498152,0.0011187495094682,-0.00144998280806,0.0014499921456959,-0.0014499834678927,0.0014499893679642,-0.0014499817068225,0.0014499911977767,-0.001449982366673,0.0014499884200586,-0.0011432373207145,0.0011432474449959,-0.0011432429959983,0.0011432431759104,-0.0011432408881339,0.0011432436925497,-0.0011432415072411,0.0011432448190539,3.0554404354509e-09,3.0554671766339e-09,-0.0011187420146929,0.0011187502446009,4.7188206263572e-10,5.5914451135281e-09,-0.0014499839044331,0.0014499912268085,-0.0014499810452719,0.0014499917981967,-0.0014499827605749,0.0014499900828932,-0.0014499799549937,0.0014499907078611,-0.0011432389234238,0.0011432472199365,-0.001143238196538,0.0011432464928833,0.58571222609408,125301,3014,0.0046515406909621,0.0046515406909614,0.0046515406909831,34.795197365606,0.00019356157892485,0.00019356157892485,0.00019356157892485,3988093.0471633,0.014054168302833
13919200,0.99708194044791,0.016572108533578,0.0055240361778527,0.0055240361778533,0.0055240361778716,-0.0011157240490655,0.0011157300622882,2.0235322712722e-09,2.0235593919437e-09,1.7476615697857e-09,1.9927641528054e-09,-0.0014478411607012,0.001447848125986,-0.0014478401311684,0.0014478470964006,-0.001447840111847,0.0014478472303742,-0.0014478390866609,0.0014478462051303,-0.0011403820345349,0.0011403865760044,-0.0011403827101103,0.0011403872517348,1.7476667334071e-09,1.9927608625309e-09,4.6448847266484e-09,-5.9779119700629e-10,-0.0011157240490646,0.0011157300622887,-0.0014478402658944,0.0014478489967064,-0.0014478410259701,0.0014478462256827,-0.0014478392192082,0.0014478481032553,-0.0014478399793009,0.0014478453322451,-0.0011403794601018,0.0011403891279843,-0.001140385284542,0.0011403846997555,-0.0011403831211832,0.0011403852793907,-0.0011403837425751,0.0011403863981853,2.7793329599329e-09,2.7793596693817e-09,-0.0011157233058702,0.0011157308054933,1.3005671057735e-10,5.3950300507117e-09,-0.0014478413959553,0.0014478480327067,-0.0014478385503938,0.0014478487110382,-0.0014478403123678,0.0014478469490627,-0.0014478375181183,0.0014478476787061,-0.0011403811065238,0.0011403888586815,-0.0011403803773516,0.0011403881293417,0.57829084583368,125301,3014,0.0046390234976289,0.0046390234976283,0.0046390234976494,33.828526032912,0.0001858282082633,0.0001858282082633,0.0001858282082633,3964807.7799603,0.014016103296345
14419200,0.99769692209285,0.01657980126808,0.0055266004226868,0.0055266004226874,0.0055266004227057,-0.0011122757231874,0.0011122822104431,2.2046312479405e-09,2.204658352436e-09,1.9224573055725e-09,2.1730272551855e-09,-0.0014450900869541,0.0014450974750521,-0.0014450890208546,0.0014450964088999,-0.0014450890038437,0.0014450965456862,-0.0014450879424226,0.0014450954842067,-0.0011370860491857,0.0011370909798511,-0.0011370867277811,0.0011370916586017,1.9224619424361e-09,2.1730246883613e-09,4.91793909633e-09,-5.0864729816331e-10,-0.0011122757231864,0.001112282210444,-0.0014450891601206,0.0014450983762188,-0.001445089947683,0.0014450955077368,-0.0014450880793434,0.0014450974491786,-0.001445088866923,0.0014450945807103,-0.0011370833840401,0.0011370936207798,-0.0011370893929243,0.0011370890176746,-0.0011370871698505,0.0011370896448333,-0.0011370877944426,0.0011370907747109,2.9707934558874e-09,2.9708201843356e-09,-0.0011122749697817,0.0011122829638587,2.2661068247861e-10,5.6780149786576e-09,-0.001445090345643,0.0014450973617503,-0.0014450874003384,0.0014450980653832,-0.001445089224835,0.0014450962408859,-0.0014450863320882,0.0014450969970765,-0.0011370850833708,0.0011370933063666,-0.0011370843499151,0.0011370925727425,0.56553166737158,125301,3014,0.0046247257408271,0.0046247257408267,0.0046247257408477,32.642283200863,0.00017633826560691,0.00017633826560691,0.00017633826560691,3946660.3907744,0.013972620858048
14919200,0.99813803452376,0.016585375054105,0.0055284583513617,0.0055284583513623,0.0055284583513806,-0.0011070436301451,0.0011070519613791,2.9081648332959e-09,2.9081919525262e-09,2.6009040767246e-09,2.8728030243984e-09,-0.0014401045736067,0.0014401136054619,-0.0014401033608041,0.0014401123926071,-0.0014401033540099,0.0014401125412974,-0.0014401021479446,0.0014401113351734,-0.0011320545320203,0.0011320609705234,-0.0011320552210162,0.0011320616596739,2.6009078570077e-09,2.8728005304764e-09,5.7942576142588e-09,2.2100366166941e-11,-0.0011070436301446,0.0011070519613798,-0.0014401035805834,0.0014401145630654,-0.0014401043538236,0.0014401114350057,-0.0014401023643489,0.0014401135022568,-0.0014401031376062,0.0014401103742119,-0.0011320516928323,0.0011320637728432,-0.0011320580602036,0.0011320588573548,-0.0011320557238889,0.0011320595463491,-0.0011320563611088,0.0011320607190093,3.6970063359648e-09,3.697033018532e-09,-0.0011070428543134,0.0011070527372212,7.6169580314253e-10,6.5740023891514e-09,-0.0014401048792296,0.0014401134587471,-0.0014401016622246,0.0014401141365554,-0.0014401036096596,0.0014401121891198,-0.0014401004505895,0.001440112924864,-0.0011320534954907,0.0011320633876504,-0.0011320527474438,0.0011320626394361,0.57027523486434,125301,3014,0.0046030290851293,0.0046030290851295,0.004603029085151,30.578608786482,0.00015982887029186,0.00015982887029186,0.00015982887029186,3943295.6064987,0.013906627224231
15419200,0.99843859088594,0.016589451617665,0.0055298172058818,0.0055298172058824,0.0055298172059007,-0.001098878017338,0.0010988893358392,4.050656034768e-09,4.0506830635306e-09,3.7075559801804e-09,4.0095813241017e-09,-0.0014334106781525,0.0014334223557936,-0.0014334092323536,0.0014334209099424,-0.0014334092412238,0.0014334210752832,-0.0014334078051843,0.0014334196391854,-0.0011239859932145,0.0011239948770037,-0.0011239867050806,0.0011239955890251,3.7075605058784e-09,4.0095790173688e-09,7.2400574809624e-09,8.6128280034295e-10,-0.0010988780173373,0.00109888933584,-0.0014334095713164,0.001433423412879,-0.0014334103391868,0.0014334198528588,-0.0014334081392605,0.0014334221372369,-0.0014334089071491,0.0014334185772307,-0.0011239828499652,0.0011239979645711,-0.0011239898483306,0.0011239925014595,-0.0011239873046349,0.0011239933074535,-0.0011239879695842,0.0011239945482346,4.8668028741306e-09,4.8668296501949e-09,-0.0010988772143325,0.0010988901388547,1.6012880867922e-09,8.0425731859245e-09,-0.0014334110748351,0.0014334221378035,-0.0014334074082317,0.0014334227931713,-0.0014334095692452,0.0014334206321574,-0.0014334059684354,0.0014334213533192,-0.0011239848497285,0.0011239974457501,-0.0011239840730509,0.0011239966689035,0.60998274695832,125301,3014,0.0045691767179659,0.0045691767179661,0.0045691767179869,27.069526569599,0.00013175621255679,0.00013175621255679,0.00013175621255679,3923010.5196631,0.013803691912771
15919200,0.99866956443994,0.016592830769142,0.0055309435897076,0.0055309435897082,0.0055309435897265,-0.0010944752034915,0.0010944828659057,2.6596989877863e-09,2.6597264472416e-09,2.3700805829004e-09,2.6268551424374e-09,-0.0014322995979477,0.0014323080128257,-0.0014322984514005,0.0014323068662265,-0.0014322984374098,0.0014323070045907,-0.0014322972947159,0.0014323058618387,-0.0011194689640667,0.0011194748655178,-0.0011194696684607,0.0011194755700681,2.3700852020033e-09,2.6268530433066e-09,5.9740767615929e-09,-6.5464898124457e-10,-0.0010944752034905,0.0010944828659069,-0.001432298474282,0.0014323091147133,-0.0014322995750624,0.001432305764342,-0.0014322973156644,0.0014323081083926,-0.0014322984164618,0.0014323047580349,-0.0011194657124312,0.0011194780981909,-0.0011194729200944,0.001119472337397,-0.0011194702860487,0.0011194733225824,-0.0011194709391904,0.0011194744867253,3.4637633895531e-09,3.4637899012432e-09,-0.0010944744122185,0.001094483657189,1.2544887812288e-10,6.7732955931455e-09,-0.001432300023444,0.0014323077383858,-0.0014322965979588,0.0014323087568162,-0.0014322988199449,0.0014323065348296,-0.00143229544843,0.0014323076072309,-0.0011194677882487,0.0011194774555047,-0.00111946702661,0.0011194766936983,0.65577892264913,125301,3014,0.0045509326319011,0.0045509326319016,0.0045509326319228,25.353383981553,0.00011802707185242,0.00011802707185242,0.00011802707185242,3853848.6067459,0.013748271018993
16419200,0.99885698641915,0.016595336167441,0.0055317787224738,0.0055317787224744,0.0055317787224927,-0.0010913174391906,0.0010913235040515,2.0495497806317e-09,2.0495772102937e-09,1.783419635519e-09,2.0204991833428e-09,-0.0014321915969441,0.001432198576667,-0.0014321905809627,0.0014321975606336,-0.0014321905572187,0.001432197687523,-0.001432189543166,0.001432196673412,-0.001116389886193,0.0011163944826405,-0.001116390582495,0.001116395179099,1.7834240098672e-09,2.0204974145622e-09,5.289613340346e-09,-1.1904838688857e-09,-0.0010913174391896,0.0010913235040527,-0.0014321905062835,0.0014321996547122,-0.0014321916716195,0.0014321964825915,-0.001432189467516,0.0014321987665202,-0.0014321906328689,0.0014321955944132,-0.0011163867118169,0.0011163976502939,-0.0011163937568688,0.0011163920114481,-0.0011163911708904,0.0011163929951619,-0.0011163918128257,0.0011163941198311,2.8262841165485e-09,2.8263108051744e-09,-0.0010913166749544,0.001091324268298,-4.2069859431437e-10,6.0645195060478e-09,-0.0014321920131965,0.0014321982983461,-0.0014321887772011,0.0014321993925968,-0.0014321909423524,0.001432197227445,-0.0014321877550671,0.0014321983704064,-0.0011163887553463,0.001116397012607,-0.0011163880056761,0.0011163962627685,0.60060694871719,125301,3014,0.0045378579541488,0.0045378579541493,0.0045378579541704,24.411765860024,0.00011049412688019,0.00011049412688019,0.00011049412688019,3781410.3405035,0.013708563775667
16919200,0.99901275141629,0.016597673901996,0.0055325579673254,0.005532557967326,0.0055325579673443,-0.001088422043906,0.0010884274591427,1.7957070948809e-09,1.7957342423457e-09,1.529859005681e-09,1.7670004169384e-09,-0.0014267631423847,0.001426769567385,-0.0014267621716673,0.0014267685966161,-0.0014267621455721,0.0014267687235013,-0.0014267611761077,0.0014267677539789,-0.0011143523568982,0.0011143564156146,-0.0011143530400974,0.00111435709897,1.5298642312103e-09,1.7669961262055e-09,4.978591897441e-09,-1.3871500691723e-09,-0.0010884220439061,0.0010884274591433,-0.0014267620734436,0.0014267706267804,-0.0014267632406061,0.0014267675372249,-0.0014267610772533,0.0014267697835104,-0.0014267622444304,0.0014267666939668,-0.0011143492400592,0.0011143595296943,-0.0011143561569368,0.0011143539848917,-0.0011143536228758,0.0011143549454243,-0.0011143542506671,0.0011143560591362,2.5968846200457e-09,2.5969113412882e-09,-0.0010884212557006,0.0010884282473583,-5.8694696179086e-10,5.7788756706092e-09,-0.0014267635152349,0.001426769331849,-0.0014267603647351,0.0014267704304539,-0.0014267624893157,0.0014267683058718,-0.0014267593870875,0.0014267694527495,-0.0011143512087959,0.0011143589368388,-0.0011143504716036,0.0011143581994774,0.66895809706101,125301,3014,0.004525827182687,0.0045258271826887,0.0045258271827083,23.77958864686,0.00010543670917488,0.00010543670917488,0.00010543670917488,3819721.0127776,0.013671908467735
17419200,0.99913494092088,0.016599397972165,0.0055331326573818,0.0055331326573824,0.0055331326574007,-0.0010842869779682,0.0010842947586603,2.7043693612253e-09,2.7043963393129e-09,2.4206977492866e-09,2.6724430689046e-09,-0.0014272080551836,0.0014272165282529,-0.001427206910747,0.0014272153837638,-0.0014272068952888,0.0014272155186925,-0.0014272057547625,0.0014272143781078,-0.0011096726673986,0.0011096786678806,-0.001109673378233,0.0011096793788708,2.4207106957625e-09,2.6724304622254e-09,5.9791853043163e-09,-5.7041893295026e-10,-0.0010842869779681,0.0010842947586605,-0.0014272069443847,0.001427217616999,-0.0014272080215376,0.0014272142950254,-0.0014272057864448,0.0014272166093753,-0.0014272068636146,0.0014272132874153,-0.0011096694545107,0.0011096818615201,-0.001109676591127,0.001109676185226,-0.0011096739730118,0.0011096771479356,-0.0011096746321224,0.0011096783079567,3.4776732841448e-09,3.4777004384329e-09,-0.0010842862171997,0.0010842955194391,1.7835053807231e-10,6.7475465063065e-09,-0.0014272084946238,0.0014272162355842,-0.0014272050986717,0.0014272172313397,-0.0014272072945535,0.0014272150354573,-0.0014272039510206,0.0014272160836324,-0.0011096715413925,0.001109681221468,-0.0011096707748292,0.0011096804547355,0.63180124953006,125301,3014,0.004508716594263,0.0045087165942634,0.0045087165942846,21.982398586244,9.105918868995e-05,9.105918868995e-05,9.105918868995e-05,3731984.8867684,0.013619982097897
17919200,0.99922829231264,0.016600618235805,0.0055335394119286,0.0055335394119292,0.0055335394119475,-0.0010773918266799,0.0010774009979605,3.231476935186e-09,3.2315037650723e-09,2.9240857615107e-09,3.1959887016802e-09,-0.0014190401129287,0.0014190498172182,-0.0014190388580703,0.0014190485623069,-0.0014190388511317,0.0014190487083666,-0.0014190376017958,0.0014190474589723,-0.0011036142283679,0.0011036213663027,-0.0011036149292571,0.0011036220673458,2.9240948798299e-09,3.1959782671883e-09,6.6192132433589e-09,-1.5623459028007e-10,-0.0010773918266807,0.0010774009979601,-0.0014190389576952,0.0014190509427412,-0.0014190400132993,0.0014190474367884,-0.0014190376986569,0.0014190498366355,-0.0014190387542781,0.0014190463306964,-0.0011036109010555,0.0011036246643814,-0.0011036182565791,0.0011036187692629,-0.0011036155841606,0.0011036197781911,-0.0011036162356081,0.0011036209596652,4.0380722548998e-09,4.0380993191318e-09,-0.0010773910329922,0.001077401791659,6.1142824761027e-10,7.4184264189739e-09,-0.0014190405679011,0.001419049521434,-0.0014190369780777,0.0014190504859776,-0.0014190392552885,0.0014190482087651,-0.0014190357227968,0.0014190492306395,-0.0011036130210635,0.0011036239801864,-0.0011036122603244,0.0011036232192775,0.58584133026832,125301,3014,0.0044801087694501,0.004480108769451,0.0044801087694727,19.502020266573,7.1216162132583e-05,7.1216162132583e-05,7.1216162132583e-05,3753285.8869126,0.013532945398711
18419200,0.99930250012686,0.016601616570612,0.0055338721901975,0.0055338721901981,0.0055338721902164,-0.0010722228642415,0.0010722311446723,2.8871713769845e-09,2.887198125785e-09,2.5827274820659e-09,2.8524671039115e-09,-0.001411844928053,0.00141185388489,-0.0014118437346611,0.0014118526914448,-0.0014118437240373,0.0014118528360817,-0.0014118425349338,0.0014118516469208,-0.0010988887814248,0.0010988951815673,-0.0010988894798917,0.0010988958801886,2.5827379917937e-09,2.8524563847555e-09,6.3388311393085e-09,-5.6445517295363e-10,-0.0010722228642389,0.0010722311446728,-0.0014118437567244,0.0014118550322984,-0.0014118449059778,0.0014118515440443,-0.001411842554852,0.0014118539856171,-0.0014118437041194,0.0014118504973803,-0.0010988853939766,0.0010988985467296,-0.0010988928673339,0.0010988925150264,-0.0010988901574134,0.0010988935731093,-0.001098890805086,0.0010988947518291,3.7239655364679e-09,3.7239924130292e-09,-0.0010722220407994,0.0010722319681238,2.4403617962693e-10,7.1700171853673e-09,-0.0014118453731275,0.0014118535974801,-0.0014118418061359,0.001411854660964,-0.0014118441214026,0.0014118523457031,-0.001411840610764,0.0014118534655325,-0.0010988875222636,0.0010988978433384,-0.0010988867633339,0.001098897084244,0.60198894720205,125301,3014,0.0044586481982743,0.00445864819827,0.0044586481982939,17.478872894739,5.5030983157914e-05,5.5030983157914e-05,5.5030983157914e-05,3798588.2602,0.013467651103881
18919200,0.99936726552184,0.01660253728671,0.0055341790955636,0.0055341790955642,0.0055341790955825,-0.0010704810087026,0.0010704864374862,1.8009180097498e-09,1.8009449019871e-09,1.5359765002664e-09,1.7724286176988e-09,-0.0014118830413693,0.0014118894806256,-0.0014118820736512,0.0014118885128555,-0.0014118820464988,0.0014118886384147,-0.0014118810793378,0.0014118876711952,-0.0010969262971372,0.0010969303668513,-0.0010969269946519,0.001096931064521,1.5359862634841e-09,1.772419759725e-09,5.1666089341541e-09,-1.5647446691422e-09,-0.0010704810087023,0.0010704864374866,-0.0014118819144237,0.0014118906012864,-0.0014118832005895,0.0014118873922006,-0.0014118809198293,0.0014118897593367,-0.0014118822060122,0.0014118865502648,-0.001096923002723,0.0010969336623788,-0.0010969302890674,0.0010969277689896,-0.0010969276231739,0.0010969288368217,-0.0010969282653237,0.0010969299639566,2.6126185811487e-09,2.6126455547364e-09,-0.0010704802100973,0.0010704872361017,-7.4824216740658e-10,5.9783968062872e-09,-0.0014118834642924,0.0014118891944345,-0.001411880197159,0.0014118904150191,-0.0014118824410456,0.0014118881711317,-0.0014118792215721,0.0014118894393768,-0.001096925093337,0.0010969329736905,-0.0010969243413703,0.0010969322215557,0.63537815574299,125301,3014,0.0044514287904485,0.0044514287904488,0.0044514287904698,16.874846191178,5.0198769529423e-05,5.0198769529423e-05,5.0198769529423e-05,3760635.1687198,0.013445743462309
19419200,0.99942835167159,0.016603448751777,0.0055344829172526,0.0055344829172532,0.0055344829172715,-0.0010712089102275,0.0010712117667682,8.1690263980275e-10,8.1692932466401e-10,5.8513071080549e-10,7.9384063933103e-10,-0.0014149021143097,0.0014149062883249,-0.0014149013460388,0.0014149055200013,-0.0014149013045928,0.0014149056298475,-0.0014149005340767,0.0014149048592728,-0.0010974718268565,0.0010974737822514,-0.0010974725273146,0.0010974744828645,5.8513937334474e-10,7.9383426404601e-10,4.0369786708889e-09,-2.4031445182587e-09,-0.0010712089102264,0.0010712117667694,-0.0014149010478278,0.0014149073618422,-0.0014149024125135,0.0014149044464904,-0.0014149002369847,0.0014149067022271,-0.0014149016016876,0.0014149037868891,-0.0010974686811863,0.0010974769458464,-0.0010974756729862,0.0010974713192694,-0.0010974730875108,0.0010974723419145,-0.0010974737281704,0.0010974734300729,1.5954015672537e-09,1.5954284275802e-09,-0.0010712081445258,0.0010712125324802,-1.5954186410115e-09,4.8199833676402e-09,-0.001414902505571,0.0014149060154101,-0.00141489954804,0.0014149073309755,-0.0014149016846164,0.0014149051943989,-0.0014148987673298,0.0014149065502095,-0.0010974707093382,0.0010974763105924,-0.0010974699596497,0.0010974755607354,0.66499876302356,125301,3014,0.0044544608085945,0.0044544608085948,0.0044544608086161,17.545969206349,5.5567753650795e-05,5.5567753650795e-05,5.5567753650795e-05,3701828.3780095,0.013455009768577
19919200,0.9994872562251,0.016604313527007,0.0055347711756626,0.0055347711756632,0.0055347711756815,-0.0010725659836111,0.0010725679051504,4.6302560991486e-10,4.6305284484756e-10,2.4359448935556e-10,4.4232449779022e-10,-0.001418016582696,0.0014180199259382,-0.0014180158859698,0.0014180192291606,-0.0014180158416742,0.0014180193355189,-0.0014180151447844,0.0014180186385713,-0.0010988964883464,0.0010988976947075,-0.00109889716764,0.0010988983741544,2.436002743773e-10,4.4232169886469e-10,2.772817148066e-09,-1.8467364259895e-09,-0.0010725659836098,0.0010725679051512,-0.0014180158108951,0.0014180206949807,-0.0014180166577684,0.001418018460124,-0.0014180150697862,0.0014180201044667,-0.0014180159166762,0.0014180178696236,-0.0010988942299946,0.0010988999601952,-0.0010988994259846,0.0010988961086589,-0.0010988974439874,0.0010988965758417,-0.0010988980568957,0.0010988976226559,1.1454631453578e-09,1.1454900134193e-09,-0.0010725653137736,0.0010725685749979,-1.1526669052731e-09,3.4568330034923e-09,-0.0014180167590112,0.0014180198578773,-0.0014180144768678,0.0014180206504025,-0.0014180160142303,0.0014180191130389,-0.0014180137697489,0.001418019943227,-0.001098895744304,0.0010988998044494,-0.0010988950201,0.0010988990800737,0.65387749131788,125301,3014,0.0044601037283137,0.0044601037283127,0.0044601037283344,18.682176345795,6.4657410766358e-05,6.4657410766358e-05,6.4657410766358e-05,3647344.6524147,0.013472195796981
20419200,0.99953985263008,0.016605117613984,0.0055350392046549,0.0055350392046555,0.0055350392046738,-0.0010711547204225,0.0010711590642,1.3875734910529e-09,1.3876006886044e-09,1.1395330721645e-09,1.3623163966104e-09,-0.0014164435661514,0.0014164490219541,-0.0014164426850237,0.0014164481407748,-0.0014164426535681,0.0014164482607292,-0.0014164417753423,0.0014164473824451,-0.0010979099655376,0.001097913160116,-0.0010979106459898,0.0010979138407242,1.1395381917142e-09,1.3623136187026e-09,3.6987000500474e-09,-9.2352318320166e-10,-0.0010711547204215,0.0010711590642011,-0.0014164427806914,0.0014164497901125,-0.0014164434704794,0.0014164473726204,-0.0014164418695531,0.0014164490303254,-0.0014164425593579,0.001416446612847,-0.0010979076990639,0.0010979154149891,-0.0010979129124616,0.0010979115858527,-0.0010979109370429,0.0010979120059357,-0.0010979115547155,0.0010979130888863,2.0754904086045e-09,2.0755172042565e-09,-0.0010711540452342,0.0010711597393987,-2.510814094e-10,4.3835773347656e-09,-0.001416443750953,0.0014164489601168,-0.001416441270207,0.0014164495793785,-0.001416442820239,0.001416448029346,-0.0014164403833593,0.0014164486924746,-0.0010979092141388,0.001097915277772,-0.0010979084849215,0.0010979145483866,0.6787634181437,125301,3014,0.0044542539636194,0.0044542539636195,0.0044542539636411,18.601887948291,6.4015103586329e-05,6.4015103586329e-05,6.4015103586329e-05,3637705.7989918,0.013454393175305
20919200,0.99958359703618,0.016605762013637,0.0055352540045393,0.0055352540045399,0.0055352540045582,-0.0010675007947964,0.0010675076579046,2.3496896152422e-09,2.3497170155228e-09,2.0749110246866e-09,2.3197634168494e-09,-0.0014145720805031,0.00141457972863,-0.0014145710095385,0.0014145786576125,-0.0014145709907374,0.0014145787897398,-0.0014145699254357,0.0014145777243823,-0.0010942845322055,0.001094289787981,-0.0010942852293802,0.0010942904853114,2.0749151726633e-09,2.31975566677e-09,4.7687045240685e-09,-6.9301193507868e-11,-0.0010675007947976,0.0010675076579033,-0.001414571247193,0.0014145805315238,-0.0014145718428465,0.0014145778547225,-0.0014145701602532,0.0014145795954487,-0.0014145707559267,0.0014145769186628,-0.0010942821536191,0.0010942921370896,-0.001094287607973,0.0010942881361996,-0.0010942855531998,0.0010942885654451,-0.0010942861927369,0.0010942896975749,3.0418524850534e-09,3.0418790479478e-09,-0.0010675001153399,0.0010675083373693,5.8272009677163e-10,5.4532808988648e-09,-0.0014145723096782,0.0014145796365706,-0.0014145695550669,0.0014145801467407,-0.0014145711874857,0.0014145785143227,-0.0014145684825883,0.0014145790742063,-0.0010942837552512,0.0010942919636903,-0.0010942830055325,0.0010942912138057,0.65510000800934,125301,3014,0.0044391172486141,0.0044391172486142,0.0044391172486314,17.277088913276,5.3416711306207e-05,5.3416711306207e-05,5.3416711306207e-05,3599802.5585554,0.013408408158612
21419200,0.99961870362873,0.016606280551816,0.0055354268505988,0.0055354268505994,0.0055354268506177,-0.0010620505368959,0.0010620588721886,2.9077989297093e-09,2.9078263375191e-09,2.6119258341645e-09,2.8744015540644e-09,-0.0014085173808278,0.0014085263259067,-0.001408516194752,0.0014085251397788,-0.0014085161841109,0.0014085252814124,-0.0014085150050737,0.0014085241023169,-0.0010892948490829,0.0010893013016349,-0.0010892955539518,0.0010893020066604,2.6119325577908e-09,2.874397417575e-09,5.524487975719e-09,2.9113982211645e-10,-0.0010620505368948,0.0010620588721897,-0.0014085164757968,0.0014085271940011,-0.0014085170997778,0.0014085242716895,-0.0014085152825941,0.0014085261530123,-0.001408515906592,0.0014085232307138,-0.0010892922731989,0.0010893038383727,-0.0010892981298345,0.0010892994699234,-0.0010892959465104,0.001089299985894,-0.0010892965973773,0.0010893011537332,3.6275563380263e-09,3.6275828738627e-09,-0.0010620498300383,0.0010620595790563,9.5808336685786e-10,6.234355939632e-09,-0.0014085176582939,0.0014085261968834,-0.0014085146495137,0.0014085267269984,-0.0014085164189896,0.001408524957522,-0.0014085134643174,0.0014085255417454,-0.0010892939860958,0.0010893035784025,-0.0010892932249856,0.0010893028171246,0.656007213965,125301,3014,0.0044165058673545,0.0044165058673544,0.0044165058673755,15.230921224267,3.7047369794133e-05,3.7047369794133e-05,3.7047369794133e-05,3612271.1914959,0.013339642448895
21919200,0.99964855797863,0.016606715789055,0.0055355719296784,0.005535571929679,0.0055355719296974,-0.0010586904950231,0.0010586972254872,2.2950408554596e-09,2.2950682859451e-09,2.0180949485258e-09,2.2647411998286e-09,-0.0014057797437057,0.0014057872921894,-0.0014057786808812,0.0014057862293131,-0.0014057786612117,0.0014057863615842,-0.0014057776029505,0.0014057853032651,-0.0010860222366626,0.0010860273728266,-0.0010860229448898,0.0010860280812105,2.018100939704e-09,2.2647373708849e-09,5.0071251184347e-09,-4.17013785993e-10,-0.0010586904950222,0.0010586972254882,-0.0014057788173816,0.0014057881932536,-0.0014057796072005,0.0014057853282531,-0.0014057777371641,0.0014057872649167,-0.0014057785269999,0.0014057843999296,-0.001086019572949,0.0010860300124476,-0.0010860256086027,0.0010860254415904,-0.0010860233553532,0.0010860260480021,-0.0010860240073596,0.0010860271965644,3.0225451933779e-09,3.0225717248909e-09,-0.0010586897804163,0.0010586979401042,2.7947730588073e-10,5.7285201218631e-09,-0.0014057800364764,0.0014057871382347,-0.0014057770973184,0.0014057878465719,-0.0014057789210942,0.0014057860227955,-0.001405776031749,0.001405786780946,-0.0010860213400375,0.0010860296917193,-0.0010860205778308,0.0010860289293444,0.64802896116123,125301,3014,0.004402568378246,0.0044025683782464,0.0044025683782675,13.995749922135,2.7165999377083e-05,2.7165999377083e-05,2.7165999377083e-05,3599321.1232232,0.013297284853232
22419200,0.99967752414213,0.016607147856123,0.0055357159520347,0.0055357159520352,0.0055357159520536,-0.0010597274266527,0.0010597299561423,6.9146655937714e-10,6.9149398033356e-10,4.634091021112e-10,6.6930678678415e-10,-0.0014067574303075,0.0014067613149388,-0.0014067566884748,0.0014067605730542,-0.0014067566462961,0.001406760682339,-0.0014067559039272,0.0014067599399121,-0.0010871590303154,0.0010871607256056,-0.0010871597303406,0.0010871614257872,4.6341487454915e-10,6.6930339006623e-10,3.2760199483122e-09,-1.8930571906915e-09,-0.0010597274266518,0.0010597299561434,-0.0014067565681465,0.0014067621759552,-0.0014067575506313,0.0014067597120416,-0.0014067557838615,0.0014067615430743,-0.001406756766363,0.0014067590791741,-0.0010871565033457,0.0010871632603653,-0.0010871622573092,0.0010871588910288,-0.0010871600810547,0.0010871595028048,-0.0010871607174185,0.0010871605831599,1.4073949753143e-09,1.4074214956218e-09,-0.0010597267236009,0.0010597306592045,-1.1628096027148e-09,3.9937726818684e-09,-0.0014067576690886,0.001406761188935,-0.0014067551581698,0.0014067621172033,-0.0014067568777915,0.001406760397581,-0.0014067544057942,0.0014067613647712,-0.0010871581836968,0.0010871629809131,-0.0010871574365775,0.0010871622336259,0.66209702250257,125301,3014,0.0044068597917139,0.0044068597917143,0.0044068597917356,14.850174680729,3.400139744583e-05,3.400139744583e-05,3.400139744583e-05,3588566.3115063,0.01331032634226
22919200,0.99970491892498,0.016607535479597,0.005535845159859,0.0055358451598596,0.0055358451598779,-0.0010601507033979,0.0010601539067433,9.4881107876695e-10,9.4883846501856e-10,7.139912113233e-10,9.2570611249017e-10,-0.0014082998092192,0.0014083042733123,-0.0014082990169795,0.0014083034810205,-0.0014082989785658,0.0014083035938278,-0.0014082981870505,0.0014083028022543,-0.0010875031721445,0.0010875054235037,-0.0010875038666308,0.0010875061181467,7.139968973723e-10,9.2570342589393e-10,3.4402357802269e-09,-1.542583396399e-09,-0.0010601507033967,0.0010601539067446,-0.001408298972839,0.0014083051026337,-0.0014082998533549,0.0014083026517025,-0.0014082981425422,0.0014083044234986,-0.0014082990230747,0.0014083019725812,-0.0010875007338244,0.0010875078628445,-0.0010875063049493,0.0010875036788073,-0.0010875041962135,0.0010875042247029,-0.0010875048266155,0.0010875053063346,1.6503400349507e-09,1.6503666383438e-09,-0.0010601500147011,0.0010601545954505,-8.3762152782553e-10,4.1418551840055e-09,-0.0014083000343264,0.0014083041641168,-0.0014082975306342,0.0014083049847102,-0.001408299192805,0.0014083033225388,-0.001408296729582,0.0014083041836012,-0.0010875023638604,0.0010875076282749,-0.0010875016217559,0.0010875068860023,0.62916625154574,125301,3014,0.0044086255090603,0.0044086255090606,0.0044086255090822,15.357556148579,3.806044918863e-05,3.806044918863e-05,3.806044918863e-05,3556585.1074599,0.01331571755746
23419200,0.9997305095789,0.016607904791511,0.0055359682638306,0.0055359682638312,0.0055359682638495,-0.0010600816829171,0.0010600851969914,1.0660473318093e-09,1.0660746730917e-09,8.2559810039769e-10,1.0420959195085e-09,-0.0014068463414084,0.0014068510818159,-0.0014068455241727,0.0014068502645282,-0.0014068454878072,0.0014068503801331,-0.0014068446718299,0.0014068495640978,-0.0010877353849798,0.0010877378899534,-0.0010877360789544,0.001087738584084,8.2560315908835e-10,1.0420932990518e-09,3.5090707210027e-09,-1.3769464845352e-09,-0.0010600816829162,0.0010600851969926,-0.0014068455187797,0.0014068518948041,-0.0014068463467974,0.0014068494515439,-0.0014068446658018,0.0014068511937379,-0.0014068454938363,0.0014068487504912,-0.0010877329928407,0.0010877402796686,-0.0010877384710919,0.0010877361943708,-0.0010877363962178,0.0010877366998109,-0.0010877370264803,0.0010877377884554,1.7725518157882e-09,1.7725783474776e-09,-0.0010600809894265,0.0010600858904922,-6.7176699500883e-10,4.2147894020622e-09,-0.0014068465481435,0.0014068509936192,-0.0014068440494094,0.0014068517587771,-0.0014068456813836,0.0014068501268022,-0.0014068432242162,0.0014068509335275,-0.0010877345869622,0.001087740083011,-0.0010877338445106,0.0010877393403913,0.64041034150825,125301,3014,0.0044083271712445,0.0044083271712454,0.0044083271712659,15.705825676598,4.0846605412782e-05,4.0846605412782e-05,4.0846605412782e-05,3575517.0763902,0.013314775246288
23919200,0.99975573069734,0.016608296888448,0.0055360989628096,0.0055360989628102,0.0055360989628285,-0.0010623594094277,0.0010623610293926,3.4433768807293e-10,3.4436499047416e-10,1.2733357419377e-10,3.2419668139627e-10,-0.0014101018085807,0.0014101048940338,-0.0014101011370913,0.0014101042224925,-0.001410101090488,0.0014101043271925,-0.0014101004182851,0.0014101036549316,-0.0010898409104807,0.0010898418645205,-0.0010898416041288,0.0010898425583257,1.2733838618333e-10,3.241941459388e-10,2.6402941491147e-09,-1.9515888069973e-09,-0.0010623594094268,0.0010623610293939,-0.0014101010433661,0.0014101056589867,-0.0014101019023024,0.0014101034575434,-0.0014101003249104,0.0014101050917759,-0.0014101011838633,0.0014101028903461,-0.0010898386668127,0.0010898441177969,-0.0010898438477947,0.0010898403050517,-0.0010898418609816,0.0010898407521918,-0.0010898424875506,0.0010898418111573,1.0301990354796e-09,1.0302256633426e-09,-0.0010623587364761,0.0010623617023547,-1.2496316541255e-09,3.3283858885811e-09,-0.0014101019756061,0.0014101048325959,-0.0014100997299757,0.0014101056401392,-0.0014101012565908,0.0014101041135235,-0.0014100990473216,0.0014101049574289,-0.001089840183021,0.0010898439876634,-0.0010898394445166,0.0010898432489909,0.68827842904954,125301,3014,0.0044177786404914,0.0044177786404923,0.0044177786405134,17.004817667838,5.1238541342706e-05,5.1238541342706e-05,5.1238541342706e-05,3543871.8329292,0.013343531215457
24419200,0.99977978111499,0.016608659754424,0.0055362199181349,0.0055362199181355,0.0055362199181538,-0.0010637208496895,0.0010637233235238,6.7039443458667e-10,6.7042218532714e-10,4.452828951485e-10,6.4899621466995e-10,-0.0014140513783541,0.0014140552043239,-0.0014140506414373,0.0014140544673554,-0.0014140505996899,0.0014140545763571,-0.0014140498639288,0.0014140538405382,-0.001090882070925,0.0010908837237309,-0.0010908827684193,0.0010908844213824,4.4528763106752e-10,6.4899330793339e-10,2.783818652116e-09,-1.4429998781056e-09,-0.0010637208496887,0.0010637233235248,-0.0014140506661109,0.0014140559075173,-0.0014140513536764,0.0014140537641657,-0.0014140498880188,0.0014140552801157,-0.001414050575601,0.0014140531367777,-0.001090880001611,0.001090885791087,-0.0010908848377321,0.0010908823540287,-0.0010908829662565,0.0010908826633037,-0.0010908835968802,0.0010908837345411,1.3271660161951e-09,1.3271923463319e-09,-0.0010637202056979,0.0010637239675258,-7.8672835600346e-10,3.4399794522979e-09,-0.0014140515168805,0.0014140551747443,-0.0014140493210573,0.0014140558028506,-0.0014140507330503,0.0014140543908572,-0.0014140485754466,0.0014140550571832,-0.0010908814349209,0.0010908857621508,-0.0010908806920515,0.0010908850191133,0.66831885956853,125301,3014,0.0044234493719713,0.0044234493719716,0.0044234493719927,17.882021921329,5.8256175370633e-05,5.8256175370633e-05,5.8256175370633e-05,3480794.4006315,0.013360829180315
24919200,0.99980205595093,0.016608979145331,0.0055363263817706,0.0055363263817712,0.0055363263817896,-0.0010636099061839,0.0010636131849681,9.7641726941678e-10,9.7644497345279e-10,7.4095607291823e-10,9.5334409152182e-10,-0.0014132350356115,0.0014132395635449,-0.0014132342371795,0.001413238765061,-0.0014132341998471,0.0014132388789824,-0.0014132334036268,0.0014132380827046,-0.0010912126729539,0.001091214985405,-0.001091213371234,0.0010912156838427,7.4096148110985e-10,9.5334180577915e-10,3.0704807273268e-09,-1.1176155086618e-09,-0.0010636099061826,0.0010636131849694,-0.0014132343251957,0.0014132402598388,-0.0014132349475905,0.0014132380687707,-0.0014132334905313,0.00141323957637,-0.0014132341129428,0.0014132373853157,-0.0010912106202746,0.0010912170296275,-0.0010912154239101,0.0010912136396219,-0.0010912135674036,0.0010912139186246,-0.001091214200121,0.0010912150034947,1.6373539550782e-09,1.6373802644216e-09,-0.0010636092581378,0.0010636138330243,-4.6651951084035e-10,3.7291451992769e-09,-0.0014132351683734,0.00141323954486,-0.0014132329193998,0.0014132401020798,-0.0014132343225246,0.0014132386989545,-0.0014132321139129,0.0014132392965362,-0.0010912120391661,0.0010912170224509,-0.0010912112941356,0.0010912162772527,0.63528369190494,125301,3014,0.004422985016639,0.0044229850166391,0.00442298501666,18.352085302439,6.201668241951e-05,6.201668241951e-05,6.201668241951e-05,3480220.1929184,0.013359386825093
25419200,0.99982393412935,0.016609323695072,0.0055364412316841,0.0055364412316847,0.005536441231703,-0.0010662239336307,0.001066225003585,1.3509764962424e-10,1.3512463577042e-10,-7.5295061905191e-11,1.1626010277484e-10,-0.0014143850201417,0.0014143876231633,-0.0014143843906142,0.0014143869935838,-0.0014143843420108,0.0014143870963571,-0.0014143837128046,0.0014143864670928,-0.0010940660705609,0.0010940665789691,-0.0010940667616266,0.0010940672701905,-7.5291984094086e-11,1.1625998426927e-10,1.9300669506246e-09,-1.6598416776512e-09,-0.0010662239336294,0.0010662250035863,-0.001414384417377,0.0014143882207246,-0.0014143849933759,0.0014143863960252,-0.0014143837393994,0.0014143876940679,-0.0014143843154151,0.0014143858693819,-0.0010940643154257,0.0010940683379415,-0.0010940685167579,0.0010940655112222,-0.0010940668534443,0.0010940656426038,-0.0010940674741147,0.0010940666888573,7.7217261921535e-10,7.7219950527635e-10,-0.0010662233094958,0.0010662256277301,-1.0156210828848e-09,2.5678807786813e-09,-0.0014143850649573,0.0014143876781048,-0.001414383193816,0.0014143882002766,-0.0014143843905006,0.0014143870035915,-0.0014143825541017,0.0014143875605061,-0.0010940655539043,0.0010940684849691,-0.001094064820272,0.001094067751168,0.69486038628678,125301,3014,0.0044338111996404,0.0044338111996407,0.0044338111996619,19.920521348061,7.4564170784487e-05,7.4564170784487e-05,7.4564170784487e-05,3495157.8300049,0.013392264644819
25919200,0.99984429583218,0.01660964117231,0.0055365470574303,0.0055365470574308,0.0055365470574492,-0.0010677960171604,0.0010677986107806,7.1559685988949e-10,7.156240401768e-10,4.8946681171312e-10,6.9412258756083e-10,-0.0014192184232363,0.0014192223519585,-0.0014192176768308,0.001419221605501,-0.00141921763628,0.0014192217156546,-0.001419216892297,0.0014192209716133,-0.001095047434347,0.0010950491852209,-0.0010950481342718,0.0010950498853022,4.8947184882386e-10,6.9411997392008e-10,2.4958520609971e-09,-1.0646287883624e-09,-0.0010677960171594,0.0010677986107818,-0.00141921781646,0.0014192229436483,-0.001419218283603,0.0014192210138147,-0.001419217030709,0.0014192223085429,-0.0014192174978687,0.0014192203787229,-0.0010950456884752,0.0010950509212274,-0.001095049880142,0.0010950481492975,-0.001095048221188,0.0010950482348858,-0.0010950488531395,0.0010950493086719,1.3401798842774e-09,1.340206805455e-09,-0.0010677954054018,0.0010677992225495,-4.5181007358592e-10,3.1178223227123e-09,-0.001419218482869,0.0014192224001659,-0.001419216496085,0.0014192228031324,-0.0014192176909883,0.0014192216082286,-0.0014192157424981,0.0014192220494893,-0.0010950469420125,0.0010950510840801,-0.0010950461973689,0.0010950503392673,0.68893727914011,125301,3014,0.0044403619865172,0.0044403619865176,0.0044403619865387,20.734676792169,8.1077414337353e-05,8.1077414337353e-05,8.1077414337353e-05,3423255.8161154,0.013412262273376
26419200,0.99986197093691,0.016609930872699,0.0055366436242266,0.0055366436242271,0.0055366436242455,-0.0010659734669508,0.0010659783620954,1.5935198674148e-09,1.593546998733e-09,1.3409752562441e-09,1.5678332866222e-09,-0.0014173862385596,0.0014173921639596,-0.0014173853186006,0.0014173912439489,-0.0014173852900392,0.0014173913663974,-0.0014173843751287,0.0014173904514282,-0.0010936456777142,0.0010936493205182,-0.0010936463747623,0.0010936500177226,1.3409804181269e-09,1.5678310235388e-09,3.451990538071e-09,-2.6492085532536e-10,-0.0010659734669497,0.0010659783620967,-0.0014173855944846,0.0014173927804543,-0.0014173859626708,0.0014173906274579,-0.0014173846484829,0.0014173919854036,-0.0014173850166857,0.0014173898324206,-0.0010936438494901,0.0010936511232456,-0.001093648202984,0.0010936482149979,-0.0010936465041927,0.0010936483127026,-0.0010936471365783,0.0010936494153433,2.2283457887422e-09,2.2283726929497e-09,-0.0010659728450439,0.0010659789840126,3.3488729493772e-10,4.0802615338551e-09,-0.0014173863264916,0.0014173921977773,-0.0014173841025903,0.0014173924874305,-0.0014173853593958,0.0014173912306247,-0.0014173831795256,0.0014173915643097,-0.0010936451441343,0.0010936512531253,-0.0010936443987157,0.0010936505075382,0.7214403635026,125301,3014,0.0044328068320637,0.004432806832064,0.004432806832085,20.398800578978,7.8390404631826e-05,7.8390404631826e-05,7.8390404631826e-05,3412359.5685163,0.013389276347305
26919200,0.99987842755987,0.016610192058494,0.0055367306861581,0.0055367306861587,0.005536730686177,-0.0010670908843991,0.0010670933563948,6.674353067507e-10,6.6746246268581e-10,4.4252509469153e-10,6.4607031767175e-10,-0.0014200949439382,0.0014200987735475,-0.0014200942064217,0.0014200980359789,-0.0014200941648305,0.0014200981451842,-0.0014200934293424,0.0014200974096381,-0.0010947270094333,0.0010947286509507,-0.0010947277256657,0.0010947293673398,4.4252997071078e-10,6.4606813084885e-10,2.5151360436324e-09,-1.180235488529e-09,-0.0010670908843981,0.001067093356396,-0.0014200943162455,0.0014200993879684,-0.00142009483411,0.0014200974215609,-0.001420093538146,0.0014200987606067,-0.0014200940560271,0.0014200967942128,-0.00109472519798,0.0010947304536889,-0.0010947295371177,0.0010947275646049,-0.0010947278178825,0.0010947276787894,-0.0010947284670337,0.0010947287682681,1.2964986451799e-09,1.2965256684132e-09,-0.0010670902681771,0.0010670939726271,-5.598665705047e-10,3.1419557623788e-09,-0.0014200950207935,0.0014200988036234,-0.0014200929991728,0.0014200992591801,-0.0014200942377894,0.0014200980205629,-0.0014200922539459,0.0014200985138969,-0.0010947265072157,0.0010947305932868,-0.0010947257461969,0.0010947298320988,0.69956235161628,125301,3014,0.0044374516036414,0.0044374516036418,0.0044374516036629,21.28733968954,8.5498717516322e-05,8.5498717516322e-05,8.5498717516322e-05,3366977.9343554,0.013403428538911
27419200,0.99989370396681,0.016610432732044,0.0055368109106749,0.0055368109106755,0.0055368109106938,-0.0010681077410676,0.0010681100273019,5.9715887044171e-10,5.971859467616e-10,3.7363072839654e-10,5.7625723456057e-10,-0.0014203482918633,0.0014203519551214,-0.0014203475696267,0.0014203512328327,-0.001420347527186,0.0014203513415723,-0.0014203468068313,0.0014203506211595,-0.0010961124230112,0.001096113922002,-0.0010961131249201,0.0010961146240671,3.7363553573153e-10,5.7625532993677e-10,2.4147136616818e-09,-1.22036697635e-09,-0.0010681077410667,0.0010681100273031,-0.0014203476749054,0.0014203525594911,-0.0014203481865808,0.0014203506284657,-0.001420346911163,0.0014203519468708,-0.0014203474228554,0.0014203500158593,-0.0010961106418168,0.001096115696612,-0.0010961149061128,0.0010961128494596,-0.0010961132208636,0.0010961129622865,-0.0010961138541501,0.0010961140351108,1.22774721543e-09,1.2277741715183e-09,-0.0010681071234005,0.0010681106449794,-5.96840723455e-10,3.0435302338876e-09,-0.001420348356465,0.0014203519965745,-0.0014203463711108,0.0014203524467493,-0.0014203475889033,0.0014203512289562,-0.0014203456409688,0.0014203517165512,-0.0010961119150261,0.0010961158409317,-0.0010961111686703,0.0010961150944067,0.69373346132313,125301,3014,0.0044416628450608,0.0044416628450614,0.0044416628450827,22.25133454371,9.3210676349677e-05,9.3210676349677e-05,9.3210676349677e-05,3366876.3514613,0.013416201981586
27919200,0.99990754971369,0.016610657723671,0.0055368859078838,0.0055368859078844,0.0055368859079027,-0.0010688466477426,0.0010688495236265,8.2190285307907e-10,8.2192992557556e-10,5.914937209199e-10,7.9990478689901e-10,-0.0014211065171133,0.0014211106905578,-0.0014211057506152,0.0014211099240076,-0.0014211057113411,0.0014211100359721,-0.0014211049474699,0.0014211092720427,-0.001096934738738,0.0010969367232004,-0.0010969354378146,0.0010969374224331,5.914984022519e-10,7.9990258943122e-10,2.6402549470462e-09,-9.9641970816736e-10,-0.0010688466477416,0.0010688495236276,-0.0014211058967166,0.0014211112948321,-0.0014211063710079,0.0014211093197367,-0.0014211050922518,0.0014211106415474,-0.0014211055665596,0.0014211086664656,-0.0010969329551652,0.0010969384958919,-0.0010969372213852,0.0010969356497435,-0.0010969355405628,0.0010969357551339,-0.0010969361716092,0.0010969368332269,1.4534421411344e-09,1.4534690893994e-09,-0.0010688460291665,0.0010688501422129,-3.7850337595227e-10,3.2688912333961e-09,-0.0014211065842719,0.0014211107329676,-0.0014211045510477,0.0014211111418078,-0.0014211057721079,0.0014211099207471,-0.0014211037777752,0.0014211103684793,-0.0010969342260533,0.0010969386405964,-0.0010969334816047,0.0010969378959787,0.71478776736981,125301,3014,0.0044447290014263,0.0044447290014267,0.0044447290014478,22.9188082064,9.8550465651202e-05,9.8550465651202e-05,9.8550465651202e-05,3356853.0971754,0.013425521671354
28419200,0.99991993285644,0.016610867603468,0.0055369558678162,0.0055369558678168,0.0055369558678351,-0.0010693967637553,0.0010693999412656,9.3653978782294e-10,9.3656688161289e-10,7.0353673320043e-10,9.1408727876109e-10,-0.0014228859694309,0.0014228904041974,-0.0014228851803543,0.0014228896150688,-0.0014228851424437,0.0014228897281094,-0.0014228843563003,0.001422888941908,-0.0010973731911107,0.0010973754195745,-0.0010973738963965,0.0010973761250169,7.035416063664e-10,9.1408422869986e-10,2.7708629369896e-09,-8.9775447957724e-10,-0.0010693967637545,0.0010693999412664,-0.0014228853423617,0.0014228910136872,-0.0014228858074202,0.0014228890055819,-0.0014228845168351,0.0014228903390532,-0.00142288498191,0.0014228883309616,-0.001097371391105,0.0010973772064432,-0.001097375696401,0.0010973743381486,-0.0010973739996477,0.0010973744430386,-0.0010973746375514,0.0010973755304324,1.5661455666515e-09,1.5661725345335e-09,-0.0010693961470891,0.0010694005579421,-2.8464657165439e-10,3.3970327710542e-09,-0.0014228860450504,0.0014228904394462,-0.0014228839772675,0.001422890837495,-0.0014228852102115,0.0014228896045509,-0.0014228831818529,0.0014228900420242,-0.0010973726810411,0.0010973773469191,-0.0010973719299794,0.0010973765956877,0.74447175154311,125301,3014,0.0044470217056622,0.0044470217056624,0.0044470217056837,23.4416443907,0.0001027331551256,0.0001027331551256,0.0001027331551256,3323912.9140334,0.013432519570802
28919200,0.99993096984133,0.016611046819144,0.0055370156063748,0.0055370156063754,0.0055370156063937,-0.0010697840567071,0.0010697872027443,9.2455663898814e-10,9.2458374107196e-10,6.9285294214174e-10,9.0236845167498e-10,-0.0014246977507899,0.001424702155892,-0.0014246969650214,0.0014247013700715,-0.0014246969265937,0.0014247014823401,-0.0014246961435725,0.0014247006992608,-0.0010977415402777,0.0010977437424238,-0.0010977422482219,0.0010977444505243,6.9285794589125e-10,9.0236574609403e-10,2.795574255807e-09,-9.4643152466977e-10,-0.0010697840567061,0.0010697872027454,-0.0014246971122905,0.0014247027777003,-0.0014246976035167,0.0014247007482667,-0.0014246962894621,0.0014247021055095,-0.001424696780705,0.0014247000760893,-0.0010977397047626,0.0010977455659233,-0.001097744083735,0.0010977426270266,-0.0010977423602569,0.0010977427555423,-0.0010977430006324,0.0010977438437065,1.553939609741e-09,1.5539666385035e-09,-0.0010697834402398,0.0010697878192218,-3.3193298323403e-10,3.421810445128e-09,-0.0014246978382105,0.0014247021786727,-0.001424695750009,0.0014247026038475,-0.0014246970067251,0.0014247013471308,-0.0014246949576244,0.0014247018114069,-0.0010977410211364,0.0010977456844975,-0.0010977402675196,0.0010977449307111,0.71381039741229,125301,3014,0.0044486407140847,0.0044486407140851,0.0044486407141062,23.983925064119,0.00010707140051295,0.00010707140051295,0.00010707140051295,3284263.5638099,0.01343746849355
29419200,0.99994089030533,0.016611193007203,0.0055370643357277,0.0055370643357283,0.0055370643357466,-0.0010705102400445,0.0010705128599776,7.2292213857784e-10,7.2294893458277e-10,4.9553425797445e-10,7.0146415622212e-10,-0.0014243065964159,0.0014243105498596,-0.0014243058497783,0.0014243098031704,-0.001424305808803,0.0014243099134577,-0.001424305064302,0.0014243091688973,-0.0010988363168243,0.0010988380862974,-0.0010988370248073,0.0010988387944376,4.9553941265863e-10,7.0145954373803e-10,2.5823802935133e-09,-1.136508211602e-09,-0.0010705102400451,0.0010705128599788,-0.0014243059643526,0.0014243111681046,-0.0014243064818398,0.0014243091849324,-0.001424305177803,0.0014243105327558,-0.0014243056953078,0.0014243085495974,-0.001098834493935,0.0010988399007435,-0.0010988388476953,0.0010988369799883,-0.0010988371307531,0.0010988371079014,-0.0010988377704706,0.001098838191528,1.3565184529395e-09,1.356545698313e-09,-0.0010705096194528,0.0010705134805819,-5.1239700200567e-10,3.2137466932592e-09,-0.0014243066736802,0.0014243105803012,-0.0014243046348046,0.0014243110348891,-0.0014243058815643,0.0014243097881292,-0.0014243038806913,0.0014243102807206,-0.0010988357980075,0.0010988400283969,-0.0010988350448882,0.0010988392751047,0.6493552616149,125301,3014,0.0044516416512868,0.0044516416512907,0.004451641651313,24.7788171113,0.0001134305368904,0.0001134305368904,0.0001134305368904,3293171.641843,0.013446555311402
29919200,0.99994969279911,0.016611330602601,0.0055371102008606,0.0055371102008612,0.0055371102008795,-0.0010714183460486,0.0010714211514127,7.9202865509767e-10,7.9205541116264e-10,5.5987597382037e-10,7.6980770599124e-10,-0.0014223035649672,0.0014223076831798,-0.0014223028031276,0.001422306921288,-0.0014223027635809,0.001422307033902,-0.0014223020041486,0.0014223062744115,-0.0011000780528524,0.0011000799748796,-0.0011000787554937,0.0011000806776761,5.5988235713386e-10,7.698033723534e-10,2.644069385577e-09,-1.0599832476158e-09,-0.0010714183460478,0.0010714211514137,-0.0014223029341641,0.001422308298817,-0.0014223034339259,0.0014223063056551,-0.0014223021339765,0.0014223076507293,-0.001422302633755,0.0014223056575809,-0.0011000762366291,0.001100081781098,-0.0011000805717166,0.0011000788714581,-0.0011000788669101,0.0011000789924389,-0.0011000795015631,0.0011000800774163,1.4351724997006e-09,1.4351995718441e-09,-0.0010714177160874,0.0010714217813842,-4.2872907885623e-10,3.284562760377e-09,-0.0014223036325621,0.001422307725587,-0.001422301582062,0.0014223081606694,-0.0014223028248812,0.0014223069178497,-0.0014223008132641,0.0014223073918156,-0.0011000775214896,0.0011000819182692,-0.0011000767729822,0.0011000811695927,0.68704430209797,125301,3014,0.0044553830634189,0.0044553830634193,0.0044553830634405,25.465405964617,0.00011892324771694,0.00011892324771694,0.00011892324771694,3345323.2626904,0.013457866534284
30419200,0.99995744443494,0.016611439786534,0.0055371465955047,0.0055371465955053,0.0055371465955236,-0.0010727441596986,0.0010727470367329,8.2113041679412e-10,8.2115733750112e-10,5.9046017043534e-10,7.991213325683e-10,-0.0014260506236312,0.0014260548013666,-0.0014260498577293,0.0014260540354132,-0.0014260498182443,0.0014260541472302,-0.0014260490548373,0.0014260533837658,-0.0011008917122276,0.0011008936940949,-0.0011008924185956,0.0011008944006194,5.9046494697986e-10,7.9911469406154e-10,2.6719532792552e-09,-1.0296654810162e-09,-0.0010727441596985,0.0010727470367328,-0.0014260499929234,0.0014260554165567,-0.0014260504884336,0.0014260534202259,-0.0014260491887776,0.0014260547636524,-0.001426049684308,0.001426052767339,-0.001100889897042,0.0011008954988213,-0.0011008942337765,0.0011008925958845,-0.0011008925252546,0.0011008927144839,-0.0011008931634826,0.0011008938005711,1.4548905085348e-09,1.4549176191184e-09,-0.0010727435389928,0.0010727476574485,-4.0857873280311e-10,3.3029534013055e-09,-0.0014260506995003,0.0014260548348125,-0.0014260486456738,0.0014260552655731,-0.0014260498879958,0.0014260540232517,-0.0014260478728275,0.0014260544926696,-0.0011008911941952,0.0011008956318928,-0.0011008904422018,0.0011008948797283,0.62192907678445,125301,3014,0.0044609008883493,0.0044609008883491,0.0044609008883699,26.13070911751,0.00012424567294008,0.00012424567294008,0.00012424567294008,3292361.6374923,0.013474706083361
30919200,0.99996433823712,0.016611546310302,0.0055371821034276,0.0055371821034282,0.0055371821034465,-0.0010743708256353,0.001074373007213,5.5535422563315e-10,5.5538122339662e-10,3.307237166763e-10,5.3437164513658e-10,-0.0014245217405406,0.0014245253156928,-0.0014245210274963,0.0014245246025965,-0.0014245209845477,0.0014245247117458,-0.0014245202732269,0.0014245240003668,-0.0011028904184247,0.0011028918318926,-0.0011028911205211,0.0011028925341447,3.3073193971363e-10,5.3436496425244e-10,2.3551538927774e-09,-1.2444168467719e-09,-0.0010743708256347,0.0010743730072138,-0.0014245211300348,0.0014245259142788,-0.0014245216379963,0.0014245240040157,-0.0014245203749,0.0014245253111784,-0.0014245208828783,0.0014245234009289,-0.0011028886550279,0.0011028935896164,-0.001102892883919,0.0011028907764189,-0.0011028912113426,0.0011028908760037,-0.001102891844155,0.0011028919511315,1.1943517300804e-09,1.1943785284088e-09,-0.0010743701998731,0.0010743736329856,-6.1118558728808e-10,2.992553814491e-09,-0.0014245217914279,0.0014245253706397,-0.0014245198277267,0.0014245258177621,-0.0014245210331666,0.0014245246123217,-0.0014245191066374,0.0014245250966167,-0.0011028899085468,0.0011028937530736,-0.0011028891616781,0.0011028930060362,0.67884301119696,125301,3014,0.0044676188341176,0.004467618834118,0.0044676188341392,27.119981693885,0.00013215985355108,0.00013215985355108,0.00013215985355108,3347503.3338275,0.013495061245688
31419200,0.9999705057553,0.016611642481772,0.0055372141605841,0.0055372141605847,0.005537214160603,-0.0010771821163579,0.0010771836606386,3.150982241126e-10,3.1512589582608e-10,1.0012335941774e-10,2.9579359882624e-10,-0.0014306167495792,0.0014306197665497,-0.001430616086332,0.0014306191032509,-0.0014306160400295,0.0014306192081381,-0.0014306153782681,0.0014306185463188,-0.0011050138683424,0.0011050147627097,-0.0011050145694634,0.0011050154639884,1.0013172423e-10,2.9578691373451e-10,1.9687351567924e-09,-1.3385098036814e-09,-0.0010771821163574,0.0010771836606393,-0.0014306161889416,0.0014306203165121,-0.0014306166469637,0.0014306185532937,-0.0014306154801313,0.0014306197588282,-0.00143061593817,0.0014306179956234,-0.001105012248659,0.0011050163784583,-0.0011050161891492,0.0011050138482378,-0.0011050146084617,0.0011050138683281,-0.0011050152381572,0.0011050149291774,9.2812503618194e-10,9.2815132808463e-10,-0.0010771815163874,0.0010771842606194,-7.2913835752956e-10,2.5806256056739e-09,-0.0014306167728302,0.0014306198436172,-0.0014306149585314,0.0014306202435049,-0.0014306160656529,0.0014306191363828,-0.0014306142865578,0.0014306195714748,-0.0011050134317915,0.0011050166089647,-0.0011050126875762,0.0011050158645818,0.68615601882923,125301,3014,0.0044793037443707,0.0044793037443712,0.0044793037443922,28.437315959439,0.00014269852767551,0.00014269852767551,0.00014269852767551,3273961.1732519,0.01353067235544
31919200,0.99997581786412,0.016611726605964,0.0055372422019816,0.0055372422019821,0.0055372422020005,-0.0010782470470805,0.0010782495673952,6.8604650816186e-10,6.860740977602e-10,4.601317544084e-10,6.650010967612e-10,-0.0014320727234659,0.0014320765874774,-0.0014320719856058,0.0014320758495619,-0.0014320719444611,0.0014320759596044,-0.001432071209307,0.0014320752243931,-0.0011062270222823,0.0011062287164459,-0.0011062277241884,0.0011062294185103,4.6014209694251e-10,6.6499529747697e-10,2.3431015627577e-09,-9.7097597967478e-10,-0.0010782470470785,0.0010782495673969,-0.0014320721564129,0.0014320771380056,-0.0014320725526525,0.0014320752990409,-0.0014320713787569,0.0014320765114737,-0.0014320717750134,0.0014320746725216,-0.0011062253965526,0.0011062303309095,-0.0011062293499188,0.0011062278040517,-0.0011062277694267,0.0011062278079313,-0.0011062284011738,0.0011062288825884,1.2993942530446e-09,1.2994206727081e-09,-0.0010782464468173,0.0010782501676681,-3.7211398957011e-10,2.9534550472109e-09,-0.0014320727526637,0.0014320766642293,-0.0014320708563632,0.0014320769958412,-0.0014320719703483,0.0014320758818587,-0.0014320701116163,0.0014320762510382,-0.0011062265840151,0.0011062305652657,-0.0011062258375821,0.001106229818663,0.69501902603587,125301,3014,0.0044837265794604,0.0044837265794596,0.0044837265794804,29.26944010226,0.00014935552081808,0.00014935552081808,0.00014935552081808,3252325.8326901,0.013544120455464
32419200,0.99998017951163,0.016611799169561,0.0055372663898473,0.0055372663898479,0.0055372663898662,-0.001077697260121,0.0010777014239675,1.3105330688202e-09,1.3105606754769e-09,1.066142798334e-09,1.2864779872747e-09,-0.0014320841211533,0.0014320894123913,-0.0014320832576094,0.0014320885487959,-0.0014320832249885,0.0014320886673265,-0.0014320823659826,0.0014320878082629,-0.0011057796198917,0.001105782657084,-0.0011057803278211,0.0011057833651707,1.0661507582479e-09,1.2864717154019e-09,3.0354795400316e-09,-4.1438399333966e-10,-0.0010776972601203,0.0010777014239683,-0.0014320835235643,0.0014320899847046,-0.0014320838551927,0.0014320879764878,-0.0014320826296648,0.0014320892418939,-0.0014320829613098,0.0014320872336905,-0.0011057779234687,0.0011057843307459,-0.0011057820242453,0.0011057816915079,-0.0011057803991882,0.0011057817036062,-0.0011057810397301,0.0011057828068029,1.9299041878106e-09,1.9299306127681e-09,-0.0010776966538688,0.0010777020302301,1.7404846279187e-10,3.6490246294053e-09,-0.0014320841757095,0.0014320894735554,-0.0014320821003629,0.0014320897305028,-0.0014320832665382,0.0014320885643271,-0.0014320812327581,0.0014320888628416,-0.0011057791576169,0.0011057845410581,-0.0011057784025227,0.0011057837857955,0.72871757647938,125301,3014,0.004481454526651,0.0044814545266513,0.0044814545266726,29.299129203934,0.00014959303363147,0.00014959303363147,0.00014959303363147,3233243.01908,0.013537218866046
32919200,0.99998373297128,0.01661185404427,0.005537284681417,0.0055372846814175,0.0055372846814359,-0.0010768413593887,0.0010768458536826,1.4358694315568e-09,1.4358970264197e-09,1.1894008700316e-09,1.4113022263622e-09,-0.0014327968683747,0.0014328024427903,-0.0014327959809276,0.0014328015552914,-0.0014327959494244,0.0014328016744045,-0.0014327950665813,0.0014328007915038,-0.0011048869244433,0.001104890228209,-0.0011048876414957,0.0011048909454188,1.1894081077263e-09,1.4112964109958e-09,3.2313835256472e-09,-3.5961563461143e-10,-0.0010768413593882,0.0010768458536833,-0.0014327962468859,0.0014328030386624,-0.0014327966024107,0.0014328009594238,-0.0014327953302336,0.0014328022725645,-0.0014327956857749,0.0014328001933393,-0.0011048851586338,0.0011048919702219,-0.001104889407306,0.0011048892034041,-0.0011048877278435,0.0011048892486969,-0.0011048883788449,0.0011048903634888,2.058020045812e-09,2.0580465394145e-09,-0.001076840750324,0.0010768464627576,2.3084309976941e-10,3.8473735832456e-09,-0.0014327969447038,0.0014328024834051,-0.0014327947978448,0.0014328027635149,-0.0014327960113574,0.0014328015500019,-0.001432793906471,0.0014328018720844,-0.0011048864451967,0.001104892147901,-0.001104885680534,0.0011048913830695,0.67786409585598,125301,3014,0.0044779192114715,0.004477919211472,0.004477919211493,29.174576853512,0.0001485966148281,0.0001485966148281,0.0001485966148281,3195086.0197906,0.013526501060915
33419200,0.9999866694259,0.016611902462608,0.0055373008208629,0.0055373008208635,0.0055373008208818,-0.0010763698124051,0.0010763737555825,1.2243723125604e-09,1.2243996307847e-09,9.8060897533363e-10,1.200310485368e-09,-0.0014303105757343,0.0014303156812418,-0.0014303097287112,0.0014303148341669,-0.0014303096946491,0.0014303149518131,-0.0014303088512059,0.0014303141083119,-0.0011049042505218,0.0011049071016689,-0.0011049049626184,0.0011049078139223,9.806146313268e-10,1.2003069361382e-09,3.155294601312e-09,-7.0652035940162e-10,-0.0010763698124042,0.0010763737555836,-0.0014303099135905,0.0014303163226365,-0.0014303103908504,0.0014303141927761,-0.00143030903429,0.0014303155949845,-0.0014303095115664,0.0014303134651376,-0.0011049023542658,0.0011049089804097,-0.0011049068588729,0.0011049059351828,-0.0011049050971071,0.0011049060792938,-0.0011049057427079,0.0011049071873606,1.8672127762549e-09,1.8672393922948e-09,-0.0010763691827699,0.0010763743852281,-8.6308311149162e-11,3.7936010410334e-09,-0.0014303106752874,0.0014303156974841,-0.0014303084819757,0.0014303161039078,-0.0014303097818715,0.0014303148040115,-0.0014303076297528,0.0014303152516287,-0.0011049037019448,0.0011049090811513,-0.0011049029421441,0.0011049083211821,0.7211904367372,125301,3014,0.0044759443680928,0.0044759443680932,0.0044759443681143,29.316142616419,0.00014972914093135,0.00014972914093135,0.00014972914093135,3227017.4083782,0.013520440819316
33919200,0.9999891645746,0.016611943138674,0.0055373143795514,0.005537314379552,0.0055373143795703,-0.0010777524553686,0.0010777551604428,7.5386346625329e-10,7.5389070674464e-10,5.2636344631097e-10,7.3241818398017e-10,-0.0014338333674075,0.0014338373970039,-0.001433832615931,0.001433836645476,-0.0014338325747806,0.0014338367553561,-0.0014338318253117,0.0014338360058283,-0.0011059075137126,0.0011059093465261,-0.0011059082352054,0.0011059100681761,5.2637054533298e-10,7.3241296242645e-10,2.6728932885827e-09,-1.1651363011226e-09,-0.0010777524553679,0.0010777551604439,-0.0014338327159688,0.0014338380352126,-0.001433833267367,0.0014338360072733,-0.0014338319243412,0.0014338373945534,-0.0014338324757554,0.001433835366628,-0.0011059056325811,0.001105911219354,-0.0011059101163344,0.0011059081953508,-0.0011059083478377,0.0011059083478602,-0.0011059090011261,0.0011059094453441,1.3871812745643e-09,1.3872079365733e-09,-0.0010777518351355,0.0010777557806864,-5.4056196551183e-10,3.3040620421873e-09,-0.0014338334647939,0.0014338374068467,-0.0014338313818231,0.0014338378961506,-0.0014338326679886,0.0014338366099847,-0.001433830622661,0.0014338371369325,-0.0011059069893603,0.001105911322066,-0.0011059062223904,0.0011059105549285,0.7142672006612,125301,3014,0.0044816950115678,0.0044816950115686,0.0044816950115896,30.069974190782,0.00015575979352626,0.00015575979352626,0.00015575979352626,3177870.3960489,0.01353798122595
34419200,0.99999133207326,0.01661197777258,0.0055373259241868,0.0055373259241874,0.0055373259242058,-0.0010799836786198,0.001079985021513,2.3718787457324e-10,2.3721516321018e-10,2.47380463579e-11,2.1846613683301e-10,-0.0014358119914261,0.0014358148379391,-0.001435811344922,0.0014358141913829,-0.0014358112967059,0.0014358142945072,-0.001435810650788,0.0014358136485317,-0.0011083573217555,0.0011083580484161,-0.001108358031468,0.0011083587582857,2.4744564095081e-11,2.1846190684642e-10,2.0716714675444e-09,-1.597266545008e-09,-0.001079983678619,0.001079985021514,-0.0014358113743503,0.0014358154485653,-0.0014358119619929,0.0014358135807605,-0.0014358106799185,0.0014358149054135,-0.0014358112675777,0.0014358130376221,-0.0011083555269522,0.0011083598446541,-0.0011083598262708,0.0011083569620479,-0.0011083581202389,0.0011083570967738,-0.0011083587583003,0.0011083581635279,8.6444384259869e-10,8.6447060319294e-10,-0.0010799830644799,0.0010799856356632,-9.6580116568734e-10,2.699199306064e-09,-0.001435812059449,0.0014358148689432,-0.0014358101443977,0.001435815402516,-0.0014358113687377,0.0014358141781751,-0.0014358094880039,0.0014358147460659,-0.0011083568208823,0.0011083599773245,-0.0011083560679614,0.0011083592242347,0.69956539967562,125301,3014,0.004490945273378,0.0044909452733787,0.0044909452733997,31.479762779526,0.00016703810223621,0.00016703810223621,0.00016703810223621,3166805.7257552,0.013566093095768
34919200,0.99999323991422,0.016612009044994,0.0055373363483248,0.0055373363483254,0.0055373363483437,-0.0010838448427704,0.001083844737599,-3.1312529653125e-10,-3.1309810595014e-10,-5.0905825682557e-10,-3.2908420287997e-10,-0.0014390749049866,0.0014390764947815,-0.0014390743695777,0.0014390759593192,-0.0014390743137332,0.0014390760549674,-0.0014390737774375,0.0014390755186142,-0.0011123316479649,0.0011123311908607,-0.0011123323558835,0.0011123318989373,-5.0905152302525e-10,-3.2908804316154e-10,1.3993726631956e-09,-2.0255924251915e-09,-0.0010838448427695,0.0010838447376004,-0.001439074334826,0.0014390770654893,-0.0014390749397347,0.0014390753886155,-0.001439073743123,0.0014390766252203,-0.0014390743480491,0.001439074948359,-0.0011123299760885,0.0011123328733607,-0.0011123340277587,0.0011123302164399,-0.0011123323976035,0.001112330299811,-0.0011123330311881,0.0011123313445492,3.0447682479495e-10,3.0450361671176e-10,-0.0010838442383092,0.0010838453420705,-1.3905618270701e-09,2.0195567278547e-09,-0.0014390749341227,0.0014390765555334,-0.0014390732182789,0.0014390771147773,-0.0014390743558503,0.001439075977206,-0.001439072670646,0.0014390765670881,-0.0011123311965893,0.0011123330674308,-0.0011123304479888,0.0011123323186618,0.71680104777649,125301,3014,0.0045069528663164,0.0045069528663174,0.0045069528663378,33.573326958835,0.00018378661567068,0.00018378661567068,0.00018378661567068,3161898.2724908,0.013614751550761
35419200,0.99999488939074,0.016612034466307,0.0055373448220959,0.0055373448220965,0.0055373448221148,-0.0010884248764548,0.0010884242015393,-5.2862945676237e-10,-5.2860222412372e-10,-7.1824538665529e-10,-5.4337780718098e-10,-0.0014444312547363,0.0014444323502229,-0.0014444307625588,0.0014444318579932,-0.0014444307041692,0.0014444319511324,-0.0014444302110275,0.0014444314579326,-0.0011167490996474,0.0011167481806087,-0.0011167498003352,0.0011167488814535,-7.1823953934844e-10,-5.4338156498898e-10,1.0266729449639e-09,-2.0839022430391e-09,-0.0010884248764539,0.0010884242015403,-0.0014444307374081,0.0014444328685317,-0.0014444312798824,0.0014444313396887,-0.0014444301863537,0.0014444324689458,-0.0014444307288445,0.0014444309401162,-0.0011167475820059,0.0011167497099386,-0.0011167513179753,0.0011167473521243,-0.0011167497946611,0.0011167473501479,-0.001116750418846,0.0011167483791391,7.201579811386e-11,7.2042622323811e-11,-0.0010884242889293,0.0010884247890749,-1.4649757830395e-09,1.630167628395e-09,-0.0014444312451623,0.0014444324457664,-0.0014444296786869,0.0014444329441341,-0.0014444307111367,0.0014444319116839,-0.0014444291739481,0.0014444324393391,-0.0011167487099595,0.0011167499808248,-0.0011167479698312,0.001116749240527,0.67521871658562,125301,3014,0.0045259555859768,0.004525955585977,0.004525955585998,35.929370270223,0.00020263496216178,0.00020263496216178,0.00020263496216178,3129575.439628,0.013672556250882
35919200,0.99999622354062,0.016612055907875,0.0055373519692853,0.0055373519692859,0.0055373519693042,-0.0010912839035794,0.0010912847331629,4.3651118811813e-11,4.3678155044698e-11,-1.6272960786924e-10,2.6162677454045e-11,-0.0014455281454347,0.0014455305358247,-0.0014455275402451,0.0014455299305796,-0.0014455274897944,0.0014455300316919,-0.0014455268855867,0.0014455294274295,-0.0011198663129995,0.0011198666318852,-0.0011198670067441,0.0011198673257921,-1.627240120771e-10,2.6151831198994e-11,1.5506464370851e-09,-1.4633305129467e-09,-0.001091283903583,0.0010912847331589,-0.0014455276357325,0.0014455310371513,-0.0014455280499446,0.001445529429257,-0.001445526980589,0.0014455305334967,-0.0014455273948228,0.0014455289256175,-0.0011198648385216,0.0011198681066427,-0.0011198684812407,0.0011198658510081,-0.0011198670007888,0.0011198657979086,-0.0011198676198442,0.0011198668395019,6.4397462498784e-10,6.4400148019684e-10,-0.001091283316479,0.0010912853202739,-8.6196658871828e-10,2.15083142165e-09,-0.0014455281280449,0.0014455306477198,-0.001445526472811,0.0014455310074086,-0.0014455274802885,0.0014455299999163,-0.0014455258579895,0.001445530392518,-0.0011198659308306,0.0011198684090255,-0.0011198651956263,0.0011198676736669,0.70236607641682,125301,3014,0.0045378015222284,0.0045378015222275,0.0045378015222503,37.536299668856,0.00021549039735085,0.00021549039735085,0.00021549039735085,3151518.8312412,0.013708536929659
36419200,0.99999720745806,0.01661207148713,0.0055373571623702,0.0055373571623708,0.0055373571623891,-0.0010909735546735,0.0010909778619788,1.364579401036e-09,1.3646065322071e-09,1.1187648659719e-09,1.3405925976987e-09,-0.0014467646878041,0.001446770096547,-0.0014467638151486,0.0014467692238394,-0.0014467637833661,0.0014467693432521,-0.0014467629158971,0.0014467684757253,-0.0011192874009717,0.0011192905618875,-0.0011192881013916,0.001119291262465,1.1187726202064e-09,1.3405858643419e-09,2.9531609243506e-09,-2.2397330880908e-10,-0.0010909735546734,0.0010909778619798,-0.0014467641328807,0.0014467706230825,-0.0014467643700677,0.0014467686973109,-0.001446763231032,0.0014467698723654,-0.001446763468235,0.0014467679466074,-0.0011192858369601,0.001119292100175,-0.0011192896654062,0.0011192897241753,-0.0011192881367778,0.0011192896532309,-0.001119288767975,0.0011192907492084,1.9699519147624e-09,1.9699788030586e-09,-0.0010909729625381,0.0010909784541247,3.4485107360995e-10,3.5518589865284e-09,-0.0014467647112375,0.0014467701884973,-0.0014467627160764,0.0014467703485356,-0.001446763793704,0.0014467692709073,-0.0014467618401524,0.0014467694725556,-0.0011192869897517,0.0011192923791605,-0.0011192862423111,0.0011192916315519,0.69281235038054,125301,3014,0.0045365335804268,0.0045365335804285,0.0045365335804487,37.488410555249,0.00021510728444199,0.00021510728444199,0.00021510728444199,3118883.2514038,0.013704720292121
36919200,0.99999791627918,0.016612082279695,0.0055373607598918,0.0055373607598924,0.0055373607599107,-0.001089142968776,0.0010891485013538,1.8265621233103e-09,1.8265892353056e-09,1.5654193893357e-09,1.7997083712623e-09,-0.0014447588772368,0.0014447653606493,-0.0014447579081539,0.0014447643915144,-0.00144475788279,0.0014447645175601,-0.0014447569199083,0.0014447635546204,-0.0011176162210246,0.0011176203683054,-0.0011176169416848,0.0011176210891222,1.5654266447009e-09,1.7997030376127e-09,3.5829225618245e-09,7.0230756140497e-11,-0.0010891429687752,0.0010891485013547,-0.0014447582618932,0.0014447659427039,-0.0014447585234921,0.0014447638094645,-0.0014447572705427,0.0014447651027012,-0.0014447575321582,0.0014447629694751,-0.00111761448962,0.0011176220656502,-0.0011176186730897,0.0011176193917771,-0.0011176170200322,0.0011176193834238,-0.0011176176756976,0.0011176205202513,2.4491947279587e-09,2.4492215979614e-09,-0.0010891423594385,0.0010891491107015,6.4665233630324e-10,4.1968388599242e-09,-0.0014447589466569,0.0014447654149144,-0.0014447567377435,0.0014447655929932,-0.0014447579312675,0.0014447643994686,-0.0014447557671404,0.001444764622334,-0.0011176157566925,0.0011176222794171,-0.0011176149863246,0.0011176215088799,0.66632588226854,125301,3014,0.0045289409821253,0.0045289409821255,0.0045289409821467,36.861660117704,0.00021009328094163,0.00021009328094163,0.00021009328094163,3120275.3049905,0.013681622198328
37419200,0.99999846334654,0.016612090701447,0.0055373635671425,0.0055373635671431,0.0055373635671614,-0.0010904829045082,0.0010904854369577,6.8438746443274e-10,6.8441443649112e-10,4.5657477671868e-10,6.6280075777417e-10,-0.0014450449361145,0.0014450488251678,-0.0014450441957087,0.0014450480847102,-0.0014450441541294,0.0014450481949381,-0.0014450434160322,0.0014450474567844,-0.0011190973578052,0.0011190990388651,-0.0011190980916056,0.0011190997728214,4.5658274285289e-10,6.6279790068314e-10,2.4471937369953e-09,-1.0783857836297e-09,-0.0010904829045062,0.0010904854369606,-0.0014450443351617,0.0014450494113303,-0.0014450447966551,0.0014450474985569,-0.001445043554323,0.0014450487822421,-0.001445044015838,0.0014450468694821,-0.0011190956284412,0.0011191007564746,-0.0011190998209648,0.0011190980552197,-0.0011190981410444,0.0011190980903803,-0.0011190988068421,0.0011190992017212,1.3102059143146e-09,1.3102328044343e-09,-0.0010904822920017,0.0010904860494739,-4.6448402287605e-10,3.0700418080801e-09,-0.0014450449888232,0.0014450488785351,-0.0014450430202484,0.001445049277028,-0.001445044203809,0.0014450480934653,-0.0014450422725187,0.0014450485292451,-0.0011190969049651,0.001119100967699,-0.0011190961257712,0.0011191001883404,0.67334139789254,125301,3014,0.0045344827111669,0.004534482711169,0.0045344827111873,37.673961149183,0.00021659168919347,0.00021659168919347,0.00021659168919347,3133503.8984854,0.013698450829079
37919200,0.99999886682768,0.01661209670529,0.0055373655684236,0.0055373655684242,0.0055373655684425,-0.0010902589083363,0.001090263122087,1.3262802724304e-09,1.3263072863993e-09,1.0797071806868e-09,1.3021179735427e-09,-0.0014454417504651,0.0014454470901688,-0.0014454408835356,0.0014454462231874,-0.0014454408508862,0.001445446342327,-0.0014454399882558,0.0014454454796385,-0.0011187506820417,0.0011187537556628,-0.001118751395255,0.0011187544690325,1.0797133283596e-09,1.302113969937e-09,3.1493979644428e-09,-4.9680826723216e-10,-0.0010902589083355,0.001090263122088,-0.0014454411211544,0.0014454476952809,-0.0014454415128416,0.0014454456180795,-0.00144544022372,0.0014454469495752,-0.0014454406154238,0.0014454448723872,-0.0011187488898652,0.0011187555263118,-0.0011187531874309,0.0011187526983843,-0.0011187514954228,0.0011187527663558,-0.0011187521407485,0.0011187538781925,1.9563004146593e-09,1.9563273502188e-09,-0.001090258291635,0.0010902637387986,1.0405513268712e-10,3.7740015130208e-09,-0.0014454418279759,0.0014454471289353,-0.0014454396844163,0.0014454474469585,-0.0014454409152357,0.0014454462161386,-0.0014454388132018,0.0014454465756879,-0.0011187501825243,0.0011187556879928,-0.0011187494213983,0.0011187549266976,0.65161957088107,125301,3014,0.0045335611737645,0.0045335611737649,0.0045335611737861,37.676476871929,0.00021661181497543,0.00021661181497543,0.00021661181497543,3118824.0871579,0.013695665035326
38419200,0.99999915852721,0.01661210133005,0.00553736711001,0.0055373671100106,0.0055373671100289,-0.0010889439718054,0.0010889492022585,1.7119313324082e-09,1.7119582829672e-09,1.4519148591153e-09,1.6854651315501e-09,-0.0014433839775766,0.0014433902099138,-0.0014433830307482,0.0014433892630344,-0.0014433830039339,0.0014433893883869,-0.0014433820625281,0.001443388446923,-0.0011175647990669,0.0011175687028157,-0.0011175655136898,0.0011175694175965,1.4519212631157e-09,1.6854613995869e-09,3.6179666256734e-09,-1.9407274446151e-10,-0.0010889439718046,0.0010889492022602,-0.0014433833158724,0.0014433908420581,-0.001443383692451,0.0014433886308961,-0.0014433823449346,0.0014433900232285,-0.0014433827215292,0.0014433878120798,-0.001117562922981,0.0011175705503563,-0.0011175673897749,0.0011175675700608,-0.0011175656469803,0.0011175676691522,-0.0011175662955884,0.0011175687993651,2.3532139339296e-09,2.3532406985532e-09,-0.0010889433439275,0.0010889498301474,4.0807664942083e-10,4.2519408647576e-09,-0.0014433840778917,0.0014433902331593,-0.0014433817940085,0.0014433905295608,-0.0014433830841788,0.0014433892393911,-0.0014433808447251,0.0014433895802221,-0.0011175642614187,0.0011175706753812,-0.001117563496727,0.0011175699105218,0.692586142163,125301,3014,0.0045281017385028,0.0045281017385047,0.0045281017385257,37.19799883069,0.00021278399064552,0.00021278399064552,0.00021278399064552,3133464.3586917,0.013679045808371
38880000,0.99999936222974,0.016612104604449,0.0055373682014765,0.0055373682014771,0.0055373682014954,-0.0010888109455135,0.0010888152085519,1.3460450232779e-09,1.3460721291557e-09,1.1007392564654e-09,1.3219011196811e-09,-0.001445321091607,0.0014453264755853,-0.0014453202228473,0.0014453256067735,-0.0014453201895338,0.0014453257245826,-0.0014453193241698,0.0014453248591606,-0.0011170853651567,0.0011170884773217,-0.001117086087736,0.001117089200058,1.100744666102e-09,1.3218981483877e-09,3.422115753068e-09,-7.299962577036e-10,-0.0010888109455126,0.0010888152085531,-0.0014453203818527,0.0014453271654416,-0.0014453209325972,0.0014453249169208,-0.0014453194814719,0.0014453264161241,-0.0014453200322328,0.0014453241676166,-0.0011170833273748,0.0011170904990033,-0.0011170881255168,0.0011170871783779,-0.0011170862607382,0.0011170874053714,-0.0011170869164688,0.0011170885252217,1.9950909947808e-09,1.9951179018117e-09,-0.0010888103097535,0.0010888158443222,-1.0201823592763e-10,4.0669614616926e-09,-0.0014453212342969,0.0014453264495519,-0.0014453189229212,0.0014453269300358,-0.0014453203188789,0.0014453255340776,-0.0014453180487621,0.0014453260558206,-0.0011170847731808,0.0011170905218568,-0.0011170840022106,0.0011170897507176,0.7023679016839,125301,3014,0.0045275645676123,0.0045275645676127,0.0045275645676338,37.193675268696,0.00021274940214957,0.00021274940214957,0.00021274940214957,3090128.8411778,0.01367746346348
