time,ASR_ext,ASR_strain,ASR_strain_xx,ASR_strain_yy,ASR_strain_zz,disp_x_101,disp_x_102,disp_x_103,disp_x_104,disp_x_105,disp_x_106,disp_x_p1_neg,disp_x_p1_pos,disp_x_p2_neg,disp_x_p2_pos,disp_x_p3_neg,disp_x_p3_pos,disp_x_p4_neg,disp_x_p4_pos,disp_x_p5_neg,disp_x_p5_pos,disp_x_p6_neg,disp_x_p6_pos,disp_y_101,disp_y_102,disp_y_103,disp_y_104,disp_y_105,disp_y_106,disp_y_p1_neg,disp_y_p1_pos,disp_y_p2_neg,disp_y_p2_pos,disp_y_p3_neg,disp_y_p3_pos,disp_y_p4_neg,disp_y_p4_pos,disp_y_p5_neg,disp_y_p5_pos,disp_y_p6_neg,disp_y_p6_pos,disp_y_p7_neg,disp_y_p7_pos,disp_y_p8_neg,disp_y_p8_pos,disp_z_101,disp_z_102,disp_z_103,disp_z_104,disp_z_105,disp_z_106,disp_z_p1_neg,disp_z_p1_pos,disp_z_p2_neg,disp_z_p2_pos,disp_z_p3_neg,disp_z_p3_pos,disp_z_p4_neg,disp_z_p4_pos,disp_z_p5_neg,disp_z_p5_pos,disp_z_p6_neg,disp_z_p6_pos,humidity,humidity_bc,ndof,nelem,strain_xx,strain_yy,strain_zz,temp,temp_bc,thermal_strain_xx,thermal_strain_yy,thermal_strain_zz,vonmises,vstrain
14391759,0,0,0,0,0,0,0,0,0,0,0,0,0,0,0,0,0,0,0,0,0,0,0,0,0,0,0,0,0,0,0,0,0,0,0,0,0,0,0,0,0,0,0,0,0,0,0,0,0,0,0,0,0,0,0,0,0,0,0,0,0,0,0,0,0,0,0,0,0,0,0,0,0,0,0,0,0
14478159,0.010574647,0.000177216,5.91E-05,5.91E-05,5.91E-05,-5.35E-05,5.35E-05,1.16E-11,-1.13E-11,-2.54E-13,6.43E-13,-5.28E-05,5.28E-05,-5.28E-05,5.28E-05,-5.28E-05,5.28E-05,-5.28E-05,5.28E-05,-5.37E-05,5.37E-05,-5.37E-05,5.37E-05,1.82E-12,9.22E-13,1.74E-12,1.42E-12,-5.35E-05,5.35E-05,-5.28E-05,5.28E-05,-5.28E-05,5.28E-05,-5.28E-05,5.28E-05,-5.28E-05,5.28E-05,-5.37E-05,5.37E-05,-5.37E-05,5.37E-05,-5.37E-05,5.37E-05,-5.37E-05,5.37E-05,-1.13E-11,1.14E-11,-5.35E-05,5.35E-05,-1.09E-13,2.03E-13,-5.28E-05,5.28E-05,-5.28E-05,5.28E-05,-5.28E-05,5.28E-05,-5.28E-05,5.28E-05,-5.37E-05,5.37E-05,-5.37E-05,5.37E-05,0.765912493,0.346514727,1368840,32768,0.000222745,0.000222745,0.000222745,31.05952252,32.38722037,0.000163676,0.000163676,0.000163676,260805.155,0.000668459
14564559,0.022216151,0.000372132,0.000124044,0.000124044,0.000124044,-7.06E-05,7.06E-05,8.81E-11,-8.53E-11,-2.37E-12,5.22E-12,-7.07E-05,7.07E-05,-7.07E-05,7.07E-05,-7.07E-05,7.07E-05,-7.07E-05,7.07E-05,-7.00E-05,7.00E-05,-7.00E-05,7.00E-05,2.66E-12,-4.93E-12,-3.68E-13,-6.63E-13,-7.06E-05,7.06E-05,-7.07E-05,7.07E-05,-7.07E-05,7.07E-05,-7.07E-05,7.07E-05,-7.07E-05,7.07E-05,-7.00E-05,7.00E-05,-7.00E-05,7.00E-05,-7.00E-05,7.00E-05,-7.00E-05,7.00E-05,-8.66E-11,8.67E-11,-7.06E-05,7.06E-05,-9.72E-14,1.98E-13,-7.07E-05,7.07E-05,-7.07E-05,7.07E-05,-7.07E-05,7.07E-05,-7.07E-05,7.07E-05,-7.00E-05,7.00E-05,-7.00E-05,7.00E-05,0.764067589,0.356919831,1368840,32768,0.00029403,0.00029403,0.00029403,31.92799899,32.02926069,0.000170624,0.000170624,0.000170624,264280.5318,0.00088248
14650959,0.033826666,0.000566079,0.000188693,0.000188693,0.000188693,-8.56E-05,8.56E-05,8.75E-11,-8.49E-11,-2.32E-12,4.97E-12,-8.60E-05,8.60E-05,-8.60E-05,8.60E-05,-8.60E-05,8.60E-05,-8.60E-05,8.60E-05,-8.44E-05,8.44E-05,-8.44E-05,8.44E-05,2.45E-12,-4.84E-12,-7.26E-13,-1.02E-12,-8.56E-05,8.56E-05,-8.60E-05,8.60E-05,-8.60E-05,8.60E-05,-8.60E-05,8.60E-05,-8.60E-05,8.60E-05,-8.44E-05,8.44E-05,-8.44E-05,8.44E-05,-8.44E-05,8.44E-05,-8.44E-05,8.44E-05,-8.62E-11,8.62E-11,-8.56E-05,8.56E-05,-1.39E-13,1.52E-13,-8.60E-05,8.60E-05,-8.60E-05,8.60E-05,-8.60E-05,8.60E-05,-8.60E-05,8.60E-05,-8.44E-05,8.44E-05,-8.44E-05,8.44E-05,0.762685028,0.367324935,1368840,32768,0.000356422,0.000356422,0.000356422,31.68299425,31.67130101,0.000168664,0.000168664,0.000168664,370120.6921,0.001069839
14737359,0.045288135,0.000756963,0.000252321,0.000252321,0.000252321,-0.000100107,0.000100107,8.67E-11,-8.43E-11,-2.21E-12,4.69E-12,-0.000100998,0.000100998,-0.000100998,0.000100998,-0.000100998,0.000100998,-0.000100998,0.000100998,-9.84E-05,9.84E-05,-9.84E-05,9.84E-05,2.16E-12,-4.75E-12,-8.51E-13,-1.19E-12,-0.000100107,0.000100107,-0.000100998,0.000100998,-0.000100998,0.000100998,-0.000100998,0.000100998,-0.000100998,0.000100998,-9.84E-05,9.84E-05,-9.84E-05,9.84E-05,-9.84E-05,9.84E-05,-9.84E-05,9.84E-05,-8.55E-11,8.56E-11,-0.000100107,0.000100107,-1.15E-13,2.23E-13,-0.000100998,0.000100998,-0.000100998,0.000100998,-0.000100998,0.000100998,-0.000100998,0.000100998,-9.84E-05,9.84E-05,-9.84E-05,9.84E-05,0.761635194,0.377730039,1368840,32768,0.000417025,0.000417025,0.000417025,31.33620428,31.31334133,0.00016589,0.00016589,0.00016589,481602.8546,0.001251859
14823759,0.056585119,0.000944591,0.000314864,0.000314864,0.000314864,-0.000114386,0.000114386,8.63E-11,-8.38E-11,-1.99E-12,4.54E-12,-0.000115698,0.000115698,-0.000115698,0.000115698,-0.000115698,0.000115698,-0.000115698,0.000115698,-0.000112165,0.000112166,-0.000112166,0.000112165,1.74E-12,-4.79E-12,-1.09E-12,-1.43E-12,-0.000114386,0.000114386,-0.000115698,0.000115698,-0.000115698,0.000115698,-0.000115698,0.000115698,-0.000115698,0.000115698,-0.000112166,0.000112166,-0.000112166,0.000112166,-0.000112166,0.000112166,-0.000112166,0.000112166,-8.50E-11,8.51E-11,-0.000114386,0.000114386,-1.13E-13,2.31E-13,-0.000115698,0.000115698,-0.000115698,0.000115698,-0.000115698,0.000115698,-0.000115698,0.000115698,-0.000112165,0.000112166,-0.000112166,0.000112165,0.760826444,0.388135143,1368840,32768,0.000476496,0.000476496,0.000476496,30.97934725,30.95538165,0.000163035,0.000163035,0.000163035,584428.6355,0.001430512
14910159,0.067713452,0.001128983,0.000376328,0.000376328,0.000376328,-0.000128414,0.000128414,8.57E-11,-8.32E-11,-1.80E-12,4.44E-12,-0.000130171,0.000130171,-0.000130171,0.000130171,-0.000130171,0.000130171,-0.000130171,0.000130171,-0.000125616,0.000125616,-0.000125616,0.000125616,1.48E-12,-4.75E-12,-1.27E-12,-1.60E-12,-0.000128414,0.000128414,-0.000130171,0.000130171,-0.000130171,0.000130171,-0.000130171,0.000130171,-0.000130171,0.000130171,-0.000125616,0.000125616,-0.000125616,0.000125616,-0.000125616,0.000125616,-0.000125616,0.000125616,-8.44E-11,8.46E-11,-0.000128414,0.000128414,-9.77E-14,2.31E-13,-0.000130171,0.000130171,-0.000130171,0.000130171,-0.000130171,0.000130171,-0.000130171,0.000130171,-0.000125616,0.000125616,-0.000125616,0.000125616,0.760197444,0.398540247,1368840,32768,0.000534913,0.000534913,0.000534913,30.62147578,30.59742198,0.000160172,0.000160172,0.000160172,677944.9871,0.00160603
14996559,0.078475165,0.001306835,0.000435612,0.000435612,0.000435612,-0.000141536,0.000141536,8.49E-11,-8.24E-11,-1.58E-12,4.21E-12,-0.000143765,0.000143765,-0.000143765,0.000143765,-0.000143765,0.000143765,-0.000143765,0.000143765,-0.000138147,0.000138147,-0.000138147,0.000138147,1.42E-12,-4.36E-12,-1.10E-12,-1.49E-12,-0.000141536,0.000141536,-0.000143765,0.000143765,-0.000143765,0.000143765,-0.000143765,0.000143765,-0.000143765,0.000143765,-0.000138147,0.000138147,-0.000138147,0.000138147,-0.000138147,0.000138147,-0.000138147,0.000138147,-8.36E-11,8.38E-11,-0.000141536,0.000141536,-1.14E-13,2.73E-13,-0.000143765,0.000143765,-0.000143765,0.000143765,-0.000143765,0.000143765,-0.000143765,0.000143765,-0.000138147,0.000138147,-0.000138147,0.000138147,0.759198777,0.401388897,1368840,32768,0.000589559,0.000589559,0.000589559,30.06162849,30.02451921,0.000155693,0.000155693,0.000155693,763622.0902,0.001770247
15082959,0.088831809,0.001476564,0.000492188,0.000492188,0.000492188,-0.000153905,0.000153905,8.44E-11,-8.18E-11,-1.45E-12,4.13E-12,-0.000156648,0.000156648,-0.000156648,0.000156648,-0.000156648,0.000156648,-0.000156648,0.000156648,-0.000149868,0.000149868,-0.000149868,0.000149868,1.62E-12,-3.96E-12,-8.57E-13,-1.19E-12,-0.000153905,0.000153905,-0.000156648,0.000156648,-0.000156648,0.000156648,-0.000156648,0.000156648,-0.000156648,0.000156648,-0.000149868,0.000149868,-0.000149868,0.000149868,-0.000149868,0.000149868,-0.000149868,0.000149868,-8.31E-11,8.32E-11,-0.000153905,0.000153905,-9.34E-14,2.41E-13,-0.000156648,0.000156648,-0.000156648,0.000156648,-0.000156648,0.000156648,-0.000156648,0.000156648,-0.000149868,0.000149868,-0.000149868,0.000149868,0.753840001,0.339830023,1368840,32768,0.000641065,0.000641065,0.000641065,29.45454988,29.41401646,0.000150836,0.000150836,0.000150836,859101.9306,0.001925051
15169359,0.098787004,0.001637427,0.000545809,0.000545809,0.000545809,-0.000165443,0.000165443,8.39E-11,-8.13E-11,-1.31E-12,4.01E-12,-0.000168817,0.000168817,-0.000168817,0.000168817,-0.000168817,0.000168817,-0.000168817,0.000168817,-0.000160613,0.000160613,-0.000160613,0.000160613,1.58E-12,-3.73E-12,-7.88E-13,-1.10E-12,-0.000165443,0.000165443,-0.000168817,0.000168817,-0.000168817,0.000168817,-0.000168817,0.000168817,-0.000168817,0.000168817,-0.000160613,0.000160613,-0.000160613,0.000160613,-0.000160613,0.000160613,-0.000160613,0.000160613,-8.26E-11,8.27E-11,-0.000165443,0.000165443,-8.40E-14,2.27E-13,-0.000168817,0.000168817,-0.000168817,0.000168817,-0.000168817,0.000168817,-0.000168817,0.000168817,-0.000160613,0.000160613,-0.000160613,0.000160613,0.744453518,0.223242478,1368840,32768,0.000689106,0.000689106,0.000689106,28.84429684,28.80351372,0.000145954,0.000145954,0.000145954,1000829.245,0.002069465
15255759,0.108344471,0.001793417,0.000597806,0.000597806,0.000597806,-0.000176486,0.000176486,8.34E-11,-8.07E-11,-1.15E-12,3.92E-12,-0.000180516,0.000180516,-0.000180516,0.000180516,-0.000180516,0.000180516,-0.000180516,0.000180516,-0.0001709,0.0001709,-0.0001709,0.0001709,1.49E-12,-3.57E-12,-7.76E-13,-1.03E-12,-0.000176486,0.000176486,-0.000180516,0.000180516,-0.000180516,0.000180516,-0.000180516,0.000180516,-0.000180516,0.000180516,-0.0001709,0.0001709,-0.0001709,0.0001709,-0.0001709,0.0001709,-0.0001709,0.0001709,-8.21E-11,8.22E-11,-0.000176486,0.000176486,-6.11E-14,1.94E-13,-0.000180516,0.000180516,-0.000180516,0.000180516,-0.000180516,0.000180516,-0.000180516,0.000180516,-0.0001709,0.0001709,-0.0001709,0.0001709,0.753381227,0.375392557,1368840,32768,0.000735085,0.000735085,0.000735085,28.23375406,28.19301097,0.00014107,0.00014107,0.00014107,1133127.711,0.002207699
15342159,0.117515252,0.001944557,0.000648186,0.000648186,0.000648186,-0.000187671,0.000187671,8.31E-11,-8.04E-11,-1.08E-12,3.82E-12,-0.000192044,0.000192045,-0.000192045,0.000192044,-0.000192044,0.000192045,-0.000192045,0.000192044,-0.00018167,0.00018167,-0.00018167,0.00018167,1.42E-12,-3.48E-12,-7.22E-13,-1.06E-12,-0.000187671,0.000187671,-0.000192044,0.000192044,-0.000192044,0.000192044,-0.000192044,0.000192044,-0.000192044,0.000192044,-0.00018167,0.00018167,-0.00018167,0.00018167,-0.00018167,0.00018167,-0.00018167,0.00018167,-8.17E-11,8.19E-11,-0.000187671,0.000187671,-8.25E-14,2.54E-13,-0.000192045,0.000192044,-0.000192045,0.000192044,-0.000192044,0.000192045,-0.000192044,0.000192045,-0.00018167,0.00018167,-0.00018167,0.00018167,0.761976103,0.521707029,1368840,32768,0.000781652,0.000781652,0.000781652,27.623178,27.58250823,0.000136185,0.000136185,0.000136185,1096997.92,0.002347718
15428559,0.126323702,0.002091029,0.00069701,0.00069701,0.00069701,-0.000198464,0.000198464,8.29E-11,-8.03E-11,-1.15E-12,3.77E-12,-0.000203122,0.000203122,-0.000203122,0.000203122,-0.000203122,0.000203122,-0.000203122,0.000203122,-0.000192145,0.000192146,-0.000192146,0.000192145,1.42E-12,-3.50E-12,-7.43E-13,-1.06E-12,-0.000198464,0.000198464,-0.000203122,0.000203122,-0.000203122,0.000203122,-0.000203122,0.000203122,-0.000203122,0.000203122,-0.000192145,0.000192145,-0.000192145,0.000192145,-0.000192145,0.000192145,-0.000192145,0.000192145,-8.15E-11,8.17E-11,-0.000198464,0.000198464,-8.45E-14,2.28E-13,-0.000203122,0.000203122,-0.000203122,0.000203122,-0.000203122,0.000203122,-0.000203122,0.000203122,-0.000192145,0.000192146,-0.000192146,0.000192145,0.768133888,0.627107531,1368840,32768,0.000826588,0.000826588,0.000826588,27.01259583,26.97200548,0.000131301,0.000131301,0.000131301,1045474.955,0.002482854
15514959,0.134780207,0.002231998,0.000743999,0.000743999,0.000743999,-0.000208735,0.000208735,8.28E-11,-8.01E-11,-9.97E-13,3.78E-12,-0.000213691,0.000213691,-0.000213691,0.000213691,-0.000213691,0.000213691,-0.000213691,0.000213691,-0.000202099,0.0002021,-0.0002021,0.000202099,1.36E-12,-3.41E-12,-6.64E-13,-1.07E-12,-0.000208735,0.000208735,-0.000213691,0.000213691,-0.000213691,0.000213691,-0.000213691,0.000213691,-0.000213691,0.000213691,-0.000202099,0.000202099,-0.000202099,0.000202099,-0.000202099,0.000202099,-0.000202099,0.000202099,-8.13E-11,8.16E-11,-0.000208735,0.000208735,-9.77E-14,3.09E-13,-0.000213691,0.000213691,-0.000213691,0.000213691,-0.000213691,0.000213691,-0.000213691,0.000213691,-0.000202099,0.0002021,-0.0002021,0.000202099,0.769321295,0.645027871,1368840,32768,0.000869349,0.000869349,0.000869349,26.40201381,26.36150274,0.000126416,0.000126416,0.000126416,1012535.483,0.002611466
15601359,0.143044485,0.00237006,0.00079002,0.00079002,0.00079002,-0.000219041,0.000219041,8.26E-11,-7.99E-11,-9.34E-13,3.70E-12,-0.000224327,0.000224327,-0.000224327,0.000224327,-0.000224327,0.000224327,-0.000224327,0.000224327,-0.000212065,0.000212065,-0.000212065,0.000212065,1.31E-12,-3.31E-12,-6.56E-13,-1.05E-12,-0.000219041,0.000219041,-0.000224327,0.000224327,-0.000224327,0.000224327,-0.000224327,0.000224327,-0.000224327,0.000224327,-0.000212065,0.000212065,-0.000212065,0.000212065,-0.000212065,0.000212065,-0.000212065,0.000212065,-8.12E-11,8.14E-11,-0.000219041,0.000219041,-9.47E-14,3.03E-13,-0.000224327,0.000224327,-0.000224327,0.000224327,-0.000224327,0.000224327,-0.000224327,0.000224327,-0.000212065,0.000212065,-0.000212065,0.000212065,0.770502185,0.662948212,1368840,32768,0.000912251,0.000912251,0.000912251,25.99944748,25.9723072,0.000123196,0.000123196,0.000123196,1007582.094,0.002740517
15687759,0.151271238,0.002508508,0.000836169,0.000836169,0.000836169,-0.000229795,0.000229795,8.25E-11,-7.98E-11,-8.77E-13,3.68E-12,-0.00023537,0.00023537,-0.00023537,0.00023537,-0.00023537,0.00023537,-0.00023537,0.00023537,-0.000222542,0.000222542,-0.000222542,0.000222542,1.28E-12,-3.27E-12,-6.85E-13,-1.08E-12,-0.000229795,0.000229795,-0.00023537,0.00023537,-0.00023537,0.00023537,-0.00023537,0.00023537,-0.00023537,0.00023537,-0.000222542,0.000222542,-0.000222542,0.000222542,-0.000222542,0.000222542,-0.000222542,0.000222542,-8.11E-11,8.13E-11,-0.000229795,0.000229795,-6.93E-14,3.21E-13,-0.00023537,0.00023537,-0.00023537,0.00023537,-0.00023537,0.00023537,-0.00023537,0.00023537,-0.000222542,0.000222542,-0.000222542,0.000222542,0.775950833,0.751109195,1368840,32768,0.000957017,0.000957017,0.000957017,25.81274922,25.79988093,0.000121702,0.000121702,0.000121702,987440.7794,0.002875193
15774159,0.159468212,0.002647796,0.000882599,0.000882599,0.000882599,-0.000240733,0.000240733,8.24E-11,-7.97E-11,-8.25E-13,3.62E-12,-0.000246516,0.000246516,-0.000246516,0.000246516,-0.000246516,0.000246516,-0.000246516,0.000246516,-0.000233313,0.000233313,-0.000233313,0.000233313,1.26E-12,-3.18E-12,-6.35E-13,-1.03E-12,-0.000240733,0.000240733,-0.000246516,0.000246516,-0.000246516,0.000246516,-0.000246516,0.000246516,-0.000246516,0.000246516,-0.000233313,0.000233313,-0.000233313,0.000233313,-0.000233313,0.000233313,-0.000233313,0.000233313,-8.10E-11,8.12E-11,-0.000240733,0.000240733,-1.06E-13,2.89E-13,-0.000246516,0.000246516,-0.000246516,0.000246516,-0.000246516,0.000246516,-0.000246516,0.000246516,-0.000233313,0.000233313,-0.000233313,0.000233313,0.783063574,0.849632551,1368840,32768,0.001002548,0.001002548,0.001002548,25.63900305,25.62745466,0.000120312,0.000120312,0.000120312,930154.8783,0.003012188
15860559,0.167636015,0.002786947,0.000928982,0.000928982,0.000928982,-0.000251662,0.000251662,8.23E-11,-7.96E-11,-7.63E-13,3.51E-12,-0.000257633,0.000257633,-0.000257633,0.000257633,-0.000257633,0.000257633,-0.000257633,0.000257633,-0.000244094,0.000244094,-0.000244094,0.000244094,1.14E-12,-3.12E-12,-6.54E-13,-1.04E-12,-0.000251662,0.000251662,-0.000257633,0.000257633,-0.000257633,0.000257633,-0.000257633,0.000257633,-0.000257633,0.000257633,-0.000244094,0.000244094,-0.000244094,0.000244094,-0.000244094,0.000244094,-0.000244094,0.000244094,-8.09E-11,8.11E-11,-0.000251662,0.000251662,-8.85E-14,2.95E-13,-0.000257633,0.000257633,-0.000257633,0.000257633,-0.000257633,0.000257633,-0.000257633,0.000257633,-0.000244094,0.000244094,-0.000244094,0.000244094,0.784394501,0.833287839,1368840,32768,0.001048037,0.001048037,0.001048037,25.46644212,25.4550284,0.000118932,0.000118932,0.000118932,874636.0067,0.003149076
15946959,0.175771579,0.002925781,0.00097526,0.00097526,0.00097526,-0.000262432,0.000262432,8.23E-11,-7.95E-11,-7.53E-13,3.52E-12,-0.00026864,0.000268641,-0.000268641,0.00026864,-0.00026864,0.000268641,-0.000268641,0.00026864,-0.000254669,0.000254669,-0.000254669,0.000254669,1.12E-12,-3.14E-12,-6.63E-13,-1.06E-12,-0.000262432,0.000262432,-0.00026864,0.00026864,-0.00026864,0.00026864,-0.00026864,0.00026864,-0.00026864,0.00026864,-0.000254669,0.000254669,-0.000254669,0.000254669,-0.000254669,0.000254669,-0.000254669,0.000254669,-8.08E-11,8.10E-11,-0.000262432,0.000262432,-1.01E-13,2.98E-13,-0.000268641,0.00026864,-0.000268641,0.00026864,-0.00026864,0.000268641,-0.00026864,0.000268641,-0.000254669,0.000254669,-0.000254669,0.000254669,0.785053206,0.816943127,1368840,32768,0.001092865,0.001092865,0.001092865,25.29399694,25.28260213,0.000117552,0.000117552,0.000117552,854484.4328,0.003283993
16033359,0.183869927,0.003064047,0.001021349,0.001021349,0.001021349,-0.000273158,0.000273158,8.22E-11,-7.95E-11,-7.11E-13,3.47E-12,-0.000279602,0.000279602,-0.000279602,0.000279602,-0.000279602,0.000279602,-0.000279602,0.000279602,-0.0002652,0.0002652,-0.0002652,0.0002652,1.14E-12,-3.03E-12,-5.80E-13,-9.90E-13,-0.000273158,0.000273158,-0.000279602,0.000279602,-0.000279602,0.000279602,-0.000279602,0.000279602,-0.000279602,0.000279602,-0.0002652,0.0002652,-0.0002652,0.0002652,-0.0002652,0.0002652,-0.0002652,0.0002652,-8.08E-11,8.10E-11,-0.000273158,0.000273158,-7.84E-14,3.30E-13,-0.000279602,0.000279602,-0.000279602,0.000279602,-0.000279602,0.000279602,-0.000279602,0.000279602,-0.0002652,0.0002652,-0.0002652,0.0002652,0.785179144,0.800598415,1368840,32768,0.001137507,0.001137507,0.001137507,25.12156338,25.11017586,0.000116173,0.000116173,0.000116173,837516.6491,0.003418367
16119759,0.191928336,0.003201616,0.001067205,0.001067205,0.001067205,-0.000283829,0.000283829,8.21E-11,-7.94E-11,-6.75E-13,3.45E-12,-0.000290508,0.000290508,-0.000290508,0.000290508,-0.000290508,0.000290508,-0.000290508,0.000290508,-0.000275673,0.000275673,-0.000275673,0.000275673,1.04E-12,-3.08E-12,-6.81E-13,-1.06E-12,-0.000283829,0.000283829,-0.000290508,0.000290508,-0.000290508,0.000290508,-0.000290508,0.000290508,-0.000290508,0.000290508,-0.000275673,0.000275673,-0.000275673,0.000275673,-0.000275673,0.000275673,-0.000275673,0.000275673,-8.07E-11,8.09E-11,-0.000283829,0.000283829,-8.04E-14,3.00E-13,-0.000290508,0.000290508,-0.000290508,0.000290508,-0.000290508,0.000290508,-0.000290508,0.000290508,-0.000275673,0.000275673,-0.000275673,0.000275673,0.784880752,0.784253702,1368840,32768,0.001181917,0.001181917,0.001181917,24.94913108,24.93774959,0.000114793,0.000114793,0.000114793,823836.0846,0.003552061
16206159,0.199944196,0.003338379,0.001112793,0.001112793,0.001112793,-0.000294435,0.000294435,8.21E-11,-7.94E-11,-6.47E-13,3.44E-12,-0.000301348,0.000301348,-0.000301348,0.000301348,-0.000301348,0.000301348,-0.000301348,0.000301348,-0.00028608,0.00028608,-0.00028608,0.00028608,1.04E-12,-3.04E-12,-6.70E-13,-1.06E-12,-0.000294435,0.000294435,-0.000301348,0.000301348,-0.000301348,0.000301348,-0.000301348,0.000301348,-0.000301348,0.000301348,-0.00028608,0.00028608,-0.00028608,0.00028608,-0.00028608,0.00028608,-0.00028608,0.00028608,-8.07E-11,8.09E-11,-0.000294435,0.000294435,-8.10E-14,3.05E-13,-0.000301348,0.000301348,-0.000301348,0.000301348,-0.000301348,0.000301348,-0.000301348,0.000301348,-0.00028608,0.00028608,-0.00028608,0.00028608,0.784245826,0.76790899,1368840,32768,0.001226057,0.001226057,0.001226057,24.77669898,24.76532332,0.000113414,0.000113414,0.000113414,812834.5884,0.003684962
16292559,0.207914999,0.003474241,0.00115808,0.00115808,0.00115808,-0.00030497,0.00030497,8.21E-11,-7.93E-11,-6.15E-13,3.42E-12,-0.000312117,0.000312117,-0.000312117,0.000312117,-0.000312117,0.000312117,-0.000312117,0.000312117,-0.000296409,0.000296409,-0.000296409,0.000296409,1.01E-12,-3.01E-12,-6.59E-13,-1.06E-12,-0.00030497,0.00030497,-0.000312117,0.000312117,-0.000312117,0.000312117,-0.000312117,0.000312117,-0.000312117,0.000312117,-0.000296409,0.000296409,-0.000296409,0.000296409,-0.000296409,0.000296409,-0.000296409,0.000296409,-8.06E-11,8.08E-11,-0.00030497,0.00030497,-8.11E-14,3.17E-13,-0.000312117,0.000312117,-0.000312117,0.000312117,-0.000312117,0.000312117,-0.000312117,0.000312117,-0.000296409,0.000296409,-0.000296409,0.000296409,0.783346227,0.751564278,1368840,32768,0.001269895,0.001269895,0.001269895,24.60426693,24.59289706,0.000112034,0.000112034,0.000112034,804825.9726,0.003816969
16378959,0.215859346,0.003606796,0.001202265,0.001202265,0.001202265,-0.000315299,0.000315299,8.20E-11,-7.93E-11,-5.79E-13,3.39E-12,-0.000322756,0.000322756,-0.000322756,0.000322756,-0.000322756,0.000322756,-0.000322756,0.000322756,-0.000306397,0.000306397,-0.000306397,0.000306397,9.95E-13,-2.96E-12,-6.47E-13,-1.04E-12,-0.000315299,0.000315299,-0.000322756,0.000322756,-0.000322756,0.000322756,-0.000322756,0.000322756,-0.000322756,0.000322756,-0.000306397,0.000306397,-0.000306397,0.000306397,-0.000306397,0.000306397,-0.000306397,0.000306397,-8.06E-11,8.08E-11,-0.000315299,0.000315299,-7.87E-14,3.14E-13,-0.000322756,0.000322756,-0.000322756,0.000322756,-0.000322756,0.000322756,-0.000322756,0.000322756,-0.000306397,0.000306397,-0.000306397,0.000306397,0.766968234,0.515567609,1368840,32768,0.001312876,0.001312876,0.001312876,24.46337034,24.45401141,0.000110907,0.000110907,0.000110907,828837.7651,0.003946416
16465359,0.223792726,0.003740084,0.001246695,0.001246695,0.001246695,-0.000325456,0.000325456,8.19E-11,-7.92E-11,-5.31E-13,3.34E-12,-0.000333359,0.000333359,-0.000333359,0.000333359,-0.000333359,0.000333359,-0.000333359,0.000333359,-0.000316115,0.000316115,-0.000316115,0.000316115,9.70E-13,-2.88E-12,-6.34E-13,-1.01E-12,-0.000325456,0.000325456,-0.000333359,0.000333359,-0.000333359,0.000333359,-0.000333359,0.000333359,-0.000333359,0.000333359,-0.000316115,0.000316115,-0.000316115,0.000316115,-0.000316115,0.000316115,-0.000316115,0.000316115,-8.05E-11,8.07E-11,-0.000325456,0.000325456,-7.17E-14,3.02E-13,-0.000333359,0.000333359,-0.000333359,0.000333359,-0.000333359,0.000333359,-0.000333359,0.000333359,-0.000316115,0.000316115,-0.000316115,0.000316115,0.772473111,0.622158343,1368840,32768,0.001355143,0.001355143,0.001355143,24.35262124,24.34525209,0.000110021,0.000110021,0.000110021,913457.6888,0.004073727
16551759,0.231711127,0.003875362,0.001291787,0.001291787,0.001291787,-0.000336231,0.000336231,8.19E-11,-7.91E-11,-5.12E-13,3.33E-12,-0.000344286,0.000344286,-0.000344286,0.000344286,-0.000344286,0.000344286,-0.000344286,0.000344286,-0.000326793,0.000326793,-0.000326793,0.000326793,9.52E-13,-2.88E-12,-6.18E-13,-1.02E-12,-0.000336231,0.000336231,-0.000344286,0.000344286,-0.000344286,0.000344286,-0.000344286,0.000344286,-0.000344286,0.000344286,-0.000326793,0.000326793,-0.000326793,0.000326793,-0.000326793,0.000326793,-0.000326793,0.000326793,-8.04E-11,8.07E-11,-0.000336231,0.000336231,-9.31E-14,3.10E-13,-0.000344286,0.000344286,-0.000344286,0.000344286,-0.000344286,0.000344286,-0.000344286,0.000344286,-0.000326793,0.000326793,-0.000326793,0.000326793,0.786098071,0.879502258,1368840,32768,0.001399977,0.001399977,0.001399977,24.24367377,24.23649278,0.000109149,0.000109149,0.000109149,854057.2228,0.004208785
16638159,0.239619942,0.004011616,0.001337205,0.001337205,0.001337205,-0.000347218,0.000347218,8.18E-11,-7.91E-11,-4.90E-13,3.29E-12,-0.000355307,0.000355307,-0.000355307,0.000355307,-0.000355307,0.000355307,-0.000355307,0.000355307,-0.000337813,0.000337813,-0.000337813,0.000337813,9.30E-13,-2.83E-12,-6.35E-13,-1.00E-12,-0.000347218,0.000347218,-0.000355307,0.000355307,-0.000355307,0.000355307,-0.000355307,0.000355307,-0.000355307,0.000355307,-0.000337813,0.000337813,-0.000337813,0.000337813,-0.000337813,0.000337813,-0.000337813,0.000337813,-8.04E-11,8.06E-11,-0.000347218,0.000347218,-6.93E-14,2.96E-13,-0.000355307,0.000355307,-0.000355307,0.000355307,-0.000355307,0.000355307,-0.000355307,0.000355307,-0.000337813,0.000337813,-0.000337813,0.000337813,0.791916157,0.936051373,1368840,32768,0.001445689,0.001445689,0.001445689,24.13489172,24.12773347,0.000108279,0.000108279,0.000108279,754603.2745,0.004346509
16724559,0.247518394,0.004148305,0.001382768,0.001382768,0.001382768,-0.00035801,0.00035801,8.18E-11,-7.91E-11,-4.73E-13,3.24E-12,-0.000366226,0.000366226,-0.000366226,0.000366226,-0.000366226,0.000366226,-0.000366226,0.000366226,-0.000348548,0.000348548,-0.000348548,0.000348548,8.80E-13,-2.82E-12,-6.42E-13,-1.04E-12,-0.00035801,0.00035801,-0.000366226,0.000366226,-0.000366226,0.000366226,-0.000366226,0.000366226,-0.000366226,0.000366226,-0.000348548,0.000348548,-0.000348548,0.000348548,-0.000348548,0.000348548,-0.000348548,0.000348548,-8.04E-11,8.06E-11,-0.00035801,0.00035801,-7.52E-14,3.19E-13,-0.000366226,0.000366226,-0.000366226,0.000366226,-0.000366226,0.000366226,-0.000366226,0.000366226,-0.000348548,0.000348548,-0.000348548,0.000348548,0.794318726,0.92159879,1368840,32768,0.001490591,0.001490591,0.001490591,24.02612747,24.01897415,0.000107409,0.000107409,0.000107409,711278.1434,0.004481808
16810959,0.255401066,0.004285092,0.001428364,0.001428364,0.001428364,-0.000368748,0.000368748,8.18E-11,-7.91E-11,-4.56E-13,3.23E-12,-0.00037711,0.00037711,-0.00037711,0.00037711,-0.00037711,0.00037711,-0.00037711,0.00037711,-0.000359207,0.000359207,-0.000359207,0.000359207,8.60E-13,-2.82E-12,-6.36E-13,-1.05E-12,-0.000368748,0.000368748,-0.00037711,0.00037711,-0.00037711,0.00037711,-0.00037711,0.00037711,-0.00037711,0.00037711,-0.000359207,0.000359207,-0.000359207,0.000359207,-0.000359207,0.000359207,-0.000359207,0.000359207,-8.03E-11,8.06E-11,-0.000368748,0.000368748,-8.18E-14,3.29E-13,-0.00037711,0.00037711,-0.00037711,0.00037711,-0.00037711,0.00037711,-0.00037711,0.00037711,-0.000359207,0.000359207,-0.000359207,0.000359207,0.795949216,0.906422698,1368840,32768,0.001535265,0.001535265,0.001535265,23.91736517,23.91021484,0.000106539,0.000106539,0.000106539,684044.2888,0.004616439
16897359,0.263264656,0.004421783,0.001473928,0.001473928,0.001473928,-0.000379478,0.000379478,8.18E-11,-7.91E-11,-4.55E-13,3.22E-12,-0.000387972,0.000387972,-0.000387972,0.000387972,-0.000387972,0.000387972,-0.000387972,0.000387972,-0.000369866,0.000369866,-0.000369866,0.000369866,8.24E-13,-2.83E-12,-6.55E-13,-1.07E-12,-0.000379478,0.000379478,-0.000387972,0.000387972,-0.000387972,0.000387972,-0.000387972,0.000387972,-0.000387972,0.000387972,-0.000369866,0.000369866,-0.000369866,0.000369866,-0.000369866,0.000369866,-0.000369866,0.000369866,-8.03E-11,8.06E-11,-0.000379478,0.000379478,-7.18E-14,3.45E-13,-0.000387972,0.000387972,-0.000387972,0.000387972,-0.000387972,0.000387972,-0.000387972,0.000387972,-0.000369866,0.000369866,-0.000369866,0.000369866,0.796980333,0.891246606,1368840,32768,0.001579905,0.001579905,0.001579905,23.80860325,23.80145552,0.000105669,0.000105669,0.000105669,657830.5209,0.004750988
16983759,0.271106618,0.004557946,0.001519315,0.001519315,0.001519315,-0.000390168,0.000390168,8.18E-11,-7.90E-11,-4.27E-13,3.24E-12,-0.0003988,0.0003988,-0.0003988,0.0003988,-0.0003988,0.0003988,-0.0003988,0.0003988,-0.000380467,0.000380467,-0.000380467,0.000380467,8.21E-13,-2.83E-12,-6.71E-13,-1.07E-12,-0.000390168,0.000390168,-0.0003988,0.0003988,-0.0003988,0.0003988,-0.0003988,0.0003988,-0.0003988,0.0003988,-0.000380467,0.000380467,-0.000380467,0.000380467,-0.000380467,0.000380467,-0.000380467,0.000380467,-8.03E-11,8.06E-11,-0.000390168,0.000390168,-7.26E-14,3.28E-13,-0.0003988,0.0003988,-0.0003988,0.0003988,-0.0003988,0.0003988,-0.0003988,0.0003988,-0.000380467,0.000380467,-0.000380467,0.000380467,0.795800124,0.850751198,1368840,32768,0.001624373,0.001624373,0.001624373,23.69984233,23.69269621,0.000104799,0.000104799,0.000104799,636589.2624,0.004885033
17070159,0.278924325,0.004693235,0.001564412,0.001564412,0.001564412,-0.000400767,0.000400767,8.18E-11,-7.90E-11,-4.16E-13,3.22E-12,-0.000409558,0.000409558,-0.000409558,0.000409558,-0.000409558,0.000409558,-0.000409558,0.000409558,-0.000390943,0.000390944,-0.000390944,0.000390943,8.21E-13,-2.80E-12,-6.49E-13,-1.05E-12,-0.000400767,0.000400767,-0.000409558,0.000409558,-0.000409558,0.000409558,-0.000409558,0.000409558,-0.000409558,0.000409558,-0.000390943,0.000390943,-0.000390943,0.000390943,-0.000390943,0.000390943,-0.000390943,0.000390943,-8.03E-11,8.06E-11,-0.000400767,0.000400767,-5.19E-14,3.46E-13,-0.000409558,0.000409558,-0.000409558,0.000409558,-0.000409558,0.000409558,-0.000409558,0.000409558,-0.000390943,0.000390944,-0.000390944,0.000390943,0.792951511,0.798752569,1368840,32768,0.001668466,0.001668466,0.001668466,23.591082,23.58393689,0.000103929,0.000103929,0.000103929,626515.6806,0.005017967
17156559,0.286610605,0.004825811,0.001608604,0.001608604,0.001608604,-0.000410813,0.000410813,8.18E-11,-7.90E-11,-3.79E-13,3.19E-12,-0.000419788,0.000419788,-0.000419788,0.000419788,-0.000419788,0.000419788,-0.000419788,0.000419788,-0.000400833,0.000400833,-0.000400833,0.000400833,8.06E-13,-2.75E-12,-6.39E-13,-1.04E-12,-0.000410813,0.000410813,-0.000419788,0.000419788,-0.000419788,0.000419788,-0.000419788,0.000419788,-0.000419788,0.000419788,-0.000400833,0.000400833,-0.000400833,0.000400833,-0.000400833,0.000400833,-0.000400833,0.000400833,-8.03E-11,8.05E-11,-0.000410813,0.000410813,-7.21E-14,3.24E-13,-0.000419788,0.000419788,-0.000419788,0.000419788,-0.000419788,0.000419788,-0.000419788,0.000419788,-0.000400833,0.000400833,-0.000400833,0.000400833,0.790262669,0.76018439,1368840,32768,0.001710253,0.001710253,0.001710253,23.31301013,23.29512771,0.000101704,0.000101704,0.000101704,625973.1987,0.005143964
17242959,0.294076356,0.004953882,0.001651294,0.001651294,0.001651294,-0.00042022,0.00042022,8.17E-11,-7.90E-11,-3.91E-13,3.18E-12,-0.000429386,0.000429386,-0.000429386,0.000429386,-0.000429386,0.000429386,-0.000429386,0.000429386,-0.00041006,0.00041006,-0.00041006,0.00041006,8.64E-13,-2.69E-12,-5.91E-13,-1.01E-12,-0.00042022,0.00042022,-0.000429386,0.000429386,-0.000429386,0.000429386,-0.000429386,0.000429386,-0.000429386,0.000429386,-0.00041006,0.00041006,-0.00041006,0.00041006,-0.00041006,0.00041006,-0.00041006,0.00041006,-8.03E-11,8.05E-11,-0.00042022,0.00042022,-6.73E-14,3.56E-13,-0.000429386,0.000429386,-0.000429386,0.000429386,-0.000429386,0.000429386,-0.000429386,0.000429386,-0.00041006,0.00041006,-0.00041006,0.00041006,0.786002661,0.70392071,1368840,32768,0.00174938,0.00174938,0.00174938,22.88574853,22.85807856,9.83E-05,9.83E-05,9.83E-05,629721.6515,0.005261959
17329359,0.301320869,0.005077399,0.001692466,0.001692466,0.001692466,-0.000429225,0.000429225,8.16E-11,-7.91E-11,-4.62E-13,3.12E-12,-0.000438602,0.000438602,-0.000438602,0.000438602,-0.000438602,0.000438602,-0.000438602,0.000438602,-0.000418849,0.000418849,-0.000418849,0.000418849,7.28E-13,-2.83E-12,-7.24E-13,-1.11E-12,-0.000429225,0.000429225,-0.000438602,0.000438602,-0.000438602,0.000438602,-0.000438602,0.000438602,-0.000438602,0.000438602,-0.000418849,0.000418849,-0.000418849,0.000418849,-0.000418849,0.000418849,-0.000418849,0.000418849,-8.01E-11,8.06E-11,-0.000429225,0.000429225,6.76E-14,4.48E-13,-0.000438602,0.000438602,-0.000438602,0.000438602,-0.000438602,0.000438602,-0.000438602,0.000438602,-0.000418849,0.000418849,-0.000418849,0.000418849,0.781316744,0.646525273,1368840,32768,0.001786834,0.001786834,0.001786834,22.44955852,22.42102942,9.48E-05,9.48E-05,9.48E-05,644169.7617,0.005374918
17415759,0.308348311,0.00519642,0.00173214,0.00173214,0.00173214,-0.000437859,0.000437859,8.18E-11,-7.90E-11,-3.78E-13,3.27E-12,-0.000447476,0.000447476,-0.000447476,0.000447476,-0.000447476,0.000447476,-0.000447476,0.000447476,-0.000427229,0.000427229,-0.000427229,0.000427229,8.22E-13,-2.81E-12,-6.56E-13,-9.92E-13,-0.000437859,0.000437859,-0.000447476,0.000447476,-0.000447476,0.000447476,-0.000447476,0.000447476,-0.000447476,0.000447476,-0.000427229,0.000427229,-0.000427229,0.000427229,-0.000427229,0.000427229,-0.000427229,0.000427229,-8.03E-11,8.05E-11,-0.000437859,0.000437859,-2.45E-14,3.13E-13,-0.000447476,0.000447476,-0.000447476,0.000447476,-0.000447476,0.000447476,-0.000447476,0.000447476,-0.000427229,0.000427229,-0.000427229,0.000427229,0.776394268,0.589129835,1368840,32768,0.001822746,0.001822746,0.001822746,22.01255886,21.98398027,9.13E-05,9.13E-05,9.13E-05,667882.009,0.00548324
17502159,0.315163505,0.005312269,0.001770756,0.001770756,0.001770756,-0.000446235,0.000446235,8.18E-11,-7.90E-11,-4.50E-13,3.23E-12,-0.000456072,0.000456072,-0.000456072,0.000456072,-0.000456072,0.000456072,-0.000456072,0.000456072,-0.000435381,0.000435382,-0.000435382,0.000435381,8.42E-13,-2.83E-12,-6.53E-13,-1.00E-12,-0.000446235,0.000446235,-0.000456072,0.000456072,-0.000456072,0.000456072,-0.000456072,0.000456072,-0.000456072,0.000456072,-0.000435381,0.000435381,-0.000435381,0.000435381,-0.000435381,0.000435381,-0.000435381,0.000435381,-8.05E-11,8.04E-11,-0.000446235,0.000446235,-1.12E-13,2.38E-13,-0.000456072,0.000456072,-0.000456072,0.000456072,-0.000456072,0.000456072,-0.000456072,0.000456072,-0.000435381,0.000435382,-0.000435382,0.000435381,0.779503518,0.656370264,1368840,32768,0.001857581,0.001857581,0.001857581,21.57547757,21.54693113,8.78E-05,8.78E-05,8.78E-05,686879.0752,0.005588323
17588559,0.32177195,0.005422848,0.001807616,0.001807616,0.001807616,-0.000454322,0.000454322,8.18E-11,-7.90E-11,-3.95E-13,3.25E-12,-0.000464367,0.000464367,-0.000464367,0.000464367,-0.000464367,0.000464367,-0.000464367,0.000464367,-0.000443227,0.000443228,-0.000443228,0.000443227,8.52E-13,-2.77E-12,-6.35E-13,-9.91E-13,-0.000454322,0.000454322,-0.000464367,0.000464367,-0.000464367,0.000464367,-0.000464367,0.000464367,-0.000464367,0.000464367,-0.000443227,0.000443227,-0.000443227,0.000443227,-0.000443227,0.000443227,-0.000443227,0.000443227,-8.03E-11,8.05E-11,-0.000454322,0.000454322,-4.68E-14,3.10E-13,-0.000464367,0.000464367,-0.000464367,0.000464367,-0.000464367,0.000464367,-0.000464367,0.000464367,-0.000443227,0.000443228,-0.000443228,0.000443227,0.767668479,0.494484952,1368840,32768,0.001891214,0.001891214,0.001891214,21.13839236,21.10988198,8.43E-05,8.43E-05,8.43E-05,691424.5439,0.005689794
17674959,0.328179199,0.005529524,0.001843175,0.001843175,0.001843175,-0.000461817,0.000461817,8.18E-11,-7.90E-11,-4.08E-13,3.14E-12,-0.000472217,0.000472217,-0.000472217,0.000472217,-0.000472217,0.000472217,-0.000472217,0.000472217,-0.000450327,0.000450328,-0.000450328,0.000450327,8.88E-13,-2.64E-12,-5.76E-13,-9.31E-13,-0.000461817,0.000461817,-0.000472217,0.000472217,-0.000472217,0.000472217,-0.000472217,0.000472217,-0.000472217,0.000472217,-0.000450328,0.000450328,-0.000450328,0.000450328,-0.000450328,0.000450328,-0.000450328,0.000450328,-8.03E-11,8.05E-11,-0.000461817,0.000461817,-2.48E-14,3.32E-13,-0.000472217,0.000472217,-0.000472217,0.000472217,-0.000472217,0.000472217,-0.000472217,0.000472217,-0.000450327,0.000450328,-0.000450328,0.000450327,0.763962843,0.458843742,1368840,32768,0.00192238,0.00192238,0.00192238,20.70130397,20.67283283,8.08E-05,8.08E-05,8.08E-05,763481.5684,0.005783828
17761359,0.334393468,0.005632377,0.001877459,0.001877459,0.001877459,-0.000469164,0.000469164,8.18E-11,-7.90E-11,-3.48E-13,3.15E-12,-0.000479864,0.000479864,-0.000479864,0.000479864,-0.000479864,0.000479864,-0.000479864,0.000479864,-0.000457331,0.000457331,-0.000457331,0.000457331,8.04E-13,-2.67E-12,-5.59E-13,-9.64E-13,-0.000469164,0.000469164,-0.000479864,0.000479864,-0.000479864,0.000479864,-0.000479864,0.000479864,-0.000479864,0.000479864,-0.000457331,0.000457331,-0.000457331,0.000457331,-0.000457331,0.000457331,-0.000457331,0.000457331,-8.03E-11,8.05E-11,-0.000469164,0.000469164,-6.91E-14,3.37E-13,-0.000479864,0.000479864,-0.000479864,0.000479864,-0.000479864,0.000479864,-0.000479864,0.000479864,-0.000457331,0.000457331,-0.000457331,0.000457331,0.760298636,0.423202532,1368840,32768,0.001952937,0.001952937,0.001952937,20.27433006,20.2465338,7.74E-05,7.74E-05,7.74E-05,805021.6961,0.005876034
17847759,0.340420003,0.005731574,0.001910525,0.001910525,0.001910525,-0.000476208,0.000476208,8.18E-11,-7.91E-11,-3.16E-13,3.11E-12,-0.000487218,0.000487218,-0.000487218,0.000487218,-0.000487218,0.000487218,-0.000487218,0.000487218,-0.000464012,0.000464012,-0.000464012,0.000464012,8.01E-13,-2.61E-12,-5.38E-13,-9.88E-13,-0.000476208,0.000476208,-0.000487218,0.000487218,-0.000487218,0.000487218,-0.000487218,0.000487218,-0.000487218,0.000487218,-0.000464012,0.000464012,-0.000464012,0.000464012,-0.000464012,0.000464012,-0.000464012,0.000464012,-8.03E-11,8.06E-11,-0.000476208,0.000476208,-7.44E-14,3.77E-13,-0.000487218,0.000487218,-0.000487218,0.000487218,-0.000487218,0.000487218,-0.000487218,0.000487218,-0.000464012,0.000464012,-0.000464012,0.000464012,0.756672422,0.387561322,1368840,32768,0.001982228,0.001982228,0.001982228,19.84610097,19.82708987,7.40E-05,7.40E-05,7.40E-05,849913.9859,0.005964431
17934159,0.346267446,0.005827373,0.001942458,0.001942458,0.001942458,-0.000482987,0.000482987,8.18E-11,-7.90E-11,-3.14E-13,3.12E-12,-0.000494323,0.000494323,-0.000494323,0.000494323,-0.000494323,0.000494323,-0.000494323,0.000494323,-0.000470409,0.000470409,-0.000470409,0.000470409,8.10E-13,-2.61E-12,-5.34E-13,-9.76E-13,-0.000482987,0.000482987,-0.000494323,0.000494323,-0.000494323,0.000494323,-0.000494323,0.000494323,-0.000494323,0.000494323,-0.000470409,0.000470409,-0.000470409,0.000470409,-0.000470409,0.000470409,-0.000470409,0.000470409,-8.03E-11,8.05E-11,-0.000482987,0.000482987,-6.93E-14,3.74E-13,-0.000494323,0.000494323,-0.000494323,0.000494323,-0.000494323,0.000494323,-0.000494323,0.000494323,-0.000470409,0.000470409,-0.000470409,0.000470409,0.753701664,0.360900392,1368840,32768,0.002010415,0.002010415,0.002010415,19.4261057,19.40764595,7.06E-05,7.06E-05,7.06E-05,898069.0694,0.006049501
18020559,0.351940652,0.005920562,0.001973521,0.001973521,0.001973521,-0.000489572,0.000489572,8.18E-11,-7.90E-11,-2.94E-13,3.15E-12,-0.000501213,0.000501213,-0.000501213,0.000501213,-0.000501213,0.000501213,-0.000501213,0.000501213,-0.000476645,0.000476645,-0.000476645,0.000476645,7.45E-13,-2.68E-12,-5.95E-13,-1.06E-12,-0.000489572,0.000489572,-0.000501213,0.000501213,-0.000501213,0.000501213,-0.000501213,0.000501213,-0.000501213,0.000501213,-0.000476645,0.000476645,-0.000476645,0.000476645,-0.000476645,0.000476645,-0.000476645,0.000476645,-8.03E-11,8.05E-11,-0.000489572,0.000489572,-1.34E-13,3.31E-13,-0.000501213,0.000501213,-0.000501213,0.000501213,-0.000501213,0.000501213,-0.000501213,0.000501213,-0.000476645,0.000476645,-0.000476645,0.000476645,0.756198414,0.414127671,1368840,32768,0.002037796,0.002037796,0.002037796,19.00662511,18.98820203,6.73E-05,6.73E-05,6.73E-05,936738.0588,0.006132146
18106959,0.357444541,0.006011175,0.002003725,0.002003725,0.002003725,-0.000496105,0.000496105,8.17E-11,-7.91E-11,-2.98E-13,3.08E-12,-0.000507968,0.000507968,-0.000507968,0.000507968,-0.000507968,0.000507968,-0.000507968,0.000507968,-0.00048292,0.00048292,-0.00048292,0.00048292,7.02E-13,-2.66E-12,-5.79E-13,-1.04E-12,-0.000496105,0.000496105,-0.000507968,0.000507968,-0.000507968,0.000507968,-0.000507968,0.000507968,-0.000507968,0.000507968,-0.00048292,0.00048292,-0.00048292,0.00048292,-0.00048292,0.00048292,-0.00048292,0.00048292,-8.03E-11,8.05E-11,-0.000496105,0.000496105,-1.04E-13,3.55E-13,-0.000507968,0.000507968,-0.000507968,0.000507968,-0.000507968,0.000507968,-0.000507968,0.000507968,-0.00048292,0.00048292,-0.00048292,0.00048292,0.758318935,0.459159125,1368840,32768,0.002064961,0.002064961,0.002064961,18.58717885,18.56875811,6.39E-05,6.39E-05,6.39E-05,938045.8281,0.006214146
18193359,0.362784565,0.006099128,0.002033043,0.002033043,0.002033043,-0.000502414,0.000502414,8.18E-11,-7.90E-11,-2.81E-13,3.07E-12,-0.000514493,0.000514493,-0.000514493,0.000514493,-0.000514493,0.000514493,-0.000514493,0.000514493,-0.000488981,0.000488981,-0.000488981,0.000488981,6.92E-13,-2.64E-12,-6.00E-13,-1.07E-12,-0.000502414,0.000502414,-0.000514493,0.000514493,-0.000514493,0.000514493,-0.000514493,0.000514493,-0.000514493,0.000514493,-0.000488981,0.000488981,-0.000488981,0.000488981,-0.000488981,0.000488981,-0.000488981,0.000488981,-8.03E-11,8.06E-11,-0.000502414,0.000502414,-8.90E-14,3.83E-13,-0.000514493,0.000514493,-0.000514493,0.000514493,-0.000514493,0.000514493,-0.000514493,0.000514493,-0.000488981,0.000488981,-0.000488981,0.000488981,0.758639527,0.474492984,1368840,32768,0.002091194,0.002091194,0.002091194,18.16773481,18.14931418,6.05E-05,6.05E-05,6.05E-05,939755.4936,0.006293338
18279759,0.367965137,0.006184472,0.002061491,0.002061491,0.002061491,-0.000508463,0.000508463,8.18E-11,-7.91E-11,-3.02E-13,3.04E-12,-0.000520775,0.000520775,-0.000520775,0.000520775,-0.000520775,0.000520775,-0.000520775,0.000520775,-0.000494768,0.000494768,-0.000494768,0.000494768,6.95E-13,-2.63E-12,-5.48E-13,-1.07E-12,-0.000508463,0.000508463,-0.000520775,0.000520775,-0.000520775,0.000520775,-0.000520775,0.000520775,-0.000520775,0.000520775,-0.000494768,0.000494768,-0.000494768,0.000494768,-0.000494768,0.000494768,-0.000494768,0.000494768,-8.03E-11,8.06E-11,-0.000508463,0.000508463,-1.03E-13,4.23E-13,-0.000520775,0.000520775,-0.000520775,0.000520775,-0.000520775,0.000520775,-0.000520775,0.000520775,-0.000494768,0.000494768,-0.000494768,0.000494768,0.758806502,0.486473386,1368840,32768,0.002116343,0.002116343,0.002116343,17.74829089,17.72987026,5.72E-05,5.72E-05,5.72E-05,950722.6773,0.006369265
18366159,0.373071101,0.006268598,0.002089533,0.002089533,0.002089533,-0.000514803,0.000514803,8.18E-11,-7.91E-11,-2.76E-13,3.04E-12,-0.000527343,0.000527343,-0.000527343,0.000527343,-0.000527343,0.000527343,-0.000527343,0.000527343,-0.000500854,0.000500854,-0.000500854,0.000500854,6.88E-13,-2.61E-12,-5.76E-13,-1.05E-12,-0.000514803,0.000514803,-0.000527343,0.000527343,-0.000527343,0.000527343,-0.000527343,0.000527343,-0.000527343,0.000527343,-0.000500854,0.000500854,-0.000500854,0.000500854,-0.000500854,0.000500854,-0.000500854,0.000500854,-8.03E-11,8.06E-11,-0.000514803,0.000514803,-8.09E-14,3.99E-13,-0.000527343,0.000527343,-0.000527343,0.000527343,-0.000527343,0.000527343,-0.000527343,0.000527343,-0.000500854,0.000500854,-0.000500854,0.000500854,0.759019193,0.498453787,1368840,32768,0.002142706,0.002142706,0.002142706,17.53348465,17.52384603,5.55E-05,5.55E-05,5.55E-05,960637.8201,0.006448863
18452559,0.378145258,0.006352216,0.002117405,0.002117405,0.002117405,-0.000521312,0.000521312,8.18E-11,-7.91E-11,-2.72E-13,3.03E-12,-0.000534079,0.000534079,-0.000534079,0.000534079,-0.000534079,0.000534079,-0.000534079,0.000534079,-0.000507112,0.000507112,-0.000507112,0.000507112,6.85E-13,-2.60E-12,-5.78E-13,-1.05E-12,-0.000521312,0.000521312,-0.000534079,0.000534079,-0.000534079,0.000534079,-0.000534079,0.000534079,-0.000534079,0.000534079,-0.000507112,0.000507112,-0.000507112,0.000507112,-0.000507112,0.000507112,-0.000507112,0.000507112,-8.03E-11,8.06E-11,-0.000521312,0.000521312,-8.11E-14,3.97E-13,-0.000534079,0.000534079,-0.000534079,0.000534079,-0.000534079,0.000534079,-0.000534079,0.000534079,-0.000507112,0.000507112,-0.000507112,0.000507112,0.759271306,0.510434189,1368840,32768,0.002169769,0.002169769,0.002169769,17.42643323,17.42161668,5.46E-05,5.46E-05,5.46E-05,969112.7499,0.00653058
18538959,0.383188945,0.006435396,0.002145132,0.002145132,0.002145132,-0.000527797,0.000527797,8.18E-11,-7.91E-11,-2.65E-13,3.02E-12,-0.000540788,0.000540788,-0.000540788,0.000540788,-0.000540788,0.000540788,-0.000540788,0.000540788,-0.000513352,0.000513352,-0.000513352,0.000513352,6.81E-13,-2.58E-12,-5.69E-13,-1.06E-12,-0.000527797,0.000527797,-0.000540788,0.000540788,-0.000540788,0.000540788,-0.000540788,0.000540788,-0.000540788,0.000540788,-0.000513352,0.000513352,-0.000513352,0.000513352,-0.000513352,0.000513352,-0.000513352,0.000513352,-8.03E-11,8.06E-11,-0.000527797,0.000527797,-8.60E-14,4.02E-13,-0.000540788,0.000540788,-0.000540788,0.000540788,-0.000540788,0.000540788,-0.000540788,0.000540788,-0.000513352,0.000513352,-0.000513352,0.000513352,0.759911868,0.527956565,1368840,32768,0.002196729,0.002196729,0.002196729,17.32389894,17.31938733,5.38E-05,5.38E-05,5.38E-05,975866.4043,0.006611991
18625359,0.388201843,0.00651778,0.002172593,0.002172593,0.002172593,-0.000534229,0.000534229,8.18E-11,-7.91E-11,-2.65E-13,3.01E-12,-0.000547445,0.000547446,-0.000547446,0.000547445,-0.000547445,0.000547446,-0.000547446,0.000547445,-0.000519533,0.000519533,-0.000519533,0.000519533,6.86E-13,-2.57E-12,-5.55E-13,-1.05E-12,-0.000534229,0.000534229,-0.000547446,0.000547446,-0.000547446,0.000547446,-0.000547446,0.000547446,-0.000547446,0.000547446,-0.000519533,0.000519533,-0.000519533,0.000519533,-0.000519533,0.000519533,-0.000519533,0.000519533,-8.03E-11,8.06E-11,-0.000534229,0.000534229,-8.80E-14,4.09E-13,-0.000547446,0.000547445,-0.000547446,0.000547445,-0.000547445,0.000547446,-0.000547445,0.000547446,-0.000519533,0.000519533,-0.000519533,0.000519533,0.757364177,0.495186555,1368840,32768,0.002223468,0.002223468,0.002223468,17.2216491,17.21715797,5.30E-05,5.30E-05,5.30E-05,982426.1925,0.006692743
18711759,0.393183491,0.006600373,0.002200124,0.002200124,0.002200124,-0.000540584,0.000540584,8.17E-11,-7.91E-11,-2.52E-13,2.98E-12,-0.000554055,0.000554055,-0.000554055,0.000554055,-0.000554055,0.000554055,-0.000554055,0.000554055,-0.000525631,0.000525631,-0.000525631,0.000525631,6.67E-13,-2.55E-12,-5.50E-13,-1.05E-12,-0.000540584,0.000540584,-0.000554055,0.000554055,-0.000554055,0.000554055,-0.000554055,0.000554055,-0.000554055,0.000554055,-0.000525631,0.000525631,-0.000525631,0.000525631,-0.000525631,0.000525631,-0.000525631,0.000525631,-8.03E-11,8.06E-11,-0.000540584,0.000540584,-8.88E-14,4.08E-13,-0.000554055,0.000554055,-0.000554055,0.000554055,-0.000554055,0.000554055,-0.000554055,0.000554055,-0.000525631,0.000525631,-0.000525631,0.000525631,0.763978636,0.612184926,1368840,32768,0.00224989,0.00224989,0.00224989,17.11941832,17.11492862,5.22E-05,5.22E-05,5.22E-05,999849.7308,0.006772545
18798159,0.398133316,0.006682721,0.002227574,0.002227574,0.002227574,-0.000547208,0.000547208,8.17E-11,-7.91E-11,-2.46E-13,2.99E-12,-0.000560773,0.000560773,-0.000560773,0.000560773,-0.000560773,0.000560773,-0.000560773,0.000560773,-0.00053216,0.00053216,-0.00053216,0.00053216,6.78E-13,-2.54E-12,-5.51E-13,-1.04E-12,-0.000547208,0.000547208,-0.000560773,0.000560773,-0.000560773,0.000560773,-0.000560773,0.000560773,-0.000560773,0.000560773,-0.00053216,0.00053216,-0.00053216,0.00053216,-0.00053216,0.00053216,-0.00053216,0.00053216,-8.03E-11,8.06E-11,-0.000547208,0.000547208,-8.12E-14,4.10E-13,-0.000560773,0.000560773,-0.000560773,0.000560773,-0.000560773,0.000560773,-0.000560773,0.000560773,-0.00053216,0.00053216,-0.00053216,0.00053216,0.766710508,0.660044134,1368840,32768,0.002277428,0.002277428,0.002277428,17.01718882,17.01269927,5.13E-05,5.13E-05,5.13E-05,955670.3322,0.006855724
18884559,0.403051981,0.006764781,0.002254927,0.002254927,0.002254927,-0.000553675,0.000553675,8.17E-11,-7.91E-11,-2.44E-13,2.97E-12,-0.000567393,0.000567393,-0.000567393,0.000567393,-0.000567393,0.000567393,-0.000567393,0.000567393,-0.000538479,0.000538479,-0.000538479,0.000538479,6.70E-13,-2.53E-12,-5.56E-13,-1.04E-12,-0.000553675,0.000553675,-0.000567393,0.000567393,-0.000567393,0.000567393,-0.000567393,0.000567393,-0.000567393,0.000567393,-0.000538479,0.000538479,-0.000538479,0.000538479,-0.000538479,0.000538479,-0.000538479,0.000538479,-8.03E-11,8.06E-11,-0.000553675,0.000553675,-8.50E-14,3.99E-13,-0.000567393,0.000567393,-0.000567393,0.000567393,-0.000567393,0.000567393,-0.000567393,0.000567393,-0.000538479,0.000538479,-0.000538479,0.000538479,0.768332274,0.686558418,1368840,32768,0.002304312,0.002304312,0.002304312,16.91495941,16.91046992,5.05E-05,5.05E-05,5.05E-05,937111.4956,0.006936932
18970959,0.407938623,0.006846517,0.002282172,0.002282172,0.002282172,-0.000560078,0.000560078,8.17E-11,-7.91E-11,-2.43E-13,2.96E-12,-0.000573959,0.000573959,-0.000573959,0.000573959,-0.000573959,0.000573959,-0.000573959,0.000573959,-0.00054473,0.00054473,-0.00054473,0.00054473,6.65E-13,-2.52E-12,-5.48E-13,-1.02E-12,-0.000560078,0.000560078,-0.000573959,0.000573959,-0.000573959,0.000573959,-0.000573959,0.000573959,-0.000573959,0.000573959,-0.00054473,0.00054473,-0.00054473,0.00054473,-0.00054473,0.00054473,-0.00054473,0.00054473,-8.03E-11,8.06E-11,-0.000560078,0.000560078,-7.86E-14,3.95E-13,-0.000573959,0.000573959,-0.000573959,0.000573959,-0.000573959,0.000573959,-0.000573959,0.000573959,-0.00054473,0.00054473,-0.00054473,0.00054473,0.770053323,0.713072702,1368840,32768,0.002330928,0.002330928,0.002330928,16.81272998,16.80824057,4.97E-05,4.97E-05,4.97E-05,924176.8897,0.007017338
19057359,0.412792746,0.006928556,0.002309519,0.002309519,0.002309519,-0.000566505,0.000566505,8.17E-11,-7.91E-11,-2.39E-13,2.96E-12,-0.00058052,0.00058052,-0.00058052,0.00058052,-0.00058052,0.00058052,-0.00058052,0.00058052,-0.000551053,0.000551053,-0.000551053,0.000551053,6.85E-13,-2.50E-12,-5.27E-13,-1.00E-12,-0.000566505,0.000566505,-0.00058052,0.00058052,-0.00058052,0.00058052,-0.00058052,0.00058052,-0.00058052,0.00058052,-0.000551053,0.000551053,-0.000551053,0.000551053,-0.000551053,0.000551053,-0.000551053,0.000551053,-8.03E-11,8.06E-11,-0.000566505,0.000566505,-6.59E-14,4.13E-13,-0.00058052,0.00058052,-0.00058052,0.00058052,-0.00058052,0.00058052,-0.00058052,0.00058052,-0.000551053,0.000551053,-0.000551053,0.000551053,0.777779366,0.842915084,1368840,32768,0.002357643,0.002357643,0.002357643,16.71050003,16.70601122,4.89E-05,4.89E-05,4.89E-05,903111.3969,0.007098049
19143759,0.417694739,0.007012134,0.002337378,0.002337378,0.002337378,-0.000573628,0.000573628,8.17E-11,-7.91E-11,-2.44E-13,2.94E-12,-0.000587675,0.000587675,-0.000587675,0.000587675,-0.000587675,0.000587675,-0.000587675,0.000587675,-0.000558187,0.000558187,-0.000558187,0.000558187,6.64E-13,-2.50E-12,-5.58E-13,-1.00E-12,-0.000573628,0.000573628,-0.000587675,0.000587675,-0.000587675,0.000587675,-0.000587675,0.000587675,-0.000587675,0.000587675,-0.000558187,0.000558187,-0.000558187,0.000558187,-0.000558187,0.000558187,-0.000558187,0.000558187,-8.03E-11,8.05E-11,-0.000573628,0.000573628,-1.02E-13,3.46E-13,-0.000587675,0.000587675,-0.000587675,0.000587675,-0.000587675,0.000587675,-0.000587675,0.000587675,-0.000558187,0.000558187,-0.000558187,0.000558187,0.784272818,0.930759475,1368840,32768,0.002387254,0.002387254,0.002387254,16.82675889,16.83164406,4.98E-05,4.98E-05,4.98E-05,845934.8258,0.007187516
19230159,0.422684062,0.007097367,0.002365789,0.002365789,0.002365789,-0.000581009,0.000581009,8.18E-11,-7.91E-11,-2.28E-13,2.89E-12,-0.000595119,0.000595119,-0.000595119,0.000595119,-0.000595119,0.000595119,-0.000595119,0.000595119,-0.000565543,0.000565543,-0.000565543,0.000565543,6.41E-13,-2.46E-12,-5.75E-13,-9.65E-13,-0.000581009,0.000581009,-0.000595119,0.000595119,-0.000595119,0.000595119,-0.000595119,0.000595119,-0.000595119,0.000595119,-0.000565543,0.000565543,-0.000565543,0.000565543,-0.000565543,0.000565543,-0.000565543,0.000565543,-8.03E-11,8.06E-11,-0.000581009,0.000581009,-5.07E-14,3.41E-13,-0.000595119,0.000595119,-0.000595119,0.000595119,-0.000595119,0.000595119,-0.000595119,0.000595119,-0.000565543,0.000565543,-0.000565543,0.000565543,0.785169406,0.892251894,1368840,32768,0.002417933,0.002417933,0.002417933,17.04794651,17.05754447,5.16E-05,5.16E-05,5.16E-05,805116.1102,0.007280219
19316559,0.427762323,0.007184147,0.002394716,0.002394716,0.002394716,-0.000588355,0.000588355,8.18E-11,-7.91E-11,-1.94E-13,2.89E-12,-0.000602615,0.000602615,-0.000602615,0.000602615,-0.000602615,0.000602615,-0.000602615,0.000602615,-0.000572775,0.000572775,-0.000572775,0.000572775,6.31E-13,-2.43E-12,-5.87E-13,-9.29E-13,-0.000588355,0.000588355,-0.000602615,0.000602615,-0.000602615,0.000602615,-0.000602615,0.000602615,-0.000602615,0.000602615,-0.000572775,0.000572775,-0.000572775,0.000572775,-0.000572775,0.000572775,-0.000572775,0.000572775,-8.03E-11,8.06E-11,-0.000588355,0.000588355,-2.95E-14,3.15E-13,-0.000602615,0.000602615,-0.000602615,0.000602615,-0.000602615,0.000602615,-0.000602615,0.000602615,-0.000572775,0.000572775,-0.000572775,0.000572775,0.784963495,0.853744312,1368840,32768,0.002448465,0.002448465,0.002448465,17.27354838,17.28344488,5.34E-05,5.34E-05,5.34E-05,798325.2866,0.007372487
19402959,0.432929236,0.007272325,0.002424108,0.002424108,0.002424108,-0.000595812,0.000595812,8.17E-11,-7.92E-11,-2.12E-13,2.85E-12,-0.000610224,0.000610224,-0.000610224,0.000610224,-0.000610224,0.000610224,-0.000610224,0.000610224,-0.000580111,0.000580112,-0.000580112,0.000580111,7.73E-13,-2.27E-12,-4.32E-13,-7.86E-13,-0.000595812,0.000595812,-0.000610224,0.000610224,-0.000610224,0.000610224,-0.000610224,0.000610224,-0.000610224,0.000610224,-0.000580112,0.000580112,-0.000580112,0.000580112,-0.000580112,0.000580112,-0.000580112,0.000580112,-8.02E-11,8.07E-11,-0.000595812,0.000595812,7.04E-14,4.27E-13,-0.000610224,0.000610224,-0.000610224,0.000610224,-0.000610224,0.000610224,-0.000610224,0.000610224,-0.000580111,0.000580112,-0.000580112,0.000580111,0.783850462,0.81523673,1368840,32768,0.002479463,0.002479463,0.002479463,17.4994283,17.50934529,5.52E-05,5.52E-05,5.52E-05,793508.13,0.007466171
19489359,0.438184831,0.007361811,0.002453937,0.002453937,0.002453937,-0.000603374,0.000603374,8.18E-11,-7.91E-11,-1.63E-13,2.88E-12,-0.000617952,0.000617952,-0.000617952,0.000617952,-0.000617952,0.000617952,-0.000617952,0.000617952,-0.000587534,0.000587534,-0.000587534,0.000587534,6.82E-13,-2.35E-12,-5.68E-13,-9.01E-13,-0.000603374,0.000603374,-0.000617952,0.000617952,-0.000617952,0.000617952,-0.000617952,0.000617952,-0.000617952,0.000617952,-0.000587534,0.000587534,-0.000587534,0.000587534,-0.000587534,0.000587534,-0.000587534,0.000587534,-8.03E-11,8.06E-11,-0.000603374,0.000603374,-3.21E-14,3.02E-13,-0.000617952,0.000617952,-0.000617952,0.000617952,-0.000617952,0.000617952,-0.000617952,0.000617952,-0.000587534,0.000587534,-0.000587534,0.000587534,0.782027083,0.776729148,1368840,32768,0.00251089,0.00251089,0.00251089,17.72532686,17.7352457,5.70E-05,5.70E-05,5.70E-05,791963.4568,0.007561162
19575759,0.443529033,0.007452534,0.002484178,0.002484178,0.002484178,-0.000611032,0.000611032,8.17E-11,-7.92E-11,-1.95E-13,2.85E-12,-0.000625791,0.000625791,-0.000625791,0.000625791,-0.000625791,0.000625791,-0.000625791,0.000625791,-0.000595034,0.000595035,-0.000595035,0.000595034,6.57E-13,-2.37E-12,-5.81E-13,-9.15E-13,-0.000611032,0.000611032,-0.000625791,0.000625791,-0.000625791,0.000625791,-0.000625791,0.000625791,-0.000625791,0.000625791,-0.000595035,0.000595035,-0.000595035,0.000595035,-0.000595035,0.000595035,-0.000595035,0.000595035,-8.03E-11,8.06E-11,-0.000611032,0.000611032,-2.48E-14,3.13E-13,-0.000625791,0.000625791,-0.000625791,0.000625791,-0.000625791,0.000625791,-0.000625791,0.000625791,-0.000595034,0.000595035,-0.000595035,0.000595034,0.779688592,0.738221567,1368840,32768,0.00254272,0.00254272,0.00254272,17.95122672,17.96114611,5.88E-05,5.88E-05,5.88E-05,793698.8068,0.007657379
19662159,0.448961664,0.007544434,0.002514811,0.002514811,0.002514811,-0.000618783,0.000618783,8.18E-11,-7.92E-11,-1.90E-13,2.84E-12,-0.000633732,0.000633732,-0.000633732,0.000633732,-0.000633732,0.000633732,-0.000633732,0.000633732,-0.00060261,0.00060261,-0.00060261,0.00060261,6.40E-13,-2.37E-12,-5.69E-13,-9.02E-13,-0.000618783,0.000618783,-0.000633732,0.000633732,-0.000633732,0.000633732,-0.000633732,0.000633732,-0.000633732,0.000633732,-0.00060261,0.00060261,-0.00060261,0.00060261,-0.00060261,0.00060261,-0.00060261,0.00060261,-8.04E-11,8.06E-11,-0.000618783,0.000618783,-3.69E-14,2.99E-13,-0.000633732,0.000633732,-0.000633732,0.000633732,-0.000633732,0.000633732,-0.000633732,0.000633732,-0.00060261,0.00060261,-0.00060261,0.00060261,0.776996149,0.699713985,1368840,32768,0.002574931,0.002574931,0.002574931,18.17712675,18.18704652,6.06E-05,6.06E-05,6.06E-05,798334.2348,0.007754756
19748559,0.454482435,0.007637461,0.00254582,0.00254582,0.00254582,-0.000626621,0.000626621,8.17E-11,-7.92E-11,-2.06E-13,2.88E-12,-0.000641776,0.000641776,-0.000641776,0.000641776,-0.000641776,0.000641776,-0.000641776,0.000641776,-0.000610251,0.000610251,-0.000610251,0.000610251,6.59E-13,-2.41E-12,-6.21E-13,-8.91E-13,-0.000626621,0.000626621,-0.000641776,0.000641776,-0.000641776,0.000641776,-0.000641776,0.000641776,-0.000641776,0.000641776,-0.000610251,0.000610251,-0.000610251,0.000610251,-0.000610251,0.000610251,-0.000610251,0.000610251,-8.04E-11,8.06E-11,-0.000626621,0.000626621,-1.72E-14,2.56E-13,-0.000641776,0.000641776,-0.000641776,0.000641776,-0.000641776,0.000641776,-0.000641776,0.000641776,-0.000610251,0.000610251,-0.000610251,0.000610251,0.774058149,0.661206403,1368840,32768,0.002607503,0.002607503,0.002607503,18.40302685,18.41294693,6.24E-05,6.24E-05,6.24E-05,806352.8254,0.007853237
19834959,0.46009095,0.007731465,0.002577155,0.002577155,0.002577155,-0.000634533,0.000634533,8.18E-11,-7.91E-11,-1.81E-13,2.87E-12,-0.000649912,0.000649912,-0.000649912,0.000649912,-0.000649912,0.000649912,-0.000649912,0.000649912,-0.000617938,0.000617939,-0.000617939,0.000617938,6.26E-13,-2.41E-12,-6.11E-13,-8.78E-13,-0.000634533,0.000634533,-0.000649912,0.000649912,-0.000649912,0.000649912,-0.000649912,0.000649912,-0.000649912,0.000649912,-0.000617939,0.000617939,-0.000617939,0.000617939,-0.000617939,0.000617939,-0.000617939,0.000617939,-8.04E-11,8.06E-11,-0.000634533,0.000634533,4.94E-15,2.75E-13,-0.000649912,0.000649912,-0.000649912,0.000649912,-0.000649912,0.000649912,-0.000649912,0.000649912,-0.000617938,0.000617939,-0.000617939,0.000617938,0.770088343,0.609745738,1368840,32768,0.002640383,0.002640383,0.002640383,18.62892696,18.63884734,6.42E-05,6.42E-05,6.42E-05,818726.1016,0.007952657
19921359,0.465717878,0.007826232,0.002608744,0.002608744,0.002608744,-0.000642163,0.000642163,8.17E-11,-7.91E-11,-1.86E-13,2.83E-12,-0.000657775,0.000657775,-0.000657775,0.000657775,-0.000657775,0.000657775,-0.000657775,0.000657775,-0.000625351,0.000625351,-0.000625351,0.000625351,6.38E-13,-2.36E-12,-5.89E-13,-8.64E-13,-0.000642163,0.000642163,-0.000657775,0.000657775,-0.000657775,0.000657775,-0.000657775,0.000657775,-0.000657775,0.000657775,-0.000625351,0.000625351,-0.000625351,0.000625351,-0.000625351,0.000625351,-0.000625351,0.000625351,-8.03E-11,8.06E-11,-0.000642163,0.000642163,-1.01E-14,2.68E-13,-0.000657775,0.000657775,-0.000657775,0.000657775,-0.000657775,0.000657775,-0.000657775,0.000657775,-0.000625351,0.000625351,-0.000625351,0.000625351,0.773883928,0.684207718,1368840,32768,0.002672091,0.002672091,0.002672091,18.68894001,18.69174161,6.47E-05,6.47E-05,6.47E-05,831799.7604,0.008048542
20007759,0.471332236,0.007921054,0.002640351,0.002640351,0.002640351,-0.000649863,0.000649863,8.17E-11,-7.92E-11,-1.82E-13,2.82E-12,-0.000665589,0.000665589,-0.000665589,0.000665589,-0.000665589,0.000665589,-0.000665589,0.000665589,-0.000632955,0.000632955,-0.000632955,0.000632955,6.40E-13,-2.34E-12,-5.83E-13,-8.61E-13,-0.000649863,0.000649863,-0.000665589,0.000665589,-0.000665589,0.000665589,-0.000665589,0.000665589,-0.000665589,0.000665589,-0.000632955,0.000632955,-0.000632955,0.000632955,-0.000632955,0.000632955,-0.000632955,0.000632955,-8.03E-11,8.06E-11,-0.000649863,0.000649863,-1.11E-14,2.70E-13,-0.000665589,0.000665589,-0.000665589,0.000665589,-0.000665589,0.000665589,-0.000665589,0.000665589,-0.000632955,0.000632955,-0.000632955,0.000632955,0.776172166,0.727429649,1368840,32768,0.002704087,0.002704087,0.002704087,18.67650178,18.67603403,6.46E-05,6.46E-05,6.46E-05,803729.2838,0.008145311
20094159,0.476932386,0.008015935,0.002671978,0.002671978,0.002671978,-0.00065751,0.00065751,8.17E-11,-7.92E-11,-1.78E-13,2.82E-12,-0.000673366,0.000673366,-0.000673366,0.000673366,-0.000673366,0.000673366,-0.000673366,0.000673366,-0.000640498,0.000640498,-0.000640498,0.000640498,6.41E-13,-2.34E-12,-5.76E-13,-8.58E-13,-0.00065751,0.00065751,-0.000673366,0.000673366,-0.000673366,0.000673366,-0.000673366,0.000673366,-0.000673366,0.000673366,-0.000640498,0.000640498,-0.000640498,0.000640498,-0.000640498,0.000640498,-0.000640498,0.000640498,-8.03E-11,8.06E-11,-0.00065751,0.00065751,-1.11E-14,2.73E-13,-0.000673366,0.000673366,-0.000673366,0.000673366,-0.000673366,0.000673366,-0.000673366,0.000673366,-0.000640498,0.000640498,-0.000640498,0.000640498,0.7782986,0.762337285,1368840,32768,0.002735864,0.002735864,0.002735864,18.66100124,18.66032644,6.45E-05,6.45E-05,6.45E-05,783464.0428,0.008241423
20180559,0.482517118,0.00811087,0.002703623,0.002703623,0.002703623,-0.000665147,0.000665147,8.17E-11,-7.92E-11,-1.76E-13,2.81E-12,-0.000681128,0.000681128,-0.000681128,0.000681128,-0.000681128,0.000681128,-0.000681128,0.000681128,-0.000648042,0.000648042,-0.000648042,0.000648042,6.41E-13,-2.32E-12,-5.70E-13,-8.53E-13,-0.000665147,0.000665147,-0.000681128,0.000681128,-0.000681128,0.000681128,-0.000681128,0.000681128,-0.000681128,0.000681128,-0.000648042,0.000648042,-0.000648042,0.000648042,-0.000648042,0.000648042,-0.000648042,0.000648042,-8.03E-11,8.06E-11,-0.000665147,0.000665147,-1.26E-14,2.73E-13,-0.000681128,0.000681128,-0.000681128,0.000681128,-0.000681128,0.000681128,-0.000681128,0.000681128,-0.000648042,0.000648042,-0.000648042,0.000648042,0.780628572,0.794775166,1368840,32768,0.0027676,0.0027676,0.0027676,18.64530755,18.64461886,6.44E-05,6.44E-05,6.44E-05,763798.7761,0.008337419
20266959,0.488085417,0.008205883,0.002735294,0.002735294,0.002735294,-0.000672786,0.000672786,8.17E-11,-7.92E-11,-1.70E-13,2.81E-12,-0.00068888,0.00068888,-0.00068888,0.00068888,-0.00068888,0.00068888,-0.00068888,0.00068888,-0.000655604,0.000655604,-0.000655604,0.000655604,6.39E-13,-2.32E-12,-5.71E-13,-8.63E-13,-0.000672786,0.000672786,-0.00068888,0.00068888,-0.00068888,0.00068888,-0.00068888,0.00068888,-0.00068888,0.00068888,-0.000655604,0.000655604,-0.000655604,0.000655604,-0.000655604,0.000655604,-0.000655604,0.000655604,-8.03E-11,8.06E-11,-0.000672786,0.000672786,-1.46E-14,2.80E-13,-0.00068888,0.00068888,-0.00068888,0.00068888,-0.00068888,0.00068888,-0.00068888,0.00068888,-0.000655604,0.000655604,-0.000655604,0.000655604,0.783324592,0.827213047,1368840,32768,0.002799339,0.002799339,0.002799339,18.62960087,18.62891128,6.42E-05,6.42E-05,6.42E-05,742923.3635,0.008433437
20353359,0.49363631,0.008300922,0.002766974,0.002766974,0.002766974,-0.000680426,0.000680426,8.17E-11,-7.92E-11,-1.74E-13,2.80E-12,-0.000696622,0.000696622,-0.000696622,0.000696622,-0.000696622,0.000696622,-0.000696622,0.000696622,-0.00066318,0.00066318,-0.00066318,0.00066318,6.41E-13,-2.31E-12,-5.62E-13,-8.51E-13,-0.000680426,0.000680426,-0.000696622,0.000696622,-0.000696622,0.000696622,-0.000696622,0.000696622,-0.000696622,0.000696622,-0.00066318,0.00066318,-0.00066318,0.00066318,-0.00066318,0.00066318,-0.00066318,0.00066318,-8.03E-11,8.06E-11,-0.000680426,0.000680426,-1.57E-14,2.76E-13,-0.000696622,0.000696622,-0.000696622,0.000696622,-0.000696622,0.000696622,-0.000696622,0.000696622,-0.00066318,0.00066318,-0.00066318,0.00066318,0.78572898,0.849068438,1368840,32768,0.002831081,0.002831081,0.002831081,18.61389332,18.6132037,6.41E-05,6.41E-05,6.41E-05,720975.7378,0.008529468
20439759,0.499168832,0.008395146,0.002798382,0.002798382,0.002798382,-0.000687986,0.000687986,8.17E-11,-7.92E-11,-1.66E-13,2.79E-12,-0.000704306,0.000704306,-0.000704306,0.000704306,-0.000704306,0.000704306,-0.000704306,0.000704306,-0.000670643,0.000670644,-0.000670644,0.000670643,6.33E-13,-2.30E-12,-5.50E-13,-8.47E-13,-0.000687986,0.000687986,-0.000704306,0.000704306,-0.000704306,0.000704306,-0.000704306,0.000704306,-0.000704306,0.000704306,-0.000670643,0.000670643,-0.000670643,0.000670643,-0.000670643,0.000670643,-0.000670643,0.000670643,-8.03E-11,8.06E-11,-0.000687986,0.000687986,-1.63E-14,2.84E-13,-0.000704306,0.000704306,-0.000704306,0.000704306,-0.000704306,0.000704306,-0.000704306,0.000704306,-0.000670643,0.000670644,-0.000670644,0.000670643,0.781368562,0.766192505,1368840,32768,0.002862493,0.002862493,0.002862493,18.59818581,18.59749611,6.40E-05,6.40E-05,6.40E-05,706328.1798,0.008624513
20526159,0.504681888,0.008487909,0.002829303,0.002829303,0.002829303,-0.000695288,0.000695288,8.17E-11,-7.92E-11,-1.65E-13,2.77E-12,-0.000711835,0.000711835,-0.000711835,0.000711835,-0.000711835,0.000711835,-0.000711835,0.000711835,-0.000677723,0.000677723,-0.000677723,0.000677723,6.37E-13,-2.28E-12,-5.33E-13,-8.50E-13,-0.000695288,0.000695288,-0.000711835,0.000711835,-0.000711835,0.000711835,-0.000711835,0.000711835,-0.000711835,0.000711835,-0.000677723,0.000677723,-0.000677723,0.000677723,-0.000677723,0.000677723,-0.000677723,0.000677723,-8.03E-11,8.06E-11,-0.000695288,0.000695288,-2.35E-14,2.96E-13,-0.000711835,0.000711835,-0.000711835,0.000711835,-0.000711835,0.000711835,-0.000711835,0.000711835,-0.000677723,0.000677723,-0.000677723,0.000677723,0.771876673,0.623792828,1368840,32768,0.002892832,0.002892832,0.002892832,18.58247831,18.58178853,6.39E-05,6.39E-05,6.39E-05,725126.9052,0.008716322
20612559,0.510174059,0.008579024,0.002859675,0.002859675,0.002859675,-0.000702348,0.000702348,8.17E-11,-7.92E-11,-1.66E-13,2.77E-12,-0.000719216,0.000719216,-0.000719216,0.000719216,-0.000719216,0.000719216,-0.000719216,0.000719216,-0.000684441,0.000684441,-0.000684441,0.000684441,6.43E-13,-2.27E-12,-5.42E-13,-8.32E-13,-0.000702348,0.000702348,-0.000719216,0.000719216,-0.000719216,0.000719216,-0.000719216,0.000719216,-0.000719216,0.000719216,-0.000684441,0.000684441,-0.000684441,0.000684441,-0.000684441,0.000684441,-0.000684441,0.000684441,-8.03E-11,8.06E-11,-0.000702348,0.000702348,-1.84E-14,2.74E-13,-0.000719216,0.000719216,-0.000719216,0.000719216,-0.000719216,0.000719216,-0.000719216,0.000719216,-0.000684441,0.000684441,-0.000684441,0.000684441,0.761354966,0.48139315,1368840,32768,0.002922161,0.002922161,0.002922161,18.56677075,18.56608095,6.37E-05,6.37E-05,6.37E-05,772116.9871,0.008805081
20698959,0.515540062,0.008668929,0.002889643,0.002889643,0.002889643,-0.000708758,0.000708758,8.17E-11,-7.92E-11,-1.67E-13,2.75E-12,-0.00072595,0.00072595,-0.00072595,0.00072595,-0.00072595,0.00072595,-0.00072595,0.00072595,-0.000690536,0.000690536,-0.000690536,0.000690536,6.68E-13,-2.23E-12,-5.89E-13,-7.59E-13,-0.000708758,0.000708758,-0.00072595,0.00072595,-0.00072595,0.00072595,-0.00072595,0.00072595,-0.00072595,0.00072595,-0.000690536,0.000690536,-0.000690536,0.000690536,-0.000690536,0.000690536,-0.000690536,0.000690536,-8.03E-11,8.06E-11,-0.000708758,0.000708758,2.17E-14,1.95E-13,-0.00072595,0.00072595,-0.00072595,0.00072595,-0.00072595,0.00072595,-0.00072595,0.00072595,-0.000690536,0.000690536,-0.000690536,0.000690536,0.769352848,0.628320914,1368840,32768,0.00294879,0.00294879,0.00294879,18.28316648,18.27098039,6.15E-05,6.15E-05,6.15E-05,818160.6705,0.008885674
20785359,0.520742895,0.008756598,0.002918866,0.002918866,0.002918866,-0.000715295,0.000715295,8.17E-11,-7.91E-11,-1.23E-13,2.78E-12,-0.000732523,0.000732523,-0.000732523,0.000732523,-0.000732523,0.000732523,-0.000732523,0.000732523,-0.000697051,0.000697051,-0.000697051,0.000697051,6.27E-13,-2.26E-12,-5.99E-13,-7.18E-13,-0.000715295,0.000715295,-0.000732523,0.000732523,-0.000732523,0.000732523,-0.000732523,0.000732523,-0.000732523,0.000732523,-0.000697051,0.000697051,-0.000697051,0.000697051,-0.000697051,0.000697051,-0.000697051,0.000697051,-8.03E-11,8.06E-11,-0.000715295,0.000715295,-1.78E-14,1.06E-13,-0.000732523,0.000732523,-0.000732523,0.000732523,-0.000732523,0.000732523,-0.000732523,0.000732523,-0.000697051,0.000697051,-0.000697051,0.000697051,0.774177793,0.717777834,1368840,32768,0.002975946,0.002975946,0.002975946,17.89353037,17.87653593,5.83E-05,5.83E-05,5.83E-05,769867.4863,0.008967872
20871759,0.525786873,0.008841224,0.002947075,0.002947075,0.002947075,-0.000721467,0.000721467,8.16E-11,-7.93E-11,-3.14E-13,2.53E-12,-0.000738787,0.000738787,-0.000738787,0.000738787,-0.000738787,0.000738787,-0.000738787,0.000738787,-0.000703137,0.000703137,-0.000703137,0.000703137,7.58E-13,-2.06E-12,-5.23E-13,-6.79E-13,-0.000721467,0.000721467,-0.000738787,0.000738787,-0.000738787,0.000738787,-0.000738787,0.000738787,-0.000738787,0.000738787,-0.000703137,0.000703137,-0.000703137,0.000703137,-0.000703137,0.000703137,-0.000703137,0.000703137,-8.03E-11,8.05E-11,-0.000721467,0.000721467,-8.73E-14,7.20E-14,-0.000738787,0.000738787,-0.000738787,0.000738787,-0.000738787,0.000738787,-0.000738787,0.000738787,-0.000703137,0.000703137,-0.000703137,0.000703137,0.770363848,0.658538176,1368840,32768,0.003001586,0.003001586,0.003001586,17.49939123,17.48209146,5.52E-05,5.52E-05,5.52E-05,744699.4591,0.009045485
20958159,0.53067638,0.008922838,0.002974279,0.002974279,0.002974279,-0.00072716,0.00072716,8.17E-11,-7.91E-11,-6.26E-14,2.69E-12,-0.000744699,0.000744699,-0.000744699,0.000744699,-0.000744699,0.000744699,-0.000744699,0.000744699,-0.000708611,0.000708611,-0.000708611,0.000708611,5.82E-13,-2.15E-12,-6.07E-13,-7.84E-13,-0.00072716,0.00072716,-0.000744699,0.000744699,-0.000744699,0.000744699,-0.000744699,0.000744699,-0.000744699,0.000744699,-0.000708611,0.000708611,-0.000708611,0.000708611,-0.000708611,0.000708611,-0.000708611,0.000708611,-8.03E-11,8.06E-11,-0.00072716,0.00072716,2.87E-14,2.09E-13,-0.000744699,0.000744699,-0.000744699,0.000744699,-0.000744699,0.000744699,-0.000744699,0.000744699,-0.000708611,0.000708611,-0.000708611,0.000708611,0.766172364,0.599298519,1368840,32768,0.003025236,0.003025236,0.003025236,17.10496758,17.08764699,5.20E-05,5.20E-05,5.20E-05,762585.8153,0.00911708
21044559,0.535415635,0.009001866,0.003000622,0.003000622,0.003000622,-0.000732637,0.000732637,8.17E-11,-7.92E-11,-1.21E-13,2.67E-12,-0.000750405,0.000750405,-0.000750405,0.000750405,-0.000750405,0.000750405,-0.000750405,0.000750405,-0.000713862,0.000713862,-0.000713862,0.000713862,6.42E-13,-2.13E-12,-5.75E-13,-7.05E-13,-0.000732637,0.000732637,-0.000750405,0.000750405,-0.000750405,0.000750405,-0.000750405,0.000750405,-0.000750405,0.000750405,-0.000713862,0.000713862,-0.000713862,0.000713862,-0.000713862,0.000713862,-0.000713862,0.000713862,-8.03E-11,8.05E-11,-0.000732637,0.000732637,3.56E-14,1.69E-13,-0.000750405,0.000750405,-0.000750405,0.000750405,-0.000750405,0.000750405,-0.000750405,0.000750405,-0.000713862,0.000713862,-0.000713862,0.000713862,0.765608013,0.59996006,1368840,32768,0.003047989,0.003047989,0.003047989,16.71052452,16.69320252,4.89E-05,4.89E-05,4.89E-05,782193.3692,0.009185964
21130959,0.54000923,0.009078446,0.003026149,0.003026149,0.003026149,-0.000738019,0.000738019,8.17E-11,-7.92E-11,-1.15E-13,2.68E-12,-0.000755955,0.000755955,-0.000755955,0.000755955,-0.000755955,0.000755955,-0.000755955,0.000755955,-0.000719076,0.000719077,-0.000719077,0.000719076,6.59E-13,-2.11E-12,-5.75E-13,-6.64E-13,-0.000738019,0.000738019,-0.000755955,0.000755955,-0.000755955,0.000755955,-0.000755955,0.000755955,-0.000755955,0.000755955,-0.000719076,0.000719076,-0.000719076,0.000719076,-0.000719076,0.000719076,-0.000719076,0.000719076,-8.04E-11,8.05E-11,-0.000738019,0.000738019,5.87E-14,1.50E-13,-0.000755955,0.000755955,-0.000755955,0.000755955,-0.000755955,0.000755955,-0.000755955,0.000755955,-0.000719076,0.000719077,-0.000719077,0.000719076,0.765627732,0.609139728,1368840,32768,0.003070344,0.003070344,0.003070344,16.31608012,16.29875805,4.57E-05,4.57E-05,4.57E-05,783916.0442,0.00925365
21217359,0.544461803,0.009152682,0.003050894,0.003050894,0.003050894,-0.000743228,0.000743228,8.17E-11,-7.92E-11,-1.56E-13,2.71E-12,-0.000761319,0.000761319,-0.000761319,0.000761319,-0.000761319,0.000761319,-0.000761319,0.000761319,-0.000724134,0.000724134,-0.000724134,0.000724134,6.56E-13,-2.19E-12,-6.00E-13,-6.95E-13,-0.000743228,0.000743228,-0.000761319,0.000761319,-0.000761319,0.000761319,-0.000761319,0.000761319,-0.000761319,0.000761319,-0.000724134,0.000724134,-0.000724134,0.000724134,-0.000724134,0.000724134,-0.000724134,0.000724134,-8.04E-11,8.06E-11,-0.000743228,0.000743228,5.37E-14,1.52E-13,-0.000761319,0.000761319,-0.000761319,0.000761319,-0.000761319,0.000761319,-0.000761319,0.000761319,-0.000724134,0.000724134,-0.000724134,0.000724134,0.765714165,0.618319396,1368840,32768,0.003091983,0.003091983,0.003091983,15.9216356,15.90431358,4.26E-05,4.26E-05,4.26E-05,782575.9793,0.009319171
21303759,0.54880332,0.009225081,0.003075027,0.003075027,0.003075027,-0.000748451,0.000748451,8.17E-11,-7.92E-11,-1.60E-13,2.70E-12,-0.000766688,0.000766688,-0.000766688,0.000766688,-0.000766688,0.000766688,-0.000766688,0.000766688,-0.000729212,0.000729212,-0.000729212,0.000729212,6.44E-13,-2.19E-12,-5.76E-13,-7.28E-13,-0.000748451,0.000748451,-0.000766688,0.000766688,-0.000766688,0.000766688,-0.000766688,0.000766688,-0.000766688,0.000766688,-0.000729212,0.000729212,-0.000729212,0.000729212,-0.000729212,0.000729212,-0.000729212,0.000729212,-8.04E-11,8.06E-11,-0.000748451,0.000748451,2.38E-14,1.79E-13,-0.000766688,0.000766688,-0.000766688,0.000766688,-0.000766688,0.000766688,-0.000766688,0.000766688,-0.000729212,0.000729212,-0.000729212,0.000729212,0.765857514,0.627499064,1368840,32768,0.003113674,0.003113674,0.003113674,15.60982621,15.59605036,4.01E-05,4.01E-05,4.01E-05,780520.1298,0.009384855
21390159,0.553043765,0.009295815,0.003098605,0.003098605,0.003098605,-0.000753586,0.000753586,8.17E-11,-7.92E-11,-1.54E-13,2.74E-12,-0.000771967,0.000771967,-0.000771967,0.000771967,-0.000771967,0.000771967,-0.000771967,0.000771967,-0.000734208,0.000734208,-0.000734208,0.000734208,6.99E-13,-2.17E-12,-5.33E-13,-7.31E-13,-0.000753586,0.000753586,-0.000771967,0.000771967,-0.000771967,0.000771967,-0.000771967,0.000771967,-0.000771967,0.000771967,-0.000734208,0.000734208,-0.000734208,0.000734208,-0.000734208,0.000734208,-0.000734208,0.000734208,-8.04E-11,8.06E-11,-0.000753586,0.000753586,6.84E-15,2.09E-13,-0.000771967,0.000771967,-0.000771967,0.000771967,-0.000771967,0.000771967,-0.000771967,0.000771967,-0.000734208,0.000734208,-0.000734208,0.000734208,0.766051342,0.636678732,1368840,32768,0.003135005,0.003135005,0.003135005,15.32201614,15.30935008,3.78E-05,3.78E-05,3.78E-05,778066.3362,0.00944945
21476559,0.557185728,0.009365684,0.003121895,0.003121895,0.003121895,-0.000758657,0.000758657,8.17E-11,-7.92E-11,-1.41E-13,2.72E-12,-0.000777155,0.000777155,-0.000777155,0.000777155,-0.000777155,0.000777155,-0.000777155,0.000777155,-0.000739187,0.000739187,-0.000739187,0.000739187,6.79E-13,-2.16E-12,-5.11E-13,-7.23E-13,-0.000758657,0.000758657,-0.000777155,0.000777155,-0.000777155,0.000777155,-0.000777155,0.000777155,-0.000777155,0.000777155,-0.000739187,0.000739187,-0.000739187,0.000739187,-0.000739187,0.000739187,-0.000739187,0.000739187,-8.04E-11,8.06E-11,-0.000758657,0.000758657,1.41E-14,2.29E-13,-0.000777155,0.000777155,-0.000777155,0.000777155,-0.000777155,0.000777155,-0.000777155,0.000777155,-0.000739187,0.000739187,-0.000739187,0.000739187,0.774581944,0.792700605,1368840,32768,0.003156066,0.003156066,0.003156066,15.03524407,15.02264979,3.55E-05,3.55E-05,3.55E-05,769436.3252,0.009513234
21562959,0.561231515,0.009433736,0.003144579,0.003144579,0.003144579,-0.00076382,0.00076382,8.17E-11,-7.92E-11,-1.05E-13,2.75E-12,-0.000782311,0.000782311,-0.000782311,0.000782311,-0.000782311,0.000782311,-0.000782311,0.000782311,-0.000744371,0.000744372,-0.000744372,0.000744371,6.88E-13,-2.15E-12,-4.12E-13,-5.97E-13,-0.00076382,0.00076382,-0.000782311,0.000782311,-0.000782311,0.000782311,-0.000782311,0.000782311,-0.000782311,0.000782311,-0.000744372,0.000744372,-0.000744372,0.000744372,-0.000744372,0.000744372,-0.000744372,0.000744372,-8.04E-11,8.06E-11,-0.00076382,0.00076382,4.36E-14,2.33E-13,-0.000782311,0.000782311,-0.000782311,0.000782311,-0.000782311,0.000782311,-0.000782311,0.000782311,-0.000744371,0.000744372,-0.000744372,0.000744371,0.772257705,0.74237169,1368840,32768,0.003177511,0.003177511,0.003177511,14.74853944,14.7359495,3.32E-05,3.32E-05,3.32E-05,725064.285,0.009578181
21649359,0.565183545,0.009499817,0.003166606,0.003166606,0.003166606,-0.000768494,0.000768494,8.16E-11,-7.93E-11,-2.28E-13,2.62E-12,-0.000787153,0.000787153,-0.000787153,0.000787153,-0.000787153,0.000787153,-0.000787153,0.000787153,-0.000748886,0.000748887,-0.000748887,0.000748886,6.81E-13,-2.14E-12,-4.66E-13,-6.56E-13,-0.000768494,0.000768494,-0.000787153,0.000787153,-0.000787153,0.000787153,-0.000787153,0.000787153,-0.000787153,0.000787153,-0.000748887,0.000748887,-0.000748887,0.000748887,-0.000748887,0.000748887,-0.000748887,0.000748887,-8.03E-11,8.07E-11,-0.000768494,0.000768494,4.41E-14,2.38E-13,-0.000787153,0.000787153,-0.000787153,0.000787153,-0.000787153,0.000787153,-0.000787153,0.000787153,-0.000748886,0.000748887,-0.000748887,0.000748886,0.767244333,0.65904094,1368840,32768,0.003196926,0.003196926,0.003196926,14.46183935,14.44924921,3.09E-05,3.09E-05,3.09E-05,735579.3476,0.009636987
21735759,0.569043566,0.009564228,0.003188076,0.003188076,0.003188076,-0.000772973,0.000772973,8.17E-11,-7.93E-11,-1.37E-13,2.68E-12,-0.00079184,0.00079184,-0.00079184,0.00079184,-0.00079184,0.00079184,-0.00079184,0.00079184,-0.000753166,0.000753166,-0.000753166,0.000753166,6.71E-13,-2.12E-12,-5.22E-13,-6.64E-13,-0.000772973,0.000772973,-0.00079184,0.00079184,-0.00079184,0.00079184,-0.00079184,0.00079184,-0.00079184,0.00079184,-0.000753166,0.000753166,-0.000753166,0.000753166,-0.000753166,0.000753166,-0.000753166,0.000753166,-8.04E-11,8.06E-11,-0.000772973,0.000772973,1.53E-14,1.60E-13,-0.00079184,0.00079184,-0.00079184,0.00079184,-0.00079184,0.00079184,-0.00079184,0.00079184,-0.000753166,0.000753166,-0.000753166,0.000753166,0.765780947,0.639927669,1368840,32768,0.003215526,0.003215526,0.003215526,14.17513912,14.16254892,2.86E-05,2.86E-05,2.86E-05,756915.3181,0.009693329
21822159,0.572813632,0.009626993,0.003208998,0.003208998,0.003208998,-0.000777422,0.000777422,8.17E-11,-7.92E-11,-1.52E-13,2.68E-12,-0.000796442,0.000796442,-0.000796442,0.000796442,-0.000796442,0.000796442,-0.000796442,0.000796442,-0.000757467,0.000757467,-0.000757467,0.000757467,6.93E-13,-2.11E-12,-4.89E-13,-6.86E-13,-0.000777422,0.000777422,-0.000796442,0.000796442,-0.000796442,0.000796442,-0.000796442,0.000796442,-0.000796442,0.000796442,-0.000757467,0.000757467,-0.000757467,0.000757467,-0.000757467,0.000757467,-0.000757467,0.000757467,-8.04E-11,8.06E-11,-0.000777422,0.000777422,1.22E-14,2.12E-13,-0.000796442,0.000796442,-0.000796442,0.000796442,-0.000796442,0.000796442,-0.000796442,0.000796442,-0.000757467,0.000757467,-0.000757467,0.000757467,0.764247974,0.620814398,1368840,32768,0.003234006,0.003234006,0.003234006,13.88843888,13.87584863,2.63E-05,2.63E-05,2.63E-05,762400.885,0.009749309
21908559,0.576592048,0.009689758,0.003229919,0.003229919,0.003229919,-0.000782567,0.000782567,8.17E-11,-7.92E-11,-1.35E-13,2.66E-12,-0.000801738,0.000801738,-0.000801738,0.000801738,-0.000801738,0.000801738,-0.000801738,0.000801738,-0.000762461,0.000762462,-0.000762462,0.000762461,6.76E-13,-2.10E-12,-4.86E-13,-6.79E-13,-0.000782567,0.000782567,-0.000801738,0.000801738,-0.000801738,0.000801738,-0.000801738,0.000801738,-0.000801738,0.000801738,-0.000762461,0.000762461,-0.000762461,0.000762461,-0.000762461,0.000762461,-0.000762461,0.000762461,-8.04E-11,8.06E-11,-0.000782567,0.000782567,7.28E-15,2.04E-13,-0.000801738,0.000801738,-0.000801738,0.000801738,-0.000801738,0.000801738,-0.000801738,0.000801738,-0.000762461,0.000762462,-0.000762462,0.000762461,0.762652569,0.601701128,1368840,32768,0.003255373,0.003255373,0.003255373,13.96336831,13.96629652,2.69E-05,2.69E-05,2.69E-05,767944.6277,0.009814039
21994959,0.580397869,0.009752835,0.003250945,0.003250945,0.003250945,-0.000787875,0.000787875,8.17E-11,-7.92E-11,-1.31E-13,2.64E-12,-0.000807207,0.000807207,-0.000807207,0.000807207,-0.000807207,0.000807207,-0.000807207,0.000807207,-0.000767607,0.000767607,-0.000767607,0.000767607,6.73E-13,-2.07E-12,-4.81E-13,-6.63E-13,-0.000787875,0.000787875,-0.000807207,0.000807207,-0.000807207,0.000807207,-0.000807207,0.000807207,-0.000807207,0.000807207,-0.000767607,0.000767607,-0.000767607,0.000767607,-0.000767607,0.000767607,-0.000767607,0.000767607,-8.04E-11,8.06E-11,-0.000787875,0.000787875,1.09E-14,1.97E-13,-0.000807207,0.000807207,-0.000807207,0.000807207,-0.000807207,0.000807207,-0.000807207,0.000807207,-0.000767607,0.000767607,-0.000767607,0.000767607,0.761003058,0.582587857,1368840,32768,0.003277416,0.003277416,0.003277416,14.11071709,14.11710257,2.81E-05,2.81E-05,2.81E-05,774860.9969,0.009880818
22081359,0.584231515,0.009816225,0.003272075,0.003272075,0.003272075,-0.000793212,0.000793212,8.17E-11,-7.92E-11,-1.26E-13,2.61E-12,-0.000812713,0.000812713,-0.000812713,0.000812713,-0.000812713,0.000812713,-0.000812713,0.000812713,-0.000772773,0.000772773,-0.000772773,0.000772773,6.69E-13,-2.04E-12,-4.80E-13,-6.72E-13,-0.000793212,0.000793212,-0.000812713,0.000812713,-0.000812713,0.000812713,-0.000812713,0.000812713,-0.000812713,0.000812713,-0.000772773,0.000772773,-0.000772773,0.000772773,-0.000772773,0.000772773,-0.000772773,0.000772773,-8.04E-11,8.06E-11,-0.000793212,0.000793212,2.29E-15,1.97E-13,-0.000812713,0.000812713,-0.000812713,0.000812713,-0.000812713,0.000812713,-0.000812713,0.000812713,-0.000772773,0.000772773,-0.000772773,0.000772773,0.759306998,0.563474586,1368840,32768,0.00329958,0.00329958,0.00329958,14.26130194,14.26790862,2.93E-05,2.93E-05,2.93E-05,782813.998,0.009947971
22167759,0.588092565,0.009879914,0.003293305,0.003293305,0.003293305,-0.000798571,0.000798571,8.17E-11,-7.92E-11,-1.24E-13,2.60E-12,-0.000818248,0.000818248,-0.000818248,0.000818248,-0.000818248,0.000818248,-0.000818248,0.000818248,-0.000777952,0.000777952,-0.000777952,0.000777952,6.66E-13,-2.03E-12,-4.59E-13,-6.51E-13,-0.000798571,0.000798571,-0.000818248,0.000818248,-0.000818248,0.000818248,-0.000818248,0.000818248,-0.000818248,0.000818248,-0.000777952,0.000777952,-0.000777952,0.000777952,-0.000777952,0.000777952,-0.000777952,0.000777952,-8.04E-11,8.06E-11,-0.000798571,0.000798571,6.91E-15,2.02E-13,-0.000818248,0.000818248,-0.000818248,0.000818248,-0.000818248,0.000818248,-0.000818248,0.000818248,-0.000777952,0.000777952,-0.000777952,0.000777952,0.757570679,0.544361315,1368840,32768,0.003321836,0.003321836,0.003321836,14.41209304,14.41871467,3.05E-05,3.05E-05,3.05E-05,791689.142,0.010015407
22254159,0.591980517,0.009944426,0.003314809,0.003314809,0.003314809,-0.000803997,0.000803997,8.17E-11,-7.92E-11,-1.22E-13,2.61E-12,-0.000823841,0.000823841,-0.000823841,0.000823841,-0.000823841,0.000823841,-0.000823841,0.000823841,-0.000783217,0.000783217,-0.000783217,0.000783217,6.72E-13,-2.04E-12,-4.51E-13,-6.51E-13,-0.000803997,0.000803997,-0.000823841,0.000823841,-0.000823841,0.000823841,-0.000823841,0.000823841,-0.000823841,0.000823841,-0.000783217,0.000783217,-0.000783217,0.000783217,-0.000783217,0.000783217,-0.000783217,0.000783217,-8.04E-11,8.06E-11,-0.000803997,0.000803997,1.24E-15,2.05E-13,-0.000823841,0.000823841,-0.000823841,0.000823841,-0.000823841,0.000823841,-0.000823841,0.000823841,-0.000783217,0.000783217,-0.000783217,0.000783217,0.762111295,0.628029097,1368840,32768,0.003344368,0.003344368,0.003344368,14.56289811,14.56952073,3.17E-05,3.17E-05,3.17E-05,797622.731,0.010083684
22340559,0.595894874,0.010009513,0.003336504,0.003336504,0.003336504,-0.00080967,0.00080967,8.16E-11,-7.92E-11,-1.36E-13,2.60E-12,-0.000829573,0.000829573,-0.000829573,0.000829573,-0.000829573,0.000829573,-0.000829573,0.000829573,-0.000788838,0.000788838,-0.000788838,0.000788838,6.94E-13,-2.01E-12,-4.39E-13,-6.48E-13,-0.00080967,0.00080967,-0.000829573,0.000829573,-0.000829573,0.000829573,-0.000829573,0.000829573,-0.000829573,0.000829573,-0.000788838,0.000788838,-0.000788838,0.000788838,-0.000788838,0.000788838,-0.000788838,0.000788838,-8.03E-11,8.06E-11,-0.00080967,0.00080967,6.74E-15,2.19E-13,-0.000829573,0.000829573,-0.000829573,0.000829573,-0.000829573,0.000829573,-0.000829573,0.000829573,-0.000788838,0.000788838,-0.000788838,0.000788838,0.763762319,0.659641842,1368840,32768,0.003367928,0.003367928,0.003367928,14.71370412,14.72032678,3.29E-05,3.29E-05,3.29E-05,772399.2467,0.01015508
22426959,0.599835276,0.010075202,0.003358401,0.003358401,0.003358401,-0.000815291,0.000815291,8.16E-11,-7.92E-11,-1.07E-13,2.58E-12,-0.000835299,0.000835299,-0.000835299,0.000835299,-0.000835299,0.000835299,-0.000835299,0.000835299,-0.000794365,0.000794366,-0.000794366,0.000794365,6.43E-13,-2.02E-12,-4.63E-13,-6.47E-13,-0.000815291,0.000815291,-0.000835299,0.000835299,-0.000835299,0.000835299,-0.000835299,0.000835299,-0.000835299,0.000835299,-0.000794365,0.000794365,-0.000794365,0.000794365,-0.000794365,0.000794365,-0.000794365,0.000794365,-8.03E-11,8.06E-11,-0.000815291,0.000815291,8.42E-15,1.96E-13,-0.000835299,0.000835299,-0.000835299,0.000835299,-0.000835299,0.000835299,-0.000835299,0.000835299,-0.000794365,0.000794366,-0.000794366,0.000794365,0.765445333,0.689966163,1368840,32768,0.003391269,0.003391269,0.003391269,14.86451023,14.87113283,3.41E-05,3.41E-05,3.41E-05,761429.0562,0.010225816
22513359,0.603801061,0.010141394,0.003380465,0.003380465,0.003380465,-0.000820949,0.000820949,8.17E-11,-7.92E-11,-1.19E-13,2.60E-12,-0.000841063,0.000841063,-0.000841063,0.000841063,-0.000841063,0.000841063,-0.000841063,0.000841063,-0.000799933,0.000799933,-0.000799933,0.000799933,6.77E-13,-2.01E-12,-4.46E-13,-6.30E-13,-0.000820949,0.000820949,-0.000841063,0.000841063,-0.000841063,0.000841063,-0.000841063,0.000841063,-0.000841063,0.000841063,-0.000799933,0.000799933,-0.000799933,0.000799933,-0.000799933,0.000799933,-0.000799933,0.000799933,-8.04E-11,8.06E-11,-0.000820949,0.000820949,1.02E-14,1.97E-13,-0.000841063,0.000841063,-0.000841063,0.000841063,-0.000841063,0.000841063,-0.000841063,0.000841063,-0.000799933,0.000799933,-0.000799933,0.000799933,0.766231979,0.702846386,1368840,32768,0.003414764,0.003414764,0.003414764,15.01531632,15.02193888,3.53E-05,3.53E-05,3.53E-05,750507.4482,0.010297026
22599759,0.60779162,0.010208085,0.003402695,0.003402695,0.003402695,-0.000826616,0.000826616,8.16E-11,-7.92E-11,-1.12E-13,2.59E-12,-0.000846849,0.000846849,-0.000846849,0.000846849,-0.000846849,0.000846849,-0.000846849,0.000846849,-0.000805497,0.000805498,-0.000805498,0.000805498,6.78E-13,-1.99E-12,-4.46E-13,-6.26E-13,-0.000826616,0.000826616,-0.000846849,0.000846849,-0.000846849,0.000846849,-0.000846849,0.000846849,-0.000846849,0.000846849,-0.000805498,0.000805498,-0.000805498,0.000805498,-0.000805498,0.000805498,-0.000805498,0.000805498,-8.04E-11,8.06E-11,-0.000826616,0.000826616,7.85E-15,1.90E-13,-0.000846849,0.000846849,-0.000846849,0.000846849,-0.000846849,0.000846849,-0.000846849,0.000846849,-0.000805497,0.000805498,-0.000805498,0.000805497,0.767076607,0.715726609,1368840,32768,0.003438296,0.003438296,0.003438296,15.16612242,15.17274493,3.65E-05,3.65E-05,3.65E-05,743625.499,0.010368351
22686159,0.611781877,0.010274859,0.003424953,0.003424953,0.003424953,-0.000832122,0.000832122,8.16E-11,-7.92E-11,-1.08E-13,2.57E-12,-0.000852472,0.000852472,-0.000852472,0.000852472,-0.000852472,0.000852472,-0.000852472,0.000852472,-0.000810905,0.000810905,-0.000810905,0.000810905,6.80E-13,-1.98E-12,-4.33E-13,-6.16E-13,-0.000832122,0.000832122,-0.000852472,0.000852472,-0.000852472,0.000852472,-0.000852472,0.000852472,-0.000852472,0.000852472,-0.000810905,0.000810905,-0.000810905,0.000810905,-0.000810905,0.000810905,-0.000810905,0.000810905,-8.03E-11,8.06E-11,-0.000832122,0.000832122,7.32E-15,1.93E-13,-0.000852472,0.000852472,-0.000852472,0.000852472,-0.000852472,0.000852472,-0.000852472,0.000852472,-0.000810905,0.000810905,-0.000810905,0.000810905,0.767987832,0.728606832,1368840,32768,0.003461158,0.003461158,0.003461158,15.2297849,15.23266785,3.70E-05,3.70E-05,3.70E-05,736434.4149,0.010437652
22772559,0.615767064,0.010341643,0.003447214,0.003447214,0.003447214,-0.0008376,0.0008376,8.16E-11,-7.92E-11,-1.10E-13,2.56E-12,-0.000858062,0.000858062,-0.000858062,0.000858062,-0.000858062,0.000858062,-0.000858062,0.000858062,-0.000816291,0.000816291,-0.000816291,0.000816291,6.84E-13,-1.96E-12,-4.19E-13,-6.11E-13,-0.0008376,0.0008376,-0.000858062,0.000858062,-0.000858062,0.000858062,-0.000858062,0.000858062,-0.000858062,0.000858062,-0.000816291,0.000816291,-0.000816291,0.000816291,-0.000816291,0.000816291,-0.000816291,0.000816291,-8.03E-11,8.05E-11,-0.0008376,0.0008376,8.32E-15,2.03E-13,-0.000858062,0.000858062,-0.000858062,0.000858062,-0.000858062,0.000858062,-0.000858062,0.000858062,-0.000816291,0.000816291,-0.000816291,0.000816291,0.768975151,0.741487055,1368840,32768,0.003483903,0.003483903,0.003483903,15.27847119,15.28062724,3.74E-05,3.74E-05,3.74E-05,728635.5945,0.010506603
22858959,0.61974644,0.010406918,0.003468973,0.003468973,0.003468973,-0.000842956,0.000842956,8.16E-11,-7.92E-11,-8.85E-14,2.56E-12,-0.000863567,0.000863567,-0.000863567,0.000863567,-0.000863567,0.000863567,-0.000863567,0.000863567,-0.000821487,0.000821487,-0.000821487,0.000821487,6.74E-13,-1.94E-12,-4.01E-13,-6.16E-13,-0.000842956,0.000842956,-0.000863567,0.000863567,-0.000863567,0.000863567,-0.000863567,0.000863567,-0.000863567,0.000863567,-0.000821487,0.000821487,-0.000821487,0.000821487,-0.000821487,0.000821487,-0.000821487,0.000821487,-8.03E-11,8.06E-11,-0.000842956,0.000842956,-7.91E-15,2.10E-13,-0.000863567,0.000863567,-0.000863567,0.000863567,-0.000863567,0.000863567,-0.000863567,0.000863567,-0.000821487,0.000821487,-0.000821487,0.000821487,0.752692524,0.492634592,1368840,32768,0.003506141,0.003506141,0.003506141,15.32647705,15.32858662,3.78E-05,3.78E-05,3.78E-05,729134.0827,0.010574022
22945359,0.623719373,0.010472227,0.003490742,0.003490742,0.003490742,-0.000847805,0.000847805,8.16E-11,-7.92E-11,-1.03E-13,2.53E-12,-0.000868827,0.000868827,-0.000868827,0.000868827,-0.000868827,0.000868827,-0.000868827,0.000868827,-0.00082593,0.00082593,-0.00082593,0.00082593,6.82E-13,-1.92E-12,-3.78E-13,-6.02E-13,-0.000847805,0.000847805,-0.000868827,0.000868827,-0.000868827,0.000868827,-0.000868827,0.000868827,-0.000868827,0.000868827,-0.00082593,0.00082593,-0.00082593,0.00082593,-0.00082593,0.00082593,-0.00082593,0.00082593,-8.03E-11,8.05E-11,-0.000847805,0.000847805,-1.07E-14,2.17E-13,-0.000868827,0.000868827,-0.000868827,0.000868827,-0.000868827,0.000868827,-0.000868827,0.000868827,-0.00082593,0.00082593,-0.00082593,0.00082593,0.754308318,0.529446367,1368840,32768,0.003526274,0.003526274,0.003526274,15.37443957,15.37654601,3.82E-05,3.82E-05,3.82E-05,800079.6625,0.010635061
23031759,0.627684923,0.010537456,0.003512485,0.003512485,0.003512485,-0.000853203,0.000853203,8.16E-11,-7.92E-11,-9.38E-14,2.52E-12,-0.000874352,0.000874352,-0.000874352,0.000874352,-0.000874352,0.000874352,-0.000874352,0.000874352,-0.0008312,0.000831201,-0.000831201,0.0008312,6.88E-13,-1.90E-12,-3.58E-13,-5.99E-13,-0.000853203,0.000853203,-0.000874352,0.000874352,-0.000874352,0.000874352,-0.000874352,0.000874352,-0.000874352,0.000874352,-0.0008312,0.0008312,-0.0008312,0.0008312,-0.0008312,0.0008312,-0.0008312,0.0008312,-8.03E-11,8.06E-11,-0.000853203,0.000853203,-1.12E-14,2.32E-13,-0.000874352,0.000874352,-0.000874352,0.000874352,-0.000874352,0.000874352,-0.000874352,0.000874352,-0.0008312,0.000831201,-0.000831201,0.0008312,0.755525467,0.558064684,1368840,32768,0.003548687,0.003548687,0.003548687,15.42239916,15.42450539,3.86E-05,3.86E-05,3.86E-05,791442.3078,0.01070302
23118159,0.631642995,0.010602514,0.003534171,0.003534171,0.003534171,-0.000858571,0.000858571,8.16E-11,-7.92E-11,-9.07E-14,2.51E-12,-0.000879854,0.000879854,-0.000879854,0.000879854,-0.000879854,0.000879854,-0.000879854,0.000879854,-0.000836432,0.000836432,-0.000836432,0.000836432,6.88E-13,-1.88E-12,-3.52E-13,-5.95E-13,-0.000858571,0.000858571,-0.000879854,0.000879854,-0.000879854,0.000879854,-0.000879854,0.000879854,-0.000879854,0.000879854,-0.000836432,0.000836432,-0.000836432,0.000836432,-0.000836432,0.000836432,-0.000836432,0.000836432,-8.03E-11,8.05E-11,-0.000858571,0.000858571,-1.32E-14,2.33E-13,-0.000879854,0.000879854,-0.000879854,0.000879854,-0.000879854,0.000879854,-0.000879854,0.000879854,-0.000836432,0.000836432,-0.000836432,0.000836432,0.754877711,0.555201594,1368840,32768,0.003570974,0.003570974,0.003570974,15.47035855,15.47246478,3.90E-05,3.90E-05,3.90E-05,785361.2017,0.010770602
23204559,0.635593029,0.010667737,0.003555912,0.003555912,0.003555912,-0.000863889,0.000863889,8.16E-11,-7.92E-11,-8.88E-14,2.52E-12,-0.000885326,0.000885326,-0.000885326,0.000885326,-0.000885326,0.000885326,-0.000885326,0.000885326,-0.000841602,0.000841602,-0.000841602,0.000841602,5.24E-13,-2.06E-12,-5.31E-13,-7.67E-13,-0.000863889,0.000863889,-0.000885326,0.000885326,-0.000885326,0.000885326,-0.000885326,0.000885326,-0.000885326,0.000885326,-0.000841602,0.000841602,-0.000841602,0.000841602,-0.000841602,0.000841602,-0.000841602,0.000841602,-8.03E-11,8.06E-11,-0.000863889,0.000863889,-1.93E-15,2.37E-13,-0.000885326,0.000885326,-0.000885326,0.000885326,-0.000885326,0.000885326,-0.000885326,0.000885326,-0.000841602,0.000841602,-0.000841602,0.000841602,0.758254665,0.618288439,1368840,32768,0.003593052,0.003593052,0.003593052,15.51831795,15.52042416,3.93E-05,3.93E-05,3.93E-05,785888.5758,0.010837553
23290959,0.639534445,0.010733119,0.003577706,0.003577706,0.003577706,-0.000869357,0.000869357,8.16E-11,-7.93E-11,-1.08E-13,2.49E-12,-0.000890875,0.000890875,-0.000890875,0.000890875,-0.000890875,0.000890875,-0.000890875,0.000890875,-0.000847003,0.000847003,-0.000847003,0.000847003,5.17E-13,-2.05E-12,-5.32E-13,-7.66E-13,-0.000869357,0.000869357,-0.000890875,0.000890875,-0.000890875,0.000890875,-0.000890875,0.000890875,-0.000890875,0.000890875,-0.000847003,0.000847003,-0.000847003,0.000847003,-0.000847003,0.000847003,-0.000847003,0.000847003,-8.03E-11,8.06E-11,-0.000869357,0.000869357,-6.34E-15,2.31E-13,-0.000890875,0.000890875,-0.000890875,0.000890875,-0.000890875,0.000890875,-0.000890875,0.000890875,-0.000847003,0.000847003,-0.000847003,0.000847003,0.761737717,0.681375284,1368840,32768,0.003615754,0.003615754,0.003615754,15.56627737,15.56838355,3.97E-05,3.97E-05,3.97E-05,766301.5036,0.010906399
23377359,0.643466814,0.010798166,0.003599389,0.003599389,0.003599389,-0.000874793,0.000874793,8.16E-11,-7.92E-11,-1.01E-13,2.50E-12,-0.000896395,0.000896395,-0.000896395,0.000896395,-0.000896395,0.000896395,-0.000896395,0.000896395,-0.000852363,0.000852363,-0.000852363,0.000852363,5.19E-13,-2.06E-12,-5.29E-13,-7.66E-13,-0.000874793,0.000874793,-0.000896395,0.000896395,-0.000896395,0.000896395,-0.000896395,0.000896395,-0.000896395,0.000896395,-0.000852363,0.000852363,-0.000852363,0.000852363,-0.000852363,0.000852363,-0.000852363,0.000852363,-8.03E-11,8.06E-11,-0.000874793,0.000874793,-1.76E-14,2.22E-13,-0.000896395,0.000896395,-0.000896395,0.000896395,-0.000896395,0.000896395,-0.000896395,0.000896395,-0.000852363,0.000852363,-0.000852363,0.000852363,0.759367966,0.641962651,1368840,32768,0.003638323,0.003638323,0.003638323,15.61423673,15.61634293,4.01E-05,4.01E-05,4.01E-05,748744.9718,0.010974846
23463759,0.647431642,0.01086328,0.003621093,0.003621093,0.003621093,-0.000880333,0.000880334,8.16E-11,-7.92E-11,-1.44E-13,2.45E-12,-0.000902128,0.000902128,-0.000902128,0.000902128,-0.000902128,0.000902128,-0.000902128,0.000902128,-0.00085771,0.00085771,-0.00085771,0.00085771,5.20E-13,-2.05E-12,-4.48E-13,-7.22E-13,-0.000880334,0.000880334,-0.000902128,0.000902128,-0.000902128,0.000902128,-0.000902128,0.000902128,-0.000902128,0.000902128,-0.00085771,0.00085771,-0.00085771,0.00085771,-0.00085771,0.00085771,-0.00085771,0.00085771,-8.03E-11,8.06E-11,-0.000880334,0.000880334,-1.95E-14,2.57E-13,-0.000902128,0.000902128,-0.000902128,0.000902128,-0.000902128,0.000902128,-0.000902128,0.000902128,-0.00085771,0.00085771,-0.00085771,0.00085771,0.753778277,0.556089247,1368840,32768,0.003661322,0.003661322,0.003661322,15.81665907,15.82539414,4.17E-05,4.17E-05,4.17E-05,759723.2891,0.011044604
23550159,0.651434207,0.01092912,0.00364304,0.00364304,0.00364304,-0.000885871,0.000885871,8.15E-11,-7.92E-11,-1.15E-13,2.48E-12,-0.000907921,0.000907921,-0.000907921,0.000907921,-0.000907921,0.000907921,-0.000907921,0.000907921,-0.000863001,0.000863001,-0.000863001,0.000863001,5.21E-13,-2.05E-12,-4.91E-13,-7.73E-13,-0.000885871,0.000885871,-0.000907921,0.000907921,-0.000907921,0.000907921,-0.000907921,0.000907921,-0.000907921,0.000907921,-0.000863001,0.000863001,-0.000863001,0.000863001,-0.000863001,0.000863001,-0.000863001,0.000863001,-8.03E-11,8.05E-11,-0.000885871,0.000885871,-3.15E-14,2.54E-13,-0.000907921,0.000907921,-0.000907921,0.000907921,-0.000907921,0.000907921,-0.000907921,0.000907921,-0.000863001,0.000863001,-0.000863001,0.000863001,0.755106763,0.584896388,1368840,32768,0.003684311,0.003684311,0.003684311,16.0414502,16.05129455,4.35E-05,4.35E-05,4.35E-05,783906.6992,0.011114339
23636559,0.655474002,0.010996061,0.003665354,0.003665354,0.003665354,-0.00089174,0.00089174,8.15E-11,-7.92E-11,-9.59E-14,2.51E-12,-0.000913907,0.000913907,-0.000913907,0.000913907,-0.000913907,0.000913907,-0.000913907,0.000913907,-0.000868768,0.000868768,-0.000868768,0.000868768,5.29E-13,-2.05E-12,-5.09E-13,-7.87E-13,-0.00089174,0.00089174,-0.000913907,0.000913907,-0.000913907,0.000913907,-0.000913907,0.000913907,-0.000913907,0.000913907,-0.000868768,0.000868768,-0.000868768,0.000868768,-0.000868768,0.000868768,-0.000868768,0.000868768,-8.03E-11,8.05E-11,-0.00089174,0.00089174,-3.06E-14,2.50E-13,-0.000913907,0.000913907,-0.000913907,0.000913907,-0.000913907,0.000913907,-0.000913907,0.000913907,-0.000868768,0.000868768,-0.000868768,0.000868768,0.760869605,0.689925049,1368840,32768,0.003708673,0.003708673,0.003708673,16.26727942,16.27719496,4.53E-05,4.53E-05,4.53E-05,773140.3944,0.011188239
23722959,0.659550454,0.011064041,0.003688014,0.003688014,0.003688014,-0.000897843,0.000897843,8.15E-11,-7.93E-11,-1.70E-13,2.44E-12,-0.000920037,0.000920037,-0.000920037,0.000920037,-0.000920037,0.000920037,-0.000920037,0.000920037,-0.000874868,0.000874868,-0.000874868,0.000874868,4.56E-13,-2.13E-12,-5.64E-13,-8.32E-13,-0.000897843,0.000897843,-0.000920037,0.000920037,-0.000920037,0.000920037,-0.000920037,0.000920037,-0.000920037,0.000920037,-0.000874868,0.000874868,-0.000874868,0.000874868,-0.000874868,0.000874868,-0.000874868,0.000874868,-8.02E-11,8.06E-11,-0.000897843,0.000897843,1.53E-14,2.86E-13,-0.000920037,0.000920037,-0.000920037,0.000920037,-0.000920037,0.000920037,-0.000920037,0.000920037,-0.000874868,0.000874868,-0.000874868,0.000874868,0.765585298,0.768753728,1368840,32768,0.003734009,0.003734009,0.003734009,16.49317552,16.50309537,4.71E-05,4.71E-05,4.71E-05,740678.8965,0.011265101
23809359,0.663662842,0.011132987,0.003710996,0.003710996,0.003710996,-0.000903961,0.000903961,8.15E-11,-7.92E-11,-1.26E-13,2.45E-12,-0.000926203,0.000926203,-0.000926203,0.000926203,-0.000926203,0.000926203,-0.000926203,0.000926203,-0.00088097,0.00088097,-0.00088097,0.00088097,5.43E-13,-2.01E-12,-4.49E-13,-6.49E-13,-0.000903961,0.000903961,-0.000926203,0.000926203,-0.000926203,0.000926203,-0.000926203,0.000926203,-0.000926203,0.000926203,-0.00088097,0.00088097,-0.00088097,0.00088097,-0.00088097,0.00088097,-0.00088097,0.00088097,-8.02E-11,8.06E-11,-0.000903961,0.000903961,8.62E-15,2.11E-13,-0.000926203,0.000926203,-0.000926203,0.000926203,-0.000926203,0.000926203,-0.000926203,0.000926203,-0.00088097,0.00088097,-0.00088097,0.00088097,0.769292522,0.816365483,1368840,32768,0.003759405,0.003759405,0.003759405,16.71907622,16.72899578,4.90E-05,4.90E-05,4.90E-05,715002.9135,0.011342151
23895759,0.667810236,0.011202933,0.003734311,0.003734311,0.003734311,-0.000910098,0.000910098,8.15E-11,-7.92E-11,-1.15E-13,2.51E-12,-0.000932406,0.000932406,-0.000932406,0.000932406,-0.000932406,0.000932406,-0.000932406,0.000932406,-0.000887078,0.000887079,-0.000887079,0.000887078,4.62E-13,-2.14E-12,-6.10E-13,-7.45E-13,-0.000910098,0.000910098,-0.000932406,0.000932406,-0.000932406,0.000932406,-0.000932406,0.000932406,-0.000932406,0.000932406,-0.000887079,0.000887079,-0.000887079,0.000887079,-0.000887079,0.000887079,-0.000887079,0.000887079,-8.03E-11,8.04E-11,-0.000910098,0.000910098,-2.60E-14,1.11E-13,-0.000932406,0.000932406,-0.000932406,0.000932406,-0.000932406,0.000932406,-0.000932406,0.000932406,-0.000887078,0.000887079,-0.000887079,0.000887078,0.773551583,0.863977238,1368840,32768,0.003784879,0.003784879,0.003784879,16.94497743,16.95489619,5.08E-05,5.08E-05,5.08E-05,695332.4355,0.011419444
23982159,0.671991651,0.011273832,0.003757944,0.003757944,0.003757944,-0.000916308,0.000916308,8.17E-11,-7.91E-11,-7.45E-14,2.70E-12,-0.000938674,0.000938674,-0.000938674,0.000938674,-0.000938674,0.000938674,-0.000938674,0.000938674,-0.000893274,0.000893274,-0.000893274,0.000893274,6.74E-13,-2.07E-12,-5.78E-13,-7.31E-13,-0.000916308,0.000916308,-0.000938674,0.000938674,-0.000938674,0.000938674,-0.000938674,0.000938674,-0.000938674,0.000938674,-0.000893274,0.000893274,-0.000893274,0.000893274,-0.000893274,0.000893274,-0.000893274,0.000893274,-8.03E-11,8.05E-11,-0.000916308,0.000916308,-5.67E-14,9.79E-14,-0.000938674,0.000938674,-0.000938674,0.000938674,-0.000938674,0.000938674,-0.000938674,0.000938674,-0.000893274,0.000893274,-0.000893274,0.000893274,0.777450042,0.896261519,1368840,32768,0.003810656,0.003810656,0.003810656,17.17087861,17.1807966,5.26E-05,5.26E-05,5.26E-05,674679.9478,0.011497661
24068559,0.676206081,0.011344014,0.003781338,0.003781338,0.003781338,-0.000922439,0.000922439,8.16E-11,-7.92E-11,-1.92E-13,2.66E-12,-0.000944909,0.000944909,-0.000944909,0.000944909,-0.000944909,0.000944909,-0.000944909,0.000944909,-0.000899314,0.000899314,-0.000899314,0.000899314,6.01E-13,-2.22E-12,-6.03E-13,-7.99E-13,-0.000922439,0.000922439,-0.000944909,0.000944909,-0.000944909,0.000944909,-0.000944909,0.000944909,-0.000944909,0.000944909,-0.000899314,0.000899314,-0.000899314,0.000899314,-0.000899314,0.000899314,-0.000899314,0.000899314,-8.03E-11,8.05E-11,-0.000922439,0.000922439,-1.55E-14,1.82E-13,-0.000944909,0.000944909,-0.000944909,0.000944909,-0.000944909,0.000944909,-0.000944909,0.000944909,-0.000899314,0.000899314,-0.000899314,0.000899314,0.763364762,0.657277474,1368840,32768,0.003836105,0.003836105,0.003836105,17.39677655,17.40669701,5.44E-05,5.44E-05,5.44E-05,663781.698,0.011574891
24154959,0.680452394,0.011414823,0.003804941,0.003804941,0.003804941,-0.000928149,0.000928149,8.16E-11,-7.92E-11,-1.91E-13,2.64E-12,-0.000950964,0.000950964,-0.000950964,0.000950964,-0.000950964,0.000950964,-0.000950964,0.000950964,-0.000904704,0.000904705,-0.000904705,0.000904704,5.72E-13,-2.23E-12,-5.90E-13,-7.49E-13,-0.000928149,0.000928149,-0.000950964,0.000950964,-0.000950964,0.000950964,-0.000950964,0.000950964,-0.000950964,0.000950964,-0.000904704,0.000904704,-0.000904704,0.000904704,-0.000904704,0.000904704,-0.000904704,0.000904704,-8.03E-11,8.05E-11,-0.000928149,0.000928149,1.32E-14,1.74E-13,-0.000950964,0.000950964,-0.000950964,0.000950964,-0.000950964,0.000950964,-0.000950964,0.000950964,-0.000904704,0.000904705,-0.000904705,0.000904704,0.76429279,0.679523675,1368840,32768,0.003859804,0.003859804,0.003859804,17.62267689,17.63259742,5.62E-05,5.62E-05,5.62E-05,710391.1261,0.011646815
24241359,0.684692059,0.011485577,0.003828526,0.003828526,0.003828526,-0.000934057,0.000934057,8.16E-11,-7.92E-11,-1.88E-13,2.63E-12,-0.000956987,0.000956987,-0.000956987,0.000956987,-0.000956987,0.000956987,-0.000956987,0.000956987,-0.000910518,0.000910519,-0.000910519,0.000910518,5.82E-13,-2.21E-12,-5.93E-13,-7.54E-13,-0.000934057,0.000934057,-0.000956987,0.000956987,-0.000956987,0.000956987,-0.000956987,0.000956987,-0.000956987,0.000956987,-0.000910518,0.000910518,-0.000910518,0.000910518,-0.000910518,0.000910518,-0.000910518,0.000910518,-8.03E-11,8.05E-11,-0.000934057,0.000934057,1.59E-14,1.79E-13,-0.000956987,0.000956987,-0.000956987,0.000956987,-0.000956987,0.000956987,-0.000956987,0.000956987,-0.000910518,0.000910519,-0.000910519,0.000910518,0.76536234,0.701769876,1368840,32768,0.003884326,0.003884326,0.003884326,17.71944205,17.72382089,5.70E-05,5.70E-05,5.70E-05,700939.9284,0.011721239
24327759,0.68892009,0.01155626,0.003852087,0.003852087,0.003852087,-0.000939931,0.000939931,8.16E-11,-7.92E-11,-1.75E-13,2.63E-12,-0.00096297,0.00096297,-0.00096297,0.00096297,-0.00096297,0.00096297,-0.00096297,0.00096297,-0.000916307,0.000916307,-0.000916307,0.000916307,5.75E-13,-2.20E-12,-6.05E-13,-7.55E-13,-0.000939931,0.000939931,-0.00096297,0.00096297,-0.00096297,0.00096297,-0.00096297,0.00096297,-0.00096297,0.00096297,-0.000916307,0.000916307,-0.000916307,0.000916307,-0.000916307,0.000916307,-0.000916307,0.000916307,-8.03E-11,8.05E-11,-0.000939931,0.000939931,1.20E-14,1.63E-13,-0.00096297,0.00096297,-0.00096297,0.00096297,-0.00096297,0.00096297,-0.00096297,0.00096297,-0.000916307,0.000916307,-0.000916307,0.000916307,0.76658846,0.724016077,1368840,32768,0.003908702,0.003908702,0.003908702,17.80083569,17.80443002,5.76E-05,5.76E-05,5.76E-05,690767.6595,0.01179523
24414159,0.693135464,0.011626573,0.003875524,0.003875524,0.003875524,-0.000945773,0.000945773,8.16E-11,-7.92E-11,-1.64E-13,2.61E-12,-0.000968923,0.000968923,-0.000968923,0.000968923,-0.000968923,0.000968923,-0.000968923,0.000968923,-0.000922058,0.000922058,-0.000922058,0.000922058,5.67E-13,-2.18E-12,-6.11E-13,-7.60E-13,-0.000945773,0.000945773,-0.000968923,0.000968923,-0.000968923,0.000968923,-0.000968923,0.000968923,-0.000968923,0.000968923,-0.000922058,0.000922058,-0.000922058,0.000922058,-0.000922058,0.000922058,-0.000922058,0.000922058,-8.03E-11,8.05E-11,-0.000945773,0.000945773,1.49E-14,1.67E-13,-0.000968923,0.000968923,-0.000968923,0.000968923,-0.000968923,0.000968923,-0.000968923,0.000968923,-0.000922058,0.000922058,-0.000922058,0.000922058,0.764758963,0.694206779,1368840,32768,0.003932951,0.003932951,0.003932951,17.8814955,17.88503916,5.83E-05,5.83E-05,5.83E-05,681450.5691,0.011868837
24500559,0.697337351,0.011696895,0.003898965,0.003898965,0.003898965,-0.000951522,0.000951522,8.16E-11,-7.92E-11,-1.58E-13,2.60E-12,-0.000974824,0.000974824,-0.000974824,0.000974824,-0.000974824,0.000974824,-0.000974824,0.000974824,-0.000927681,0.000927681,-0.000927681,0.000927681,5.66E-13,-2.17E-12,-5.99E-13,-7.42E-13,-0.000951522,0.000951522,-0.000974824,0.000974824,-0.000974824,0.000974824,-0.000974824,0.000974824,-0.000974824,0.000974824,-0.000927681,0.000927681,-0.000927681,0.000927681,-0.000927681,0.000927681,-0.000927681,0.000927681,-8.03E-11,8.05E-11,-0.000951522,0.000951522,1.32E-14,1.58E-13,-0.000974824,0.000974824,-0.000974824,0.000974824,-0.000974824,0.000974824,-0.000974824,0.000974824,-0.000927681,0.000927681,-0.000927681,0.000927681,0.767205637,0.737500278,1368840,32768,0.003956808,0.003956808,0.003956808,17.96210816,17.96564829,5.89E-05,5.89E-05,5.89E-05,682245.3052,0.011941262
24586959,0.701524896,0.011767351,0.00392245,0.00392245,0.00392245,-0.000957414,0.000957414,8.16E-11,-7.92E-11,-1.68E-13,2.59E-12,-0.000980788,0.000980788,-0.000980788,0.000980788,-0.000980788,0.000980788,-0.000980788,0.000980788,-0.000933534,0.000933534,-0.000933534,0.000933534,5.34E-13,-2.19E-12,-6.21E-13,-7.85E-13,-0.000957414,0.000957414,-0.000980788,0.000980788,-0.000980788,0.000980788,-0.000980788,0.000980788,-0.000980788,0.000980788,-0.000933534,0.000933534,-0.000933534,0.000933534,-0.000933534,0.000933534,-0.000933534,0.000933534,-8.04E-11,8.05E-11,-0.000957414,0.000957414,-2.12E-14,1.45E-13,-0.000980788,0.000980788,-0.000980788,0.000980788,-0.000980788,0.000980788,-0.000980788,0.000980788,-0.000933534,0.000933534,-0.000933534,0.000933534,0.771296575,0.801586039,1368840,32768,0.003981262,0.003981262,0.003981262,18.04271779,18.04625743,5.95E-05,5.95E-05,5.95E-05,665616.5971,0.012015502
24673359,0.705697383,0.011838008,0.003946003,0.003946003,0.003946003,-0.000963355,0.000963355,8.16E-11,-7.92E-11,-1.73E-13,2.62E-12,-0.000986772,0.000986772,-0.000986772,0.000986772,-0.000986772,0.000986772,-0.000986772,0.000986772,-0.000939474,0.000939474,-0.000939474,0.000939474,5.73E-13,-2.19E-12,-6.04E-13,-7.66E-13,-0.000963355,0.000963355,-0.000986772,0.000986772,-0.000986772,0.000986772,-0.000986772,0.000986772,-0.000986772,0.000986772,-0.000939474,0.000939474,-0.000939474,0.000939474,-0.000939474,0.000939474,-0.000939474,0.000939474,-8.03E-11,8.05E-11,-0.000963355,0.000963355,1.09E-14,1.74E-13,-0.000986772,0.000986772,-0.000986772,0.000986772,-0.000986772,0.000986772,-0.000986772,0.000986772,-0.000939474,0.000939474,-0.000939474,0.000939474,0.776096203,0.8656718,1368840,32768,0.004005919,0.004005919,0.004005919,18.12332734,18.12686656,6.02E-05,6.02E-05,6.02E-05,643554.4958,0.012090365
24759759,0.709854036,0.011907057,0.003969019,0.003969019,0.003969019,-0.000969167,0.000969167,8.16E-11,-7.92E-11,-1.69E-13,2.62E-12,-0.00099266,0.00099266,-0.00099266,0.00099266,-0.00099266,0.00099266,-0.00099266,0.00099266,-0.000945217,0.000945217,-0.000945217,0.000945217,5.71E-13,-2.19E-12,-5.66E-13,-7.60E-13,-0.000969167,0.000969167,-0.00099266,0.00099266,-0.00099266,0.00099266,-0.00099266,0.00099266,-0.00099266,0.00099266,-0.000945217,0.000945217,-0.000945217,0.000945217,-0.000945217,0.000945217,-0.000945217,0.000945217,-8.03E-11,8.05E-11,-0.000969167,0.000969167,2.37E-15,1.98E-13,-0.00099266,0.00099266,-0.00099266,0.00099266,-0.00099266,0.00099266,-0.00099266,0.00099266,-0.000945217,0.000945217,-0.000945217,0.000945217,0.761088648,0.621652631,1368840,32768,0.004030037,0.004030037,0.004030037,18.20393568,18.2074757,6.08E-05,6.08E-05,6.08E-05,628203.8758,0.012163598
24846159,0.713994021,0.011975344,0.003991781,0.003991781,0.003991781,-0.000974374,0.000974374,8.16E-11,-7.92E-11,-1.39E-13,2.64E-12,-0.00099823,0.00099823,-0.00099823,0.00099823,-0.00099823,0.00099823,-0.00099823,0.00099823,-0.000950068,0.000950068,-0.000950068,0.000950068,5.77E-13,-2.18E-12,-5.66E-13,-7.60E-13,-0.000974374,0.000974374,-0.00099823,0.00099823,-0.00099823,0.00099823,-0.00099823,0.00099823,-0.00099823,0.00099823,-0.000950068,0.000950068,-0.000950068,0.000950068,-0.000950068,0.000950068,-0.000950068,0.000950068,-8.03E-11,8.05E-11,-0.000974374,0.000974374,3.39E-14,2.30E-13,-0.00099823,0.00099823,-0.00099823,0.00099823,-0.00099823,0.00099823,-0.00099823,0.00099823,-0.000950068,0.000950068,-0.000950068,0.000950068,0.755563569,0.546302417,1368840,32768,0.004051644,0.004051644,0.004051644,18.2845447,18.28808483,6.15E-05,6.15E-05,6.15E-05,676557.4729,0.01222921
24932559,0.718116279,0.012043044,0.004014348,0.004014348,0.004014348,-0.000979802,0.000979802,8.16E-11,-7.92E-11,-1.53E-13,2.61E-12,-0.001003905,0.001003905,-0.001003905,0.001003905,-0.001003905,0.001003905,-0.001003905,0.001003905,-0.000955253,0.000955253,-0.000955253,0.000955253,5.53E-13,-2.18E-12,-5.75E-13,-7.90E-13,-0.000979802,0.000979802,-0.001003905,0.001003905,-0.001003905,0.001003905,-0.001003905,0.001003905,-0.001003905,0.001003905,-0.000955253,0.000955253,-0.000955253,0.000955253,-0.000955253,0.000955253,-0.000955253,0.000955253,-8.04E-11,8.05E-11,-0.000979802,0.000979802,-1.17E-14,2.05E-13,-0.001003905,0.001003905,-0.001003905,0.001003905,-0.001003905,0.001003905,-0.001003905,0.001003905,-0.000955253,0.000955253,-0.000955253,0.000955253,0.752819538,0.516943268,1368840,32768,0.004074172,0.004074172,0.004074172,18.3651538,18.36869397,6.21E-05,6.21E-05,6.21E-05,695205.3812,0.012297626
25018959,0.722269853,0.012111423,0.004037141,0.004037141,0.004037141,-0.000985725,0.000985725,8.17E-11,-7.92E-11,-1.24E-13,2.60E-12,-0.001010013,0.001010013,-0.001010013,0.001010013,-0.001010013,0.001010013,-0.001010013,0.001010013,-0.000960992,0.000960992,-0.000960992,0.000960992,5.98E-13,-2.10E-12,-5.16E-13,-7.32E-13,-0.000985725,0.000985725,-0.001010013,0.001010013,-0.001010013,0.001010013,-0.001010013,0.001010013,-0.001010013,0.001010013,-0.000960992,0.000960992,-0.000960992,0.000960992,-0.000960992,0.000960992,-0.000960992,0.000960992,-8.03E-11,8.06E-11,-0.000985725,0.000985725,6.36E-15,2.23E-13,-0.001010013,0.001010013,-0.001010013,0.001010013,-0.001010013,0.001010013,-0.001010013,0.001010013,-0.000960992,0.000960992,-0.000960992,0.000960992,0.754851258,0.56223035,1368840,32768,0.004098748,0.004098748,0.004098748,18.62691109,18.63822542,6.42E-05,6.42E-05,6.42E-05,701699.3069,0.012372265
25105359,0.72645816,0.012180565,0.004060188,0.004060188,0.004060188,-0.000991907,0.000991907,8.17E-11,-7.92E-11,-1.61E-13,2.54E-12,-0.001016297,0.001016297,-0.001016297,0.001016297,-0.001016297,0.001016297,-0.001016297,0.001016297,-0.000967079,0.000967079,-0.000967079,0.000967079,5.43E-13,-2.14E-12,-5.37E-13,-7.37E-13,-0.000991907,0.000991907,-0.001016297,0.001016297,-0.001016297,0.001016297,-0.001016297,0.001016297,-0.001016297,0.001016297,-0.000967079,0.000967079,-0.000967079,0.000967079,-0.000967079,0.000967079,-0.000967079,0.000967079,-8.06E-11,8.03E-11,-0.000991907,0.000991907,-1.11E-13,9.03E-14,-0.001016297,0.001016297,-0.001016297,0.001016297,-0.001016297,0.001016297,-0.001016297,0.001016297,-0.000967079,0.000967079,-0.000967079,0.000967079,0.757023633,0.607517433,1368840,32768,0.004124401,0.004124401,0.004124401,18.90577433,18.91799789,6.64E-05,6.64E-05,6.64E-05,689004.8222,0.012450181
25191759,0.730680065,0.012250486,0.004083495,0.004083495,0.004083495,-0.000998154,0.000998154,8.17E-11,-7.92E-11,-8.98E-14,2.55E-12,-0.001022641,0.001022641,-0.001022641,0.001022641,-0.001022641,0.001022641,-0.001022641,0.001022641,-0.000973243,0.000973244,-0.000973244,0.000973243,6.07E-13,-2.01E-12,-5.30E-13,-6.86E-13,-0.000998154,0.000998154,-0.001022641,0.001022641,-0.001022641,0.001022641,-0.001022641,0.001022641,-0.001022641,0.001022641,-0.000973244,0.000973243,-0.000973244,0.000973243,-0.000973243,0.000973244,-0.000973244,0.000973243,-8.05E-11,8.04E-11,-0.000998154,0.000998154,-8.18E-14,7.33E-14,-0.001022641,0.001022641,-0.001022641,0.001022641,-0.001022641,0.001022641,-0.001022641,0.001022641,-0.000973243,0.000973244,-0.000973244,0.000973243,0.759335426,0.652804516,1368840,32768,0.004150324,0.004150324,0.004150324,19.18548769,19.19777035,6.87E-05,6.87E-05,6.87E-05,675611.0787,0.012528922
25278159,0.73493405,0.012321183,0.004107061,0.004107061,0.004107061,-0.001004463,0.001004463,8.17E-11,-7.92E-11,-8.38E-14,2.55E-12,-0.001029041,0.001029041,-0.001029041,0.001029041,-0.001029041,0.001029041,-0.001029041,0.001029041,-0.000979482,0.000979482,-0.000979482,0.000979482,5.30E-13,-2.08E-12,-5.79E-13,-6.87E-13,-0.001004463,0.001004463,-0.001029041,0.001029041,-0.001029041,0.001029041,-0.001029041,0.001029041,-0.001029041,0.001029041,-0.000979482,0.000979482,-0.000979482,0.000979482,-0.000979482,0.000979482,-0.000979482,0.000979482,-8.04E-11,8.06E-11,-0.001004463,0.001004463,4.27E-14,1.52E-13,-0.001029041,0.001029041,-0.001029041,0.001029041,-0.001029041,0.001029041,-0.001029041,0.001029041,-0.000979482,0.000979482,-0.000979482,0.000979482,0.761824927,0.698091598,1368840,32768,0.004176502,0.004176502,0.004176502,19.46525635,19.47754281,7.09E-05,7.09E-05,7.09E-05,661353.0358,0.012608443
25364559,0.7392185,0.012392776,0.004130925,0.004130925,0.004130925,-0.001010843,0.001010843,8.17E-11,-7.93E-11,-1.61E-13,2.50E-12,-0.0010355,0.0010355,-0.0010355,0.0010355,-0.0010355,0.0010355,-0.0010355,0.0010355,-0.000985811,0.000985811,-0.000985811,0.000985811,4.15E-13,-2.22E-12,-6.85E-13,-7.56E-13,-0.001010843,0.001010843,-0.0010355,0.0010355,-0.0010355,0.0010355,-0.0010355,0.0010355,-0.0010355,0.0010355,-0.000985811,0.000985811,-0.000985811,0.000985811,-0.000985811,0.000985811,-0.000985811,0.000985811,-8.05E-11,8.05E-11,-0.001010843,0.001010843,1.85E-14,9.10E-14,-0.0010355,0.0010355,-0.0010355,0.0010355,-0.0010355,0.0010355,-0.0010355,0.0010355,-0.000985811,0.000985811,-0.000985811,0.000985811,0.765835249,0.764087721,1368840,32768,0.004202972,0.004202972,0.004202972,19.74502917,19.75731528,7.32E-05,7.32E-05,7.32E-05,645739.4522,0.012688858
25450959,0.743529825,0.012465824,0.004155275,0.004155275,0.004155275,-0.00101736,0.00101736,8.16E-11,-7.94E-11,-1.00E-13,2.43E-12,-0.001042049,0.001042049,-0.001042049,0.001042049,-0.001042049,0.001042049,-0.001042049,0.001042049,-0.000992355,0.000992355,-0.000992355,0.000992355,5.23E-13,-1.98E-12,-6.08E-13,-6.33E-13,-0.00101736,0.00101736,-0.001042049,0.001042049,-0.001042049,0.001042049,-0.001042049,0.001042049,-0.001042049,0.001042049,-0.000992355,0.000992355,-0.000992355,0.000992355,-0.000992355,0.000992355,-0.000992355,0.000992355,-8.05E-11,8.06E-11,-0.00101736,0.00101736,5.81E-14,8.47E-14,-0.001042049,0.001042049,-0.001042049,0.001042049,-0.001042049,0.001042049,-0.001042049,0.001042049,-0.000992355,0.000992355,-0.000992355,0.000992355,0.776360135,0.987112124,1368840,32768,0.004230014,0.004230014,0.004230014,20.01808546,20.03708774,7.53E-05,7.53E-05,7.53E-05,621946.7872,0.012771016
25537359,0.747868405,0.012539361,0.004179787,0.004179787,0.004179787,-0.001024163,0.001024163,8.17E-11,-7.93E-11,-4.39E-14,2.45E-12,-0.001048763,0.001048763,-0.001048763,0.001048763,-0.001048763,0.001048763,-0.001048763,0.001048763,-0.000999294,0.000999294,-0.000999294,0.000999294,4.39E-13,-2.03E-12,-5.60E-13,-5.43E-13,-0.001024163,0.001024163,-0.001048763,0.001048763,-0.001048763,0.001048763,-0.001048763,0.001048763,-0.001048763,0.001048763,-0.000999294,0.000999294,-0.000999294,0.000999294,-0.000999294,0.000999294,-0.000999294,0.000999294,-8.04E-11,8.06E-11,-0.001024163,0.001024163,5.26E-14,3.76E-14,-0.001048763,0.001048763,-0.001048763,0.001048763,-0.001048763,0.001048763,-0.001048763,0.001048763,-0.000999294,0.000999294,-0.000999294,0.000999294,0.776347229,0.906383016,1368840,32768,0.004258236,0.004258236,0.004258236,20.29860486,20.3168602,7.76E-05,7.76E-05,7.76E-05,576040.583,0.01285677
25623759,0.752232253,0.012613611,0.004204537,0.004204537,0.004204537,-0.001030558,0.001030558,8.16E-11,-7.93E-11,-5.60E-14,2.40E-12,-0.001055297,0.001055297,-0.001055297,0.001055297,-0.001055297,0.001055297,-0.001055297,0.001055297,-0.001005596,0.001005597,-0.001005597,0.001005596,4.51E-13,-1.98E-12,-6.18E-13,-6.03E-13,-0.001030558,0.001030558,-0.001055297,0.001055297,-0.001055297,0.001055297,-0.001055297,0.001055297,-0.001055297,0.001055297,-0.001005597,0.001005597,-0.001005597,0.001005597,-0.001005597,0.001005597,-0.001005597,0.001005597,-8.04E-11,8.05E-11,-0.001030558,0.001030558,4.13E-14,2.78E-14,-0.001055297,0.001055297,-0.001055297,0.001055297,-0.001055297,0.001055297,-0.001055297,0.001055297,-0.001005596,0.001005597,-0.001005597,0.001005596,0.778816531,0.901691968,1368840,32768,0.00428477,0.00428477,0.00428477,20.57842474,20.59663267,7.98E-05,7.98E-05,7.98E-05,576118.7815,0.012937398
25710159,0.756619223,0.012688005,0.004229335,0.004229335,0.004229335,-0.001037076,0.001037076,8.16E-11,-7.93E-11,-6.02E-14,2.42E-12,-0.001061904,0.001061904,-0.001061904,0.001061904,-0.001061904,0.001061904,-0.001061904,0.001061904,-0.001012062,0.001012062,-0.001012062,0.001012062,4.49E-13,-2.00E-12,-6.43E-13,-6.89E-13,-0.001037076,0.001037076,-0.001061904,0.001061904,-0.001061904,0.001061904,-0.001061904,0.001061904,-0.001061904,0.001061904,-0.001012062,0.001012062,-0.001012062,0.001012062,-0.001012062,0.001012062,-0.001012062,0.001012062,-8.05E-11,8.05E-11,-0.001037076,0.001037076,2.08E-14,6.89E-14,-0.001061904,0.001061904,-0.001061904,0.001061904,-0.001061904,0.001061904,-0.001061904,0.001061904,-0.001012062,0.001012062,-0.001012062,0.001012062,0.776199496,0.826279763,1368840,32768,0.004311812,0.004311812,0.004311812,20.8581828,20.87640513,8.21E-05,8.21E-05,8.21E-05,566503.5935,0.013019578
25796559,0.760939969,0.012761259,0.004253753,0.004253753,0.004253753,-0.001042791,0.001042791,8.16E-11,-7.93E-11,-8.21E-14,2.40E-12,-0.001067776,0.001067776,-0.001067776,0.001067776,-0.001067776,0.001067776,-0.001067776,0.001067776,-0.001017659,0.001017659,-0.001017659,0.001017659,4.66E-13,-1.99E-12,-6.20E-13,-6.68E-13,-0.001042791,0.001042791,-0.001067776,0.001067776,-0.001067776,0.001067776,-0.001067776,0.001067776,-0.001067776,0.001067776,-0.001017659,0.001017659,-0.001017659,0.001017659,-0.001017659,0.001017659,-0.001017659,0.001017659,-8.04E-11,8.05E-11,-0.001042791,0.001042791,3.41E-14,8.47E-14,-0.001067776,0.001067776,-0.001067776,0.001067776,-0.001067776,0.001067776,-0.001067776,0.001067776,-0.001017659,0.001017659,-0.001017659,0.001017659,0.775897717,0.807609785,1368840,32768,0.00433552,0.00433552,0.00433552,20.82802664,20.82673442,8.18E-05,8.18E-05,8.18E-05,569597.0096,0.013091628
25882959,0.765187373,0.012833207,0.004277736,0.004277736,0.004277736,-0.001048432,0.001048432,8.16E-11,-7.93E-11,-8.50E-14,2.40E-12,-0.001073524,0.001073524,-0.001073524,0.001073524,-0.001073524,0.001073524,-0.001073524,0.001073524,-0.001023227,0.001023227,-0.001023227,0.001023227,4.75E-13,-1.99E-12,-6.06E-13,-6.55E-13,-0.001048432,0.001048432,-0.001073524,0.001073524,-0.001073524,0.001073524,-0.001073524,0.001073524,-0.001073524,0.001073524,-0.001023227,0.001023227,-0.001023227,0.001023227,-0.001023227,0.001023227,-0.001023227,0.001023227,-8.04E-11,8.05E-11,-0.001048432,0.001048432,3.82E-14,8.91E-14,-0.001073524,0.001073524,-0.001073524,0.001073524,-0.001073524,0.001073524,-0.001073524,0.001073524,-0.001023227,0.001023227,-0.001023227,0.001023227,0.775242739,0.788939806,1368840,32768,0.004358924,0.004358924,0.004358924,20.77059634,20.7669497,8.14E-05,8.14E-05,8.14E-05,564221.4804,0.013162765
25969359,0.769361695,0.012903837,0.004301279,0.004301279,0.004301279,-0.001053962,0.001053962,8.16E-11,-7.93E-11,-8.39E-14,2.41E-12,-0.001079161,0.001079161,-0.001079161,0.001079161,-0.001079161,0.001079161,-0.001079161,0.001079161,-0.00102868,0.00102868,-0.00102868,0.00102868,4.68E-13,-2.00E-12,-6.02E-13,-6.66E-13,-0.001053962,0.001053962,-0.001079161,0.001079161,-0.001079161,0.001079161,-0.001079161,0.001079161,-0.001079161,0.001079161,-0.00102868,0.00102868,-0.00102868,0.00102868,-0.00102868,0.00102868,-0.00102868,0.00102868,-8.04E-11,8.05E-11,-0.001053962,0.001053962,3.08E-14,9.60E-14,-0.001079161,0.001079161,-0.001079161,0.001079161,-0.001079161,0.001079161,-0.001079161,0.001079161,-0.00102868,0.00102868,-0.00102868,0.00102868,0.774300223,0.770269827,1368840,32768,0.004381866,0.004381866,0.004381866,20.71103398,20.70716497,8.09E-05,8.09E-05,8.09E-05,559460.7787,0.013232499
26055759,0.773463727,0.012972186,0.004324062,0.004324062,0.004324062,-0.001059308,0.001059308,8.16E-11,-7.93E-11,-9.35E-14,2.42E-12,-0.00108464,0.00108464,-0.00108464,0.00108464,-0.00108464,0.00108464,-0.00108464,0.00108464,-0.001033897,0.001033897,-0.001033897,0.001033897,4.83E-13,-2.00E-12,-6.02E-13,-6.69E-13,-0.001059308,0.001059308,-0.00108464,0.00108464,-0.00108464,0.00108464,-0.00108464,0.00108464,-0.00108464,0.00108464,-0.001033897,0.001033897,-0.001033897,0.001033897,-0.001033897,0.001033897,-0.001033897,0.001033897,-8.04E-11,8.05E-11,-0.001059308,0.001059308,3.11E-14,9.89E-14,-0.00108464,0.00108464,-0.00108464,0.00108464,-0.00108464,0.00108464,-0.00108464,0.00108464,-0.001033897,0.001033897,-0.001033897,0.001033897,0.762427012,0.594308476,1368840,32768,0.004404042,0.004404042,0.004404042,20.65127128,20.64738025,8.04E-05,8.04E-05,8.04E-05,558805.7865,0.013299911
26142159,0.777494313,0.013039912,0.004346637,0.004346637,0.004346637,-0.001064306,0.001064306,8.16E-11,-7.93E-11,-1.02E-13,2.43E-12,-0.001089907,0.001089907,-0.001089907,0.001089907,-0.001089907,0.001089907,-0.001089907,0.001089907,-0.001038653,0.001038653,-0.001038653,0.001038653,4.89E-13,-2.02E-12,-6.28E-13,-6.67E-13,-0.001064306,0.001064306,-0.001089907,0.001089907,-0.001089907,0.001089907,-0.001089907,0.001089907,-0.001089907,0.001089907,-0.001038653,0.001038653,-0.001038653,0.001038653,-0.001038653,0.001038653,-0.001038653,0.001038653,-8.04E-11,8.05E-11,-0.001064306,0.001064306,3.74E-14,7.81E-14,-0.001089907,0.001089907,-0.001089907,0.001089907,-0.001089907,0.001089907,-0.001089907,0.001089907,-0.001038653,0.001038653,-0.001038653,0.001038653,0.768906448,0.717610055,1368840,32768,0.004424776,0.004424776,0.004424776,20.59148763,20.58759553,7.99E-05,7.99E-05,7.99E-05,584401.0044,0.013362943
26228559,0.781454254,0.013107153,0.004369051,0.004369051,0.004369051,-0.00106982,0.00106982,8.16E-11,-7.93E-11,-1.07E-13,2.45E-12,-0.001095386,0.001095386,-0.001095386,0.001095386,-0.001095386,0.001095386,-0.001095386,0.001095386,-0.001044238,0.001044238,-0.001044238,0.001044238,4.93E-13,-2.04E-12,-6.30E-13,-6.68E-13,-0.00106982,0.00106982,-0.001095386,0.001095386,-0.001095386,0.001095386,-0.001095386,0.001095386,-0.001095386,0.001095386,-0.001044238,0.001044238,-0.001044238,0.001044238,-0.001044238,0.001044238,-0.001044238,0.001044238,-8.04E-11,8.05E-11,-0.00106982,0.00106982,3.88E-14,7.89E-14,-0.001095386,0.001095386,-0.001095386,0.001095386,-0.001095386,0.001095386,-0.001095386,0.001095386,-0.001044238,0.001044238,-0.001044238,0.001044238,0.777325197,0.863188828,1368840,32768,0.004447648,0.004447648,0.004447648,20.53170086,20.52781081,7.95E-05,7.95E-05,7.95E-05,554469.742,0.013432478
26314959,0.785344612,0.013173383,0.004391128,0.004391128,0.004391128,-0.001075267,0.001075267,8.16E-11,-7.93E-11,-1.04E-13,2.43E-12,-0.001100781,0.001100781,-0.001100781,0.001100781,-0.001100781,0.001100781,-0.001100781,0.001100781,-0.001049771,0.001049771,-0.001049771,0.001049771,4.86E-13,-2.02E-12,-6.38E-13,-6.38E-13,-0.001075267,0.001075267,-0.001100781,0.001100781,-0.001100781,0.001100781,-0.001100781,0.001100781,-0.001100781,0.001100781,-0.001049771,0.001049771,-0.001049771,0.001049771,-0.001049771,0.001049771,-0.001049771,0.001049771,-8.04E-11,8.05E-11,-0.001075267,0.001075267,5.39E-14,5.58E-14,-0.001100781,0.001100781,-0.001100781,0.001100781,-0.001100781,0.001100781,-0.001100781,0.001100781,-0.001049771,0.001049771,-0.001049771,0.001049771,0.77899717,0.862050274,1368840,32768,0.004470242,0.004470242,0.004470242,20.4719151,20.46802609,7.90E-05,7.90E-05,7.90E-05,523625.2773,0.013501172
26401359,0.789166276,0.013238854,0.004412951,0.004412951,0.004412951,-0.001080415,0.001080415,8.16E-11,-7.93E-11,-1.06E-13,2.43E-12,-0.001105986,0.001105986,-0.001105986,0.001105986,-0.001105986,0.001105986,-0.001105986,0.001105986,-0.001054904,0.001054904,-0.001054904,0.001054904,4.91E-13,-2.02E-12,-6.33E-13,-6.40E-13,-0.001080415,0.001080415,-0.001105986,0.001105986,-0.001105986,0.001105986,-0.001105986,0.001105986,-0.001105986,0.001105986,-0.001054904,0.001054904,-0.001054904,0.001054904,-0.001054904,0.001054904,-0.001054904,0.001054904,-8.04E-11,8.05E-11,-0.001080415,0.001080415,5.00E-14,5.94E-14,-0.001105986,0.001105986,-0.001105986,0.001105986,-0.001105986,0.001105986,-0.001105986,0.001105986,-0.001054904,0.001054904,-0.001054904,0.001054904,0.783610389,0.914256147,1368840,32768,0.004491598,0.004491598,0.004491598,20.41212864,20.40824136,7.85E-05,7.85E-05,7.85E-05,513789.1679,0.013566107
26487759,0.792920088,0.013303446,0.004434482,0.004434482,0.004434482,-0.001085571,0.001085571,8.16E-11,-7.93E-11,-1.11E-13,2.41E-12,-0.001111149,0.001111149,-0.001111149,0.001111149,-0.001111149,0.001111149,-0.001111149,0.001111149,-0.001060095,0.001060095,-0.001060095,0.001060095,4.82E-13,-2.02E-12,-6.24E-13,-6.43E-13,-0.001085571,0.001085571,-0.001111149,0.001111149,-0.001111149,0.001111149,-0.001111149,0.001111149,-0.001111149,0.001111149,-0.001060095,0.001060095,-0.001060095,0.001060095,-0.001060095,0.001060095,-0.001060095,0.001060095,-8.04E-11,8.05E-11,-0.001085571,0.001085571,4.32E-14,6.30E-14,-0.001111149,0.001111149,-0.001111149,0.001111149,-0.001111149,0.001111149,-0.001111149,0.001111149,-0.001060095,0.001060095,-0.001060095,0.001060095,0.786951753,0.933921758,1368840,32768,0.004512985,0.004512985,0.004512985,20.35234249,20.34845664,7.80E-05,7.80E-05,7.80E-05,496442.7073,0.013631141
26574159,0.796662587,0.013367848,0.004455949,0.004455949,0.004455949,-0.001091114,0.001091114,8.16E-11,-7.93E-11,-8.95E-14,2.38E-12,-0.001116715,0.001116715,-0.001116715,0.001116715,-0.001116715,0.001116715,-0.001116715,0.001116715,-0.001065648,0.001065648,-0.001065648,0.001065648,4.73E-13,-1.97E-12,-5.86E-13,-6.61E-13,-0.001091114,0.001091114,-0.001116715,0.001116715,-0.001116715,0.001116715,-0.001116715,0.001116715,-0.001116715,0.001116715,-0.001065648,0.001065648,-0.001065648,0.001065648,-0.001065648,0.001065648,-0.001065648,0.001065648,-8.04E-11,8.05E-11,-0.001091114,0.001091114,2.27E-14,9.87E-14,-0.001116715,0.001116715,-0.001116715,0.001116715,-0.001116715,0.001116715,-0.001116715,0.001116715,-0.001065648,0.001065648,-0.001065648,0.001065648,0.786801547,0.894267781,1368840,32768,0.004535976,0.004535976,0.004535976,20.52564005,20.53640632,7.94E-05,7.94E-05,7.94E-05,483350.2156,0.013701056
26660559,0.800396185,0.013432018,0.004477339,0.004477339,0.004477339,-0.001096583,0.001096583,8.16E-11,-7.93E-11,-9.14E-14,2.40E-12,-0.001122256,0.001122256,-0.001122256,0.001122256,-0.001122256,0.001122256,-0.001122256,0.001122256,-0.001071075,0.001071075,-0.001071075,0.001071075,5.01E-13,-1.97E-12,-5.47E-13,-6.03E-13,-0.001096583,0.001096583,-0.001122256,0.001122256,-0.001122256,0.001122256,-0.001122256,0.001122256,-0.001122256,0.001122256,-0.001071075,0.001071075,-0.001071075,0.001071075,-0.001071075,0.001071075,-0.001071075,0.001071075,-8.05E-11,8.05E-11,-0.001096583,0.001096583,-2.48E-14,3.29E-14,-0.001122256,0.001122256,-0.001122256,0.001122256,-0.001122256,0.001122256,-0.001122256,0.001122256,-0.001071075,0.001071075,-0.001071075,0.001071075,0.785698488,0.854613805,1368840,32768,0.004558661,0.004558661,0.004558661,20.71418059,20.72639203,8.09E-05,8.09E-05,8.09E-05,478709.9852,0.013770046
26746959,0.804119855,0.013495869,0.004498623,0.004498623,0.004498623,-0.001102025,0.001102025,8.16E-11,-7.93E-11,-8.42E-14,2.40E-12,-0.001127777,0.001127777,-0.001127777,0.001127777,-0.001127777,0.001127777,-0.001127777,0.001127777,-0.001076463,0.001076463,-0.001076463,0.001076463,4.22E-13,-2.03E-12,-6.56E-13,-7.01E-13,-0.001102025,0.001102025,-0.001127777,0.001127777,-0.001127777,0.001127777,-0.001127777,0.001127777,-0.001127777,0.001127777,-0.001076463,0.001076463,-0.001076463,0.001076463,-0.001076463,0.001076463,-0.001076463,0.001076463,-8.04E-11,8.05E-11,-0.001102025,0.001102025,-9.61E-15,3.59E-14,-0.001127777,0.001127777,-0.001127777,0.001127777,-0.001127777,0.001127777,-0.001127777,0.001127777,-0.001076463,0.001076463,-0.001076463,0.001076463,0.783812862,0.814959828,1368840,32768,0.004581232,0.004581232,0.004581232,20.90401965,20.91637774,8.24E-05,8.24E-05,8.24E-05,475232.7352,0.013838693
26833359,0.807832292,0.013559326,0.004519775,0.004519775,0.004519775,-0.001107431,0.001107431,8.16E-11,-7.93E-11,-2.74E-14,2.45E-12,-0.001133271,0.001133271,-0.001133271,0.001133271,-0.001133271,0.001133271,-0.001133271,0.001133271,-0.001081804,0.001081804,-0.001081804,0.001081804,4.69E-13,-1.98E-12,-5.87E-13,-6.21E-13,-0.001107431,0.001107431,-0.001133271,0.001133271,-0.001133271,0.001133271,-0.001133271,0.001133271,-0.001133271,0.001133271,-0.001081804,0.001081804,-0.001081804,0.001081804,-0.001081804,0.001081804,-0.001081804,0.001081804,-8.04E-11,8.06E-11,-0.001107431,0.001107431,2.12E-14,5.65E-14,-0.001133271,0.001133271,-0.001133271,0.001133271,-0.001133271,0.001133271,-0.001133271,0.001133271,-0.001081804,0.001081804,-0.001081804,0.001081804,0.781309702,0.775305851,1368840,32768,0.004603655,0.004603655,0.004603655,21.0939826,21.10636345,8.40E-05,8.40E-05,8.40E-05,472883.506,0.013906897
26919759,0.811532165,0.013622332,0.004540777,0.004540777,0.004540777,-0.001112798,0.001112798,8.16E-11,-7.94E-11,-1.11E-13,2.38E-12,-0.001138732,0.001138732,-0.001138732,0.001138732,-0.001138732,0.001138732,-0.001138732,0.001138732,-0.001087091,0.001087091,-0.001087091,0.001087091,5.92E-13,-1.87E-12,-4.98E-13,-5.48E-13,-0.001112798,0.001112798,-0.001138732,0.001138732,-0.001138732,0.001138732,-0.001138732,0.001138732,-0.001138732,0.001138732,-0.001087091,0.001087091,-0.001087091,0.001087091,-0.001087091,0.001087091,-0.001087091,0.001087091,-8.05E-11,8.05E-11,-0.001112798,0.001112798,2.48E-14,7.69E-14,-0.001138732,0.001138732,-0.001138732,0.001138732,-0.001138732,0.001138732,-0.001138732,0.001138732,-0.001087091,0.001087091,-0.001087091,0.001087091,0.778361609,0.735651875,1368840,32768,0.004625912,0.004625912,0.004625912,21.28395779,21.29634916,8.55E-05,8.55E-05,8.55E-05,471663.4807,0.013974598
27006159,0.815218133,0.01368484,0.004561613,0.004561613,0.004561613,-0.00111812,0.00111812,8.15E-11,-7.94E-11,-1.30E-13,2.38E-12,-0.001144158,0.001144158,-0.001144158,0.001144158,-0.001144158,0.001144158,-0.001144158,0.001144158,-0.001092321,0.001092321,-0.001092321,0.001092321,4.50E-13,-2.03E-12,-6.21E-13,-6.43E-13,-0.00111812,0.00111812,-0.001144158,0.001144158,-0.001144158,0.001144158,-0.001144158,0.001144158,-0.001144158,0.001144158,-0.001092321,0.001092321,-0.001092321,0.001092321,-0.001092321,0.001092321,-0.001092321,0.001092321,-8.05E-11,8.05E-11,-0.00111812,0.00111812,7.11E-14,9.46E-14,-0.001144158,0.001144158,-0.001144158,0.001144158,-0.001144158,0.001144158,-0.001144158,0.001144158,-0.001092321,0.001092321,-0.001092321,0.001092321,0.775115413,0.695997898,1368840,32768,0.004647986,0.004647986,0.004647986,21.47393442,21.48633488,8.70E-05,8.70E-05,8.70E-05,471548.8366,0.01404175
27092559,0.818888858,0.013746812,0.004582271,0.004582271,0.004582271,-0.001123396,0.001123396,8.15E-11,-7.95E-11,-1.36E-13,2.40E-12,-0.001149546,0.001149546,-0.001149546,0.001149546,-0.001149546,0.001149546,-0.001149546,0.001149546,-0.00109749,0.00109749,-0.00109749,0.00109749,5.69E-13,-1.94E-12,-5.57E-13,-5.96E-13,-0.001123396,0.001123396,-0.001149546,0.001149546,-0.001149546,0.001149546,-0.001149546,0.001149546,-0.001149546,0.001149546,-0.00109749,0.00109749,-0.00109749,0.00109749,-0.00109749,0.00109749,-0.00109749,0.00109749,-8.05E-11,8.06E-11,-0.001123396,0.001123396,8.74E-14,1.28E-13,-0.001149546,0.001149546,-0.001149546,0.001149546,-0.001149546,0.001149546,-0.001149546,0.001149546,-0.00109749,0.00109749,-0.00109749,0.00109749,0.771668162,0.656343921,1368840,32768,0.004669866,0.004669866,0.004669866,21.66391142,21.67632059,8.85E-05,8.85E-05,8.85E-05,472545.741,0.014108312
27178959,0.822543003,0.013808215,0.004602738,0.004602738,0.004602738,-0.001128622,0.001128622,8.16E-11,-7.94E-11,-1.16E-13,2.51E-12,-0.001154894,0.001154894,-0.001154894,0.001154894,-0.001154894,0.001154894,-0.001154894,0.001154894,-0.001102594,0.001102595,-0.001102595,0.001102594,4.46E-13,-2.15E-12,-6.29E-13,-6.71E-13,-0.001128622,0.001128622,-0.001154894,0.001154894,-0.001154894,0.001154894,-0.001154894,0.001154894,-0.001154894,0.001154894,-0.001102594,0.001102594,-0.001102594,0.001102594,-0.001102594,0.001102594,-0.001102594,0.001102594,-8.04E-11,8.07E-11,-0.001128622,0.001128622,1.55E-13,1.99E-13,-0.001154894,0.001154894,-0.001154894,0.001154894,-0.001154894,0.001154894,-0.001154894,0.001154894,-0.001102594,0.001102595,-0.001102595,0.001102594,0.768078188,0.616689944,1368840,32768,0.004691537,0.004691537,0.004691537,21.85388866,21.8663063,9.00E-05,9.00E-05,9.00E-05,474613.181,0.014174247
27265359,0.826179014,0.013869018,0.004623006,0.004623006,0.004623006,-0.001133792,0.001133792,8.16E-11,-7.94E-11,-2.33E-13,2.40E-12,-0.001160197,0.001160197,-0.001160197,0.001160197,-0.001160197,0.001160197,-0.001160197,0.001160197,-0.001107629,0.00110763,-0.00110763,0.001107629,4.33E-13,-2.17E-12,-6.19E-13,-6.98E-13,-0.001133792,0.001133792,-0.001160197,0.001160197,-0.001160197,0.001160197,-0.001160197,0.001160197,-0.001160197,0.001160197,-0.00110763,0.00110763,-0.00110763,0.00110763,-0.00110763,0.00110763,-0.00110763,0.00110763,-8.04E-11,8.07E-11,-0.001133792,0.001133792,7.32E-14,1.53E-13,-0.001160197,0.001160197,-0.001160197,0.001160197,-0.001160197,0.001160197,-0.001160197,0.001160197,-0.001107629,0.00110763,-0.00110763,0.001107629,0.764383927,0.577035968,1368840,32768,0.00471298,0.00471298,0.00471298,22.04291386,22.05527954,9.15E-05,9.15E-05,9.15E-05,477778.6888,0.014239491
27351759,0.829779763,0.013929666,0.004643222,0.004643222,0.004643222,-0.001138814,0.001138814,8.16E-11,-7.94E-11,-1.37E-13,2.45E-12,-0.001165344,0.001165344,-0.001165344,0.001165344,-0.001165344,0.001165344,-0.001165344,0.001165344,-0.001112536,0.001112536,-0.001112536,0.001112536,5.09E-13,-2.05E-12,-6.13E-13,-6.75E-13,-0.001138814,0.001138814,-0.001165344,0.001165344,-0.001165344,0.001165344,-0.001165344,0.001165344,-0.001165344,0.001165344,-0.001112536,0.001112536,-0.001112536,0.001112536,-0.001112536,0.001112536,-0.001112536,0.001112536,-8.05E-11,8.06E-11,-0.001138814,0.001138814,2.98E-14,9.33E-14,-0.001165344,0.001165344,-0.001165344,0.001165344,-0.001165344,0.001165344,-0.001165344,0.001165344,-0.001112536,0.001112536,-0.001112536,0.001112536,0.769983267,0.684589792,1368840,32768,0.004733804,0.004733804,0.004733804,22.16221281,22.17017089,9.25E-05,9.25E-05,9.25E-05,479854.7711,0.014302854
27438159,0.833343639,0.013989756,0.004663252,0.004663252,0.004663252,-0.001144062,0.001144062,8.17E-11,-7.94E-11,-1.36E-13,2.47E-12,-0.001170569,0.001170569,-0.001170569,0.001170569,-0.001170569,0.001170569,-0.001170569,0.001170569,-0.001117817,0.001117817,-0.001117817,0.001117817,5.11E-13,-2.06E-12,-6.25E-13,-6.96E-13,-0.001144062,0.001144062,-0.001170569,0.001170569,-0.001170569,0.001170569,-0.001170569,0.001170569,-0.001170569,0.001170569,-0.001117817,0.001117817,-0.001117817,0.001117817,-0.001117817,0.001117817,-0.001117817,0.001117817,-8.05E-11,8.06E-11,-0.001144062,0.001144062,4.14E-14,1.14E-13,-0.001170569,0.001170569,-0.001170569,0.001170569,-0.001170569,0.001170569,-0.001170569,0.001170569,-0.001117817,0.001117817,-0.001117817,0.001117817,0.770841266,0.705745757,1368840,32768,0.00475557,0.00475557,0.00475557,22.27749985,22.28506223,9.34E-05,9.34E-05,9.34E-05,459271.3307,0.01436909
27524559,0.836869951,0.014049307,0.004683102,0.004683102,0.004683102,-0.001149107,0.001149107,8.17E-11,-7.94E-11,-1.49E-13,2.46E-12,-0.001175667,0.001175667,-0.001175667,0.001175667,-0.001175667,0.001175667,-0.001175667,0.001175667,-0.001122821,0.001122821,-0.001122821,0.001122821,5.20E-13,-2.06E-12,-6.06E-13,-6.88E-13,-0.001149107,0.001149107,-0.001175667,0.001175667,-0.001175667,0.001175667,-0.001175667,0.001175667,-0.001175667,0.001175667,-0.001122821,0.001122821,-0.001122821,0.001122821,-0.001122821,0.001122821,-0.001122821,0.001122821,-8.05E-11,8.06E-11,-0.001149107,0.001149107,2.52E-14,1.09E-13,-0.001175667,0.001175667,-0.001175667,0.001175667,-0.001175667,0.001175667,-0.001175667,0.001175667,-0.001122821,0.001122821,-0.001122821,0.001122821,0.771871097,0.726901723,1368840,32768,0.00477649,0.00477649,0.00477649,22.39242717,22.39995358,9.43E-05,9.43E-05,9.43E-05,451327.9557,0.014432752
27610959,0.840358036,0.014108312,0.004702771,0.004702771,0.004702771,-0.001154108,0.001154108,8.16E-11,-7.94E-11,-1.41E-13,2.46E-12,-0.001180717,0.001180717,-0.001180717,0.001180717,-0.001180717,0.001180717,-0.001180717,0.001180717,-0.001127788,0.001127788,-0.001127788,0.001127788,5.20E-13,-2.06E-12,-6.11E-13,-6.84E-13,-0.001154108,0.001154108,-0.001180717,0.001180717,-0.001180717,0.001180717,-0.001180717,0.001180717,-0.001180717,0.001180717,-0.001127788,0.001127788,-0.001127788,0.001127788,-0.001127788,0.001127788,-0.001127788,0.001127788,-8.05E-11,8.06E-11,-0.001154108,0.001154108,2.98E-14,1.05E-13,-0.001180717,0.001180717,-0.001180717,0.001180717,-0.001180717,0.001180717,-0.001180717,0.001180717,-0.001127788,0.001127788,-0.001127788,0.001127788,0.773092907,0.748057688,1368840,32768,0.004797228,0.004797228,0.004797228,22.50731987,22.51484493,9.53E-05,9.53E-05,9.53E-05,443195.8456,0.014495867
27697359,0.843807295,0.014166774,0.004722258,0.004722258,0.004722258,-0.001159066,0.001159066,8.16E-11,-7.94E-11,-1.53E-13,2.47E-12,-0.001185718,0.001185719,-0.001185719,0.001185718,-0.001185718,0.001185719,-0.001185719,0.001185719,-0.001132717,0.001132717,-0.001132717,0.001132717,5.21E-13,-2.07E-12,-6.05E-13,-6.89E-13,-0.001159066,0.001159066,-0.001185719,0.001185719,-0.001185719,0.001185719,-0.001185719,0.001185719,-0.001185719,0.001185719,-0.001132717,0.001132717,-0.001132717,0.001132717,-0.001132717,0.001132717,-0.001132717,0.001132717,-8.05E-11,8.06E-11,-0.001159066,0.001159066,2.14E-14,1.07E-13,-0.001185719,0.001185718,-0.001185719,0.001185718,-0.001185718,0.001185719,-0.001185718,0.001185719,-0.001132717,0.001132717,-0.001132717,0.001132717,0.774532027,0.769213653,1368840,32768,0.004817786,0.004817786,0.004817786,22.62220928,22.62973627,9.62E-05,9.62E-05,9.62E-05,434855.8711,0.014558437
27783759,0.847217151,0.014224699,0.004741566,0.004741566,0.004741566,-0.00116398,0.00116398,8.16E-11,-7.94E-11,-1.49E-13,2.46E-12,-0.001190672,0.001190672,-0.001190672,0.001190672,-0.001190672,0.001190672,-0.001190672,0.001190672,-0.001137611,0.001137611,-0.001137611,0.001137611,5.13E-13,-2.07E-12,-6.07E-13,-6.87E-13,-0.00116398,0.00116398,-0.001190672,0.001190672,-0.001190672,0.001190672,-0.001190672,0.001190672,-0.001190672,0.001190672,-0.001137611,0.001137611,-0.001137611,0.001137611,-0.001137611,0.001137611,-0.001137611,0.001137611,-8.05E-11,8.06E-11,-0.00116398,0.00116398,2.67E-14,1.09E-13,-0.001190672,0.001190672,-0.001190672,0.001190672,-0.001190672,0.001190672,-0.001190672,0.001190672,-0.001137611,0.001137611,-0.001137611,0.001137611,0.776212007,0.790369618,1368840,32768,0.004838164,0.004838164,0.004838164,22.73709849,22.74462762,9.71E-05,9.71E-05,9.71E-05,426294.0235,0.014620465
27870159,0.850587059,0.014282095,0.004760698,0.004760698,0.004760698,-0.001168852,0.001168852,8.16E-11,-7.94E-11,-1.41E-13,2.46E-12,-0.001195578,0.001195578,-0.001195578,0.001195578,-0.001195578,0.001195578,-0.001195578,0.001195578,-0.001142469,0.001142469,-0.001142469,0.001142469,5.14E-13,-2.06E-12,-5.90E-13,-6.91E-13,-0.001168852,0.001168852,-0.001195578,0.001195578,-0.001195578,0.001195578,-0.001195578,0.001195578,-0.001195578,0.001195578,-0.001142469,0.001142469,-0.001142469,0.001142469,-0.001142469,0.001142469,-0.001142469,0.001142469,-8.05E-11,8.06E-11,-0.001168852,0.001168852,-1.02E-14,9.20E-14,-0.001195578,0.001195578,-0.001195578,0.001195578,-0.001195578,0.001195578,-0.001195578,0.001195578,-0.001142469,0.001142469,-0.001142469,0.001142469,0.77814686,0.811525583,1368840,32768,0.004858366,0.004858366,0.004858366,22.85198781,22.85951897,9.80E-05,9.80E-05,9.80E-05,417495.0283,0.014681959
27956559,0.853916499,0.014338966,0.004779655,0.004779655,0.004779655,-0.001173682,0.001173682,8.16E-11,-7.94E-11,-1.35E-13,2.49E-12,-0.001200436,0.001200436,-0.001200436,0.001200436,-0.001200436,0.001200436,-0.001200436,0.001200436,-0.001147292,0.001147292,-0.001147292,0.001147292,5.09E-13,-2.09E-12,-6.17E-13,-7.04E-13,-0.001173682,0.001173682,-0.001200436,0.001200436,-0.001200436,0.001200436,-0.001200436,0.001200436,-0.001200436,0.001200436,-0.001147292,0.001147292,-0.001147292,0.001147292,-0.001147292,0.001147292,-0.001147292,0.001147292,-8.04E-11,8.06E-11,-0.001173682,0.001173682,3.15E-14,1.20E-13,-0.001200436,0.001200436,-0.001200436,0.001200436,-0.001200436,0.001200436,-0.001200436,0.001200436,-0.001147292,0.001147292,-0.001147292,0.001147292,0.780336123,0.832681549,1368840,32768,0.004878392,0.004878392,0.004878392,22.96687728,22.97441031,9.89E-05,9.89E-05,9.89E-05,408466.6043,0.014742921
28042959,0.857204759,0.014395315,0.004798438,0.004798438,0.004798438,-0.001178467,0.001178467,8.16E-11,-7.94E-11,-1.81E-13,2.43E-12,-0.001205244,0.001205244,-0.001205244,0.001205244,-0.001205244,0.001205244,-0.001205244,0.001205244,-0.001152077,0.001152077,-0.001152077,0.001152077,4.82E-13,-2.11E-12,-6.23E-13,-6.96E-13,-0.001178467,0.001178467,-0.001205244,0.001205244,-0.001205244,0.001205244,-0.001205244,0.001205244,-0.001205244,0.001205244,-0.001152077,0.001152077,-0.001152077,0.001152077,-0.001152077,0.001152077,-0.001152077,0.001152077,-8.06E-11,8.04E-11,-0.001178467,0.001178467,-1.30E-13,-5.51E-14,-0.001205244,0.001205244,-0.001205244,0.001205244,-0.001205244,0.001205244,-0.001205244,0.001205244,-0.001152077,0.001152077,-0.001152077,0.001152077,0.782765196,0.853837514,1368840,32768,0.004898234,0.004898234,0.004898234,23.08068865,23.08815507,9.98E-05,9.98E-05,9.98E-05,399230.5202,0.014803326
28129359,0.86044543,0.014451043,0.004817014,0.004817014,0.004817014,-0.001183145,0.001183145,8.17E-11,-7.94E-11,-1.32E-13,2.47E-12,-0.001209939,0.00120994,-0.00120994,0.001209939,-0.001209939,0.00120994,-0.00120994,0.001209939,-0.001156762,0.001156762,-0.001156762,0.001156762,4.81E-13,-2.10E-12,-6.43E-13,-7.11E-13,-0.001183145,0.001183145,-0.00120994,0.00120994,-0.00120994,0.00120994,-0.00120994,0.00120994,-0.00120994,0.00120994,-0.001156762,0.001156762,-0.001156762,0.001156762,-0.001156762,0.001156762,-0.001156762,0.001156762,-8.05E-11,8.06E-11,-0.001183145,0.001183145,-8.09E-15,6.23E-14,-0.00120994,0.001209939,-0.00120994,0.001209939,-0.001209939,0.00120994,-0.001209939,0.00120994,-0.001156762,0.001156762,-0.001156762,0.001156762,0.785408534,0.874993479,1368840,32768,0.004917629,0.004917629,0.004917629,23.16481348,23.17039667,0.000100519,0.000100519,0.000100519,389853.8704,0.014862373
28215759,0.863638053,0.014506148,0.004835383,0.004835383,0.004835383,-0.001187769,0.001187769,8.17E-11,-7.93E-11,-1.24E-13,2.48E-12,-0.001214574,0.001214574,-0.001214574,0.001214574,-0.001214574,0.001214574,-0.001214574,0.001214574,-0.0011614,0.0011614,-0.0011614,0.0011614,5.11E-13,-2.06E-12,-6.09E-13,-6.78E-13,-0.001187769,0.001187769,-0.001214574,0.001214574,-0.001214574,0.001214574,-0.001214574,0.001214574,-0.001214574,0.001214574,-0.0011614,0.0011614,-0.0011614,0.0011614,-0.0011614,0.0011614,-0.0011614,0.0011614,-8.05E-11,8.06E-11,-0.001187769,0.001187769,1.17E-14,8.32E-14,-0.001214574,0.001214574,-0.001214574,0.001214574,-0.001214574,0.001214574,-0.001214574,0.001214574,-0.0011614,0.0011614,-0.0011614,0.0011614,0.788237929,0.896149444,1368840,32768,0.004936799,0.004936799,0.004936799,23.24722516,23.25263827,0.000101178,0.000101178,0.000101178,380272.8268,0.014920741
28302159,0.866782521,0.014560634,0.004853545,0.004853545,0.004853545,-0.001192341,0.001192341,8.17E-11,-7.94E-11,-1.68E-13,2.43E-12,-0.001219152,0.001219152,-0.001219152,0.001219152,-0.001219152,0.001219152,-0.001219152,0.001219152,-0.001165994,0.001165994,-0.001165994,0.001165994,5.55E-13,-2.02E-12,-5.86E-13,-6.73E-13,-0.001192341,0.001192341,-0.001219152,0.001219152,-0.001219152,0.001219152,-0.001219152,0.001219152,-0.001219152,0.001219152,-0.001165994,0.001165994,-0.001165994,0.001165994,-0.001165994,0.001165994,-0.001165994,0.001165994,-8.05E-11,8.06E-11,-0.001192341,0.001192341,-3.81E-14,5.08E-14,-0.001219152,0.001219152,-0.001219152,0.001219152,-0.001219152,0.001219152,-0.001219152,0.001219152,-0.001165994,0.001165994,-0.001165994,0.001165994,0.791224972,0.917305409,1368840,32768,0.004955758,0.004955758,0.004955758,23.32948284,23.33487988,0.000101836,0.000101836,0.000101836,370554.4763,0.014978466
28388559,0.869878784,0.014614503,0.004871501,0.004871501,0.004871501,-0.001196863,0.001196863,8.17E-11,-7.93E-11,-1.01E-13,2.49E-12,-0.001223673,0.001223673,-0.001223673,0.001223673,-0.001223673,0.001223673,-0.001223673,0.001223673,-0.001170544,0.001170545,-0.001170545,0.001170544,5.32E-13,-2.03E-12,-5.78E-13,-6.67E-13,-0.001196863,0.001196863,-0.001223673,0.001223673,-0.001223673,0.001223673,-0.001223673,0.001223673,-0.001223673,0.001223673,-0.001170545,0.001170545,-0.001170545,0.001170545,-0.001170545,0.001170545,-0.001170545,0.001170545,-8.05E-11,8.06E-11,-0.001196863,0.001196863,2.17E-14,1.12E-13,-0.001223673,0.001223673,-0.001223673,0.001223673,-0.001223673,0.001223673,-0.001223673,0.001223673,-0.001170544,0.001170545,-0.001170545,0.001170544,0.794342773,0.938461375,1368840,32768,0.004974506,0.004974506,0.004974506,23.41172568,23.41712148,0.000102494,0.000102494,0.000102494,360738.2181,0.015035553
28474959,0.872926819,0.014667754,0.004889251,0.004889251,0.004889251,-0.001201334,0.001201334,8.17E-11,-7.94E-11,-1.36E-13,2.46E-12,-0.001228137,0.001228137,-0.001228137,0.001228137,-0.001228137,0.001228137,-0.001228137,0.001228137,-0.001175051,0.001175051,-0.001175051,0.001175051,4.86E-13,-2.08E-12,-6.11E-13,-6.96E-13,-0.001201334,0.001201334,-0.001228137,0.001228137,-0.001228137,0.001228137,-0.001228137,0.001228137,-0.001228137,0.001228137,-0.001175051,0.001175051,-0.001175051,0.001175051,-0.001175051,0.001175051,-0.001175051,0.001175051,-8.05E-11,8.06E-11,-0.001201334,0.001201334,7.99E-15,9.48E-14,-0.001228137,0.001228137,-0.001228137,0.001228137,-0.001228137,0.001228137,-0.001228137,0.001228137,-0.001175051,0.001175051,-0.001175051,0.001175051,0.797566349,0.95961734,1368840,32768,0.004993042,0.004993042,0.004993042,23.49396709,23.49936309,0.000103152,0.000103152,0.000103152,350843.4305,0.015092
28561359,0.875926633,0.014720376,0.004906792,0.004906792,0.004906792,-0.001205753,0.001205753,8.17E-11,-7.94E-11,-1.27E-13,2.48E-12,-0.001232544,0.001232544,-0.001232544,0.001232544,-0.001232544,0.001232544,-0.001232544,0.001232544,-0.00117951,0.001179511,-0.001179511,0.00117951,5.06E-13,-2.07E-12,-6.00E-13,-6.97E-13,-0.001205753,0.001205753,-0.001232544,0.001232544,-0.001232544,0.001232544,-0.001232544,0.001232544,-0.001232544,0.001232544,-0.001179511,0.001179511,-0.001179511,0.001179511,-0.001179511,0.001179511,-0.001179511,0.001179511,-8.05E-11,8.06E-11,-0.001205753,0.001205753,2.25E-14,1.21E-13,-0.001232544,0.001232544,-0.001232544,0.001232544,-0.001232544,0.001232544,-0.001232544,0.001232544,-0.00117951,0.001179511,-0.001179511,0.00117951,0.800734641,0.978147366,1368840,32768,0.005011363,0.005011363,0.005011363,23.57620832,23.58160469,0.00010381,0.00010381,0.00010381,340962.2641,0.015147794
28647759,0.878878254,0.014772127,0.004924042,0.004924042,0.004924042,-0.001210099,0.001210099,8.17E-11,-7.94E-11,-1.47E-13,2.45E-12,-0.001236879,0.001236879,-0.001236879,0.001236879,-0.001236879,0.001236879,-0.001236879,0.001236879,-0.001183889,0.001183889,-0.001183889,0.001183889,5.18E-13,-2.06E-12,-5.89E-13,-6.80E-13,-0.001210099,0.001210099,-0.001236879,0.001236879,-0.001236879,0.001236879,-0.001236879,0.001236879,-0.001236879,0.001236879,-0.001183889,0.001183889,-0.001183889,0.001183889,-0.001183889,0.001183889,-0.001183889,0.001183889,-8.05E-11,8.06E-11,-0.001210099,0.001210099,1.63E-14,1.10E-13,-0.001236879,0.001236879,-0.001236879,0.001236879,-0.001236879,0.001236879,-0.001236879,0.001236879,-0.001183889,0.001183889,-0.001183889,0.001183889,0.800202674,0.932977401,1368840,32768,0.005029379,0.005029379,0.005029379,23.65844799,23.66384629,0.000104468,0.000104468,0.000104468,331804.4765,0.01520266
28734159,0.881781738,0.014822943,0.004940981,0.004940981,0.004940981,-0.001214286,0.001214286,8.17E-11,-7.94E-11,-1.38E-13,2.46E-12,-0.001241101,0.001241101,-0.001241101,0.001241101,-0.001241101,0.001241101,-0.001241101,0.001241101,-0.00118806,0.00118806,-0.00118806,0.00118806,4.95E-13,-2.08E-12,-6.05E-13,-7.01E-13,-0.001214286,0.001214286,-0.001241101,0.001241101,-0.001241101,0.001241101,-0.001241101,0.001241101,-0.001241101,0.001241101,-0.00118806,0.00118806,-0.00118806,0.00118806,-0.00118806,0.00118806,-0.00118806,0.00118806,-8.05E-11,8.06E-11,-0.001214286,0.001214286,8.66E-15,1.07E-13,-0.001241101,0.001241101,-0.001241101,0.001241101,-0.001241101,0.001241101,-0.001241101,0.001241101,-0.00118806,0.00118806,-0.00118806,0.00118806,0.798655798,0.887807435,1368840,32768,0.005046739,0.005046739,0.005046739,23.7406873,23.7460879,0.000105125,0.000105125,0.000105125,328515.1244,0.015255534
28820559,0.884637676,0.01487278,0.004957593,0.004957593,0.004957593,-0.001218397,0.001218397,8.17E-11,-7.94E-11,-1.63E-13,2.44E-12,-0.001245251,0.001245251,-0.001245251,0.001245251,-0.001245251,0.001245251,-0.001245251,0.001245251,-0.001192144,0.001192144,-0.001192144,0.001192144,5.03E-13,-2.08E-12,-5.98E-13,-6.88E-13,-0.001218397,0.001218397,-0.001245251,0.001245251,-0.001245251,0.001245251,-0.001245251,0.001245251,-0.001245251,0.001245251,-0.001192144,0.001192144,-0.001192144,0.001192144,-0.001192144,0.001192144,-0.001192144,0.001192144,-8.05E-11,8.06E-11,-0.001218397,0.001218397,3.50E-14,1.27E-13,-0.001245251,0.001245251,-0.001245251,0.001245251,-0.001245251,0.001245251,-0.001245251,0.001245251,-0.001192144,0.001192144,-0.001192144,0.001192144,0.796256947,0.842637469,1368840,32768,0.00506378,0.00506378,0.00506378,23.82588829,23.83147951,0.000105807,0.000105807,0.000105807,326046.4111,0.015307436
28906959,0.887454626,0.014921593,0.004973864,0.004973864,0.004973864,-0.001222517,0.001222517,8.16E-11,-7.94E-11,-1.48E-13,2.45E-12,-0.001249423,0.001249423,-0.001249423,0.001249423,-0.001249423,0.001249423,-0.001249423,0.001249423,-0.001196217,0.001196217,-0.001196217,0.001196217,5.13E-13,-2.05E-12,-5.86E-13,-6.94E-13,-0.001222517,0.001222517,-0.001249423,0.001249423,-0.001249423,0.001249423,-0.001249423,0.001249423,-0.001249423,0.001249423,-0.001196217,0.001196217,-0.001196217,0.001196217,-0.001196217,0.001196217,-0.001196217,0.001196217,-8.05E-11,8.06E-11,-0.001222517,0.001222517,1.16E-14,1.21E-13,-0.001249423,0.001249423,-0.001249423,0.001249423,-0.001249423,0.001249423,-0.001249423,0.001249423,-0.001196217,0.001196217,-0.001196217,0.001196217,0.790639678,0.762573992,1368840,32768,0.005080859,0.005080859,0.005080859,23.96048494,23.96922566,0.000106884,0.000106884,0.000106884,324645.3411,0.01535946
28993359,0.890232696,0.014969394,0.004989798,0.004989798,0.004989798,-0.001226503,0.001226503,8.19E-11,-7.92E-11,-1.10E-14,2.65E-12,-0.001253496,0.001253496,-0.001253496,0.001253496,-0.001253496,0.001253496,-0.001253496,0.001253496,-0.001200116,0.001200116,-0.001200116,0.001200116,5.54E-13,-2.08E-12,-6.34E-13,-7.25E-13,-0.001226503,0.001226503,-0.001253496,0.001253496,-0.001253496,0.001253496,-0.001253496,0.001253496,-0.001253496,0.001253496,-0.001200116,0.001200116,-0.001200116,0.001200116,-0.001200116,0.001200116,-0.001200116,0.001200116,-8.04E-11,8.07E-11,-0.001226503,0.001226503,6.57E-15,1.01E-13,-0.001253496,0.001253496,-0.001253496,0.001253496,-0.001253496,0.001253496,-0.001253496,0.001253496,-0.001200116,0.001200116,-0.001200116,0.001200116,0.78503937,0.694130197,1368840,32768,0.005097385,0.005097385,0.005097385,24.0979394,24.10697181,0.000107984,0.000107984,0.000107984,327617.688,0.015409801
29079759,0.892971548,0.015015945,0.005005315,0.005005315,0.005005315,-0.001230397,0.001230397,8.17E-11,-7.94E-11,-1.58E-13,2.47E-12,-0.001257492,0.001257492,-0.001257492,0.001257492,-0.001257492,0.001257492,-0.001257492,0.001257492,-0.001203896,0.001203896,-0.001203896,0.001203896,5.30E-13,-2.07E-12,-5.93E-13,-6.75E-13,-0.001230397,0.001230397,-0.001257492,0.001257492,-0.001257492,0.001257492,-0.001257492,0.001257492,-0.001257492,0.001257492,-0.001203896,0.001203896,-0.001203896,0.001203896,-0.001203896,0.001203896,-0.001203896,0.001203896,-8.05E-11,8.06E-11,-0.001230397,0.001230397,1.23E-14,9.68E-14,-0.001257492,0.001257492,-0.001257492,0.001257492,-0.001257492,0.001257492,-0.001257492,0.001257492,-0.001203896,0.001203896,-0.001203896,0.001203896,0.775455169,0.575232513,1368840,32768,0.005113525,0.005113525,0.005113525,24.23565122,24.24471796,0.000109085,0.000109085,0.000109085,331370.72,0.01545897
29166159,0.895670836,0.015062005,0.005020668,0.005020668,0.005020668,-0.00123415,0.00123415,8.17E-11,-7.94E-11,-1.70E-13,2.48E-12,-0.001261392,0.001261392,-0.001261392,0.001261392,-0.001261392,0.001261392,-0.001261392,0.001261392,-0.001207501,0.001207501,-0.001207501,0.001207501,5.31E-13,-2.09E-12,-5.80E-13,-7.22E-13,-0.00123415,0.00123415,-0.001261392,0.001261392,-0.001261392,0.001261392,-0.001261392,0.001261392,-0.001261392,0.001261392,-0.001207501,0.001207501,-0.001207501,0.001207501,-0.001207501,0.001207501,-0.001207501,0.001207501,-8.05E-11,8.06E-11,-0.00123415,0.00123415,-1.98E-15,1.41E-13,-0.001261392,0.001261392,-0.001261392,0.001261392,-0.001261392,0.001261392,-0.001261392,0.001261392,-0.001207501,0.001207501,-0.001207501,0.001207501,0.778608974,0.650047269,1368840,32768,0.005129086,0.005129086,0.005129086,24.37339089,24.38246411,0.000110187,0.000110187,0.000110187,340811.6054,0.015506376
29252559,0.898330236,0.015106921,0.00503564,0.00503564,0.00503564,-0.001238151,0.001238151,8.16E-11,-7.94E-11,-1.90E-13,2.41E-12,-0.00126538,0.00126538,-0.00126538,0.00126538,-0.00126538,0.00126538,-0.00126538,0.00126538,-0.0012115,0.0012115,-0.0012115,0.0012115,4.00E-13,-2.17E-12,-6.21E-13,-8.22E-13,-0.001238151,0.001238151,-0.00126538,0.00126538,-0.00126538,0.00126538,-0.00126538,0.00126538,-0.00126538,0.00126538,-0.0012115,0.0012115,-0.0012115,0.0012115,-0.0012115,0.0012115,-0.0012115,0.0012115,-8.05E-11,8.06E-11,-0.001238151,0.001238151,8.24E-15,2.11E-13,-0.00126538,0.00126538,-0.00126538,0.00126538,-0.00126538,0.00126538,-0.00126538,0.00126538,-0.0012115,0.0012115,-0.0012115,0.0012115,0.770733288,0.553232162,1368840,32768,0.005145669,0.005145669,0.005145669,24.51113145,24.52021025,0.000111289,0.000111289,0.000111289,330374.0478,0.015556898
29338959,0.900949471,0.015150691,0.00505023,0.00505023,0.00505023,-0.001241748,0.001241748,8.17E-11,-7.94E-11,-1.62E-13,2.45E-12,-0.00126913,0.00126913,-0.00126913,0.00126913,-0.00126913,0.00126913,-0.00126913,0.00126913,-0.001214925,0.001214925,-0.001214925,0.001214925,4.37E-13,-2.15E-12,-6.59E-13,-8.00E-13,-0.001241748,0.001241748,-0.00126913,0.00126913,-0.00126913,0.00126913,-0.00126913,0.00126913,-0.00126913,0.00126913,-0.001214925,0.001214925,-0.001214925,0.001214925,-0.001214925,0.001214925,-0.001214925,0.001214925,-8.05E-11,8.06E-11,-0.001241748,0.001241748,7.45E-15,1.51E-13,-0.00126913,0.00126913,-0.00126913,0.00126913,-0.00126913,0.00126913,-0.00126913,0.00126913,-0.001214925,0.001214925,-0.001214925,0.001214925,0.762437928,0.456417054,1368840,32768,0.005160581,0.005160581,0.005160581,24.64887291,24.6579564,0.000112391,0.000112391,0.000112391,339623.5631,0.015602332
29425359,0.903528259,0.015193381,0.00506446,0.00506446,0.00506446,-0.001245233,0.001245233,8.17E-11,-7.94E-11,-1.62E-13,2.45E-12,-0.001272793,0.001272793,-0.001272793,0.001272793,-0.001272793,0.001272793,-0.001272793,0.001272793,-0.001218207,0.001218207,-0.001218207,0.001218207,5.09E-13,-2.07E-12,-5.67E-13,-7.48E-13,-0.001245233,0.001245233,-0.001272793,0.001272793,-0.001272793,0.001272793,-0.001272793,0.001272793,-0.001272793,0.001272793,-0.001218207,0.001218207,-0.001218207,0.001218207,-0.001218207,0.001218207,-0.001218207,0.001218207,-8.05E-11,8.07E-11,-0.001245233,0.001245233,1.64E-14,2.00E-13,-0.001272793,0.001272793,-0.001272793,0.001272793,-0.001272793,0.001272793,-0.001272793,0.001272793,-0.001218207,0.001218207,-0.001218207,0.001218207,0.755362521,0.379871891,1368840,32768,0.005175026,0.005175026,0.005175026,24.786615,24.79570255,0.000113493,0.000113493,0.000113493,351043.465,0.015646345
29511759,0.906066363,0.015234935,0.005078312,0.005078312,0.005078312,-0.001248644,0.001248644,8.17E-11,-7.94E-11,-1.58E-13,2.45E-12,-0.001276386,0.001276386,-0.001276386,0.001276386,-0.001276386,0.001276386,-0.001276386,0.001276386,-0.001221404,0.001221405,-0.001221405,0.001221404,5.24E-13,-2.05E-12,-4.98E-13,-6.88E-13,-0.001248644,0.001248644,-0.001276386,0.001276386,-0.001276386,0.001276386,-0.001276386,0.001276386,-0.001276386,0.001276386,-0.001221405,0.001221405,-0.001221405,0.001221405,-0.001221405,0.001221405,-0.001221405,0.001221405,-8.05E-11,8.06E-11,-0.001248644,0.001248644,2.09E-14,2.12E-13,-0.001276386,0.001276386,-0.001276386,0.001276386,-0.001276386,0.001276386,-0.001276386,0.001276386,-0.001221404,0.001221405,-0.001221405,0.001221404,0.747140379,0.287717279,1368840,32768,0.005189165,0.005189165,0.005189165,24.92435752,24.9334487,0.000114595,0.000114595,0.000114595,362087.4923,0.015689427
29598159,0.90856325,0.015275976,0.005091992,0.005091992,0.005091992,-0.00125195,0.00125195,8.17E-11,-7.94E-11,-1.48E-13,2.42E-12,-0.001279902,0.001279902,-0.001279902,0.001279902,-0.001279902,0.001279902,-0.001279902,0.001279902,-0.001224477,0.001224477,-0.001224477,0.001224477,4.94E-13,-2.05E-12,-5.49E-13,-7.49E-13,-0.00125195,0.00125195,-0.001279902,0.001279902,-0.001279902,0.001279902,-0.001279902,0.001279902,-0.001279902,0.001279902,-0.001224477,0.001224477,-0.001224477,0.001224477,-0.001224477,0.001224477,-0.001224477,0.001224477,-8.05E-11,8.06E-11,-0.00125195,0.00125195,-1.62E-14,1.85E-13,-0.001279902,0.001279902,-0.001279902,0.001279902,-0.001279902,0.001279902,-0.001279902,0.001279902,-0.001224477,0.001224477,-0.001224477,0.001224477,0.750267707,0.358047589,1368840,32768,0.005202868,0.005202868,0.005202868,25.05993368,25.06889148,0.000115679,0.000115679,0.000115679,376067.2823,0.015731184
29684559,0.911014987,0.015316493,0.005105498,0.005105498,0.005105498,-0.001255579,0.001255579,8.17E-11,-7.94E-11,-1.50E-13,2.43E-12,-0.001283524,0.001283524,-0.001283524,0.001283524,-0.001283524,0.001283524,-0.001283524,0.001283524,-0.001228092,0.001228092,-0.001228092,0.001228092,5.07E-13,-2.04E-12,-5.44E-13,-7.38E-13,-0.001255579,0.001255579,-0.001283524,0.001283524,-0.001283524,0.001283524,-0.001283524,0.001283524,-0.001283524,0.001283524,-0.001228092,0.001228092,-0.001228092,0.001228092,-0.001228092,0.001228092,-0.001228092,0.001228092,-8.05E-11,8.06E-11,-0.001255579,0.001255579,-2.06E-14,1.75E-13,-0.001283524,0.001283524,-0.001283524,0.001283524,-0.001283524,0.001283524,-0.001283524,0.001283524,-0.001228092,0.001228092,-0.001228092,0.001228092,0.754560744,0.441924541,1368840,32768,0.005217908,0.005217908,0.005217908,25.16992881,25.17725287,0.000116559,0.000116559,0.000116559,365228.7292,0.015777017
29770959,0.913421484,0.015356503,0.005118834,0.005118834,0.005118834,-0.001259195,0.001259195,8.16E-11,-7.95E-11,-2.04E-13,2.40E-12,-0.001287108,0.001287108,-0.001287108,0.001287108,-0.001287108,0.001287108,-0.001287108,0.001287108,-0.001231725,0.001231725,-0.001231725,0.001231725,4.86E-13,-2.09E-12,-5.56E-13,-7.48E-13,-0.001259195,0.001259195,-0.001287108,0.001287108,-0.001287108,0.001287108,-0.001287108,0.001287108,-0.001287108,0.001287108,-0.001231725,0.001231725,-0.001231725,0.001231725,-0.001231725,0.001231725,-0.001231725,0.001231725,-8.05E-11,8.06E-11,-0.001259195,0.001259195,-5.30E-14,1.41E-13,-0.001287108,0.001287108,-0.001287108,0.001287108,-0.001287108,0.001287108,-0.001287108,0.001287108,-0.001231725,0.001231725,-0.001231725,0.001231725,0.759042748,0.525801493,1368840,32768,0.005232896,0.005232896,0.005232896,25.2784366,25.28561427,0.000117427,0.000117427,0.000117427,352404.2706,0.015822691
29857359,0.915782869,0.015396005,0.005132002,0.005132002,0.005132002,-0.001262763,0.001262763,8.17E-11,-7.94E-11,-1.30E-13,2.46E-12,-0.00129064,0.00129064,-0.00129064,0.00129064,-0.00129064,0.00129064,-0.00129064,0.00129064,-0.001235321,0.001235321,-0.001235321,0.001235321,5.08E-13,-2.05E-12,-5.21E-13,-7.46E-13,-0.001262763,0.001262763,-0.00129064,0.00129064,-0.00129064,0.00129064,-0.00129064,0.00129064,-0.00129064,0.00129064,-0.001235321,0.001235321,-0.001235321,0.001235321,-0.001235321,0.001235321,-0.001235321,0.001235321,-8.05E-11,8.07E-11,-0.001262763,0.001262763,-1.53E-15,2.24E-13,-0.00129064,0.00129064,-0.00129064,0.00129064,-0.00129064,0.00129064,-0.00129064,0.00129064,-0.001235321,0.001235321,-0.001235321,0.001235321,0.763659635,0.609678446,1368840,32768,0.005247685,0.005247685,0.005247685,25.3868101,25.39397566,0.000118294,0.000118294,0.000118294,339766.9129,0.015867761
29943759,0.91809931,0.015435366,0.005145122,0.005145122,0.005145122,-0.001266312,0.001266312,8.17E-11,-7.94E-11,-1.58E-13,2.37E-12,-0.001294137,0.001294137,-0.001294137,0.001294137,-0.001294137,0.001294137,-0.001294137,0.001294137,-0.001238929,0.001238929,-0.001238929,0.001238929,4.89E-13,-2.01E-12,-5.65E-13,-7.42E-13,-0.001266312,0.001266312,-0.001294137,0.001294137,-0.001294137,0.001294137,-0.001294137,0.001294137,-0.001294137,0.001294137,-0.001238929,0.001238929,-0.001238929,0.001238929,-0.001238929,0.001238929,-0.001238929,0.001238929,-8.05E-11,8.07E-11,-0.001266312,0.001266312,-1.53E-14,1.63E-13,-0.001294137,0.001294137,-0.001294137,0.001294137,-0.001294137,0.001294137,-0.001294137,0.001294137,-0.001238929,0.001238929,-0.001238929,0.001238929,0.775679813,0.819748667,1368840,32768,0.005262396,0.005262396,0.005262396,25.49517294,25.50233705,0.000119161,0.000119161,0.000119161,326497.3166,0.015912597
30030159,0.920371001,0.015474328,0.005158109,0.005158109,0.005158109,-0.001270042,0.001270042,8.16E-11,-7.95E-11,-1.32E-13,2.39E-12,-0.001297698,0.001297698,-0.001297698,0.001297698,-0.001297698,0.001297698,-0.001297698,0.001297698,-0.001242838,0.001242839,-0.001242839,0.001242838,4.69E-13,-2.03E-12,-5.19E-13,-7.06E-13,-0.001270042,0.001270042,-0.001297698,0.001297698,-0.001297698,0.001297698,-0.001297698,0.001297698,-0.001297698,0.001297698,-0.001242839,0.001242839,-0.001242839,0.001242839,-0.001242839,0.001242839,-0.001242839,0.001242839,-8.05E-11,8.06E-11,-0.001270042,0.001270042,-4.55E-14,1.43E-13,-0.001297698,0.001297698,-0.001297698,0.001297698,-0.001297698,0.001297698,-0.001297698,0.001297698,-0.001242838,0.001242839,-0.001242839,0.001242838,0.782851273,0.904704929,1368840,32768,0.005277856,0.005277856,0.005277856,25.60353501,25.61069845,0.000120028,0.000120028,0.000120028,301744.8798,0.015959716
30116559,0.922598162,0.01551146,0.005170487,0.005170487,0.005170487,-0.001273385,0.001273385,8.17E-11,-7.95E-11,-1.48E-13,2.43E-12,-0.001301019,0.001301019,-0.001301019,0.001301019,-0.001301019,0.001301019,-0.001301019,0.001301019,-0.001246189,0.001246189,-0.001246189,0.001246189,4.98E-13,-2.05E-12,-5.21E-13,-7.37E-13,-0.001273385,0.001273385,-0.001301019,0.001301019,-0.001301019,0.001301019,-0.001301019,0.001301019,-0.001301019,0.001301019,-0.001246189,0.001246189,-0.001246189,0.001246189,-0.001246189,0.001246189,-0.001246189,0.001246189,-8.05E-11,8.07E-11,-0.001273385,0.001273385,-2.83E-14,1.89E-13,-0.001301019,0.001301019,-0.001301019,0.001301019,-0.001301019,0.001301019,-0.001301019,0.001301019,-0.001246189,0.001246189,-0.001246189,0.001246189,0.760523048,0.554688647,1368840,32768,0.005291712,0.005291712,0.005291712,25.7118887,25.71905984,0.000120895,0.000120895,0.000120895,292135.2489,0.016001947
30202959,0.924781021,0.015547677,0.005182559,0.005182559,0.005182559,-0.001275861,0.001275861,8.17E-11,-7.94E-11,-1.47E-13,2.42E-12,-0.001303873,0.001303873,-0.001303873,0.001303873,-0.001303873,0.001303873,-0.001303873,0.001303873,-0.001248284,0.001248285,-0.001248285,0.001248284,5.01E-13,-2.04E-12,-5.33E-13,-7.44E-13,-0.001275861,0.001275861,-0.001303873,0.001303873,-0.001303873,0.001303873,-0.001303873,0.001303873,-0.001303873,0.001303873,-0.001248285,0.001248285,-0.001248285,0.001248285,-0.001248285,0.001248285,-0.001248285,0.001248285,-8.05E-11,8.07E-11,-0.001275861,0.001275861,-2.43E-14,1.88E-13,-0.001303873,0.001303873,-0.001303873,0.001303873,-0.001303873,0.001303873,-0.001303873,0.001303873,-0.001248284,0.001248285,-0.001248285,0.001248284,0.756705273,0.511171605,1368840,32768,0.005301975,0.005301975,0.005301975,25.82024708,25.82742123,0.000121762,0.000121762,0.000121762,323929.2656,0.016033233
30289359,0.926919816,0.015582964,0.005194321,0.005194321,0.005194321,-0.001278804,0.001278804,8.17E-11,-7.94E-11,-1.56E-13,2.41E-12,-0.001306927,0.001306927,-0.001306927,0.001306927,-0.001306927,0.001306927,-0.001306927,0.001306927,-0.001251103,0.001251103,-0.001251103,0.001251103,5.03E-13,-2.04E-12,-5.18E-13,-7.31E-13,-0.001278804,0.001278804,-0.001306927,0.001306927,-0.001306927,0.001306927,-0.001306927,0.001306927,-0.001306927,0.001306927,-0.001251103,0.001251103,-0.001251103,0.001251103,-0.001251103,0.001251103,-0.001251103,0.001251103,-8.05E-11,8.07E-11,-0.001278804,0.001278804,-1.54E-14,2.00E-13,-0.001306927,0.001306927,-0.001306927,0.001306927,-0.001306927,0.001306927,-0.001306927,0.001306927,-0.001251103,0.001251103,-0.001251103,0.001251103,0.752777118,0.467654563,1368840,32768,0.005314173,0.005314173,0.005314173,25.92860583,25.93578263,0.000122629,0.000122629,0.000122629,327844.0832,0.016070414
30375759,0.92901558,0.015617355,0.005205785,0.005205785,0.005205785,-0.00128168,0.00128168,8.17E-11,-7.94E-11,-1.59E-13,2.40E-12,-0.001309923,0.001309923,-0.001309923,0.001309923,-0.001309923,0.001309923,-0.001309923,0.001309923,-0.001253843,0.001253843,-0.001253843,0.001253843,5.00E-13,-2.03E-12,-5.27E-13,-7.23E-13,-0.00128168,0.00128168,-0.001309923,0.001309923,-0.001309923,0.001309923,-0.001309923,0.001309923,-0.001309923,0.001309923,-0.001253843,0.001253843,-0.001253843,0.001253843,-0.001253843,0.001253843,-0.001253843,0.001253843,-8.05E-11,8.06E-11,-0.00128168,0.00128168,-3.64E-14,1.61E-13,-0.001309923,0.001309923,-0.001309923,0.001309923,-0.001309923,0.001309923,-0.001309923,0.001309923,-0.001253843,0.001253843,-0.001253843,0.001253843,0.748764609,0.424137521,1368840,32768,0.005326089,0.005326089,0.005326089,26.04289496,26.05045411,0.000123543,0.000123543,0.000123543,332346.128,0.016106739
30462159,0.93107511,0.01565124,0.00521708,0.00521708,0.00521708,-0.001284612,0.001284612,8.16E-11,-7.95E-11,-1.49E-13,2.42E-12,-0.001312971,0.001312971,-0.001312971,0.001312971,-0.001312971,0.001312971,-0.001312971,0.001312971,-0.001256647,0.001256647,-0.001256647,0.001256647,5.06E-13,-2.03E-12,-5.02E-13,-7.12E-13,-0.001284612,0.001284612,-0.001312971,0.001312971,-0.001312971,0.001312971,-0.001312971,0.001312971,-0.001312971,0.001312971,-0.001256647,0.001256647,-0.001256647,0.001256647,-0.001256647,0.001256647,-0.001256647,0.001256647,-8.05E-11,8.06E-11,-0.001284612,0.001284612,-3.79E-14,1.72E-13,-0.001312971,0.001312971,-0.001312971,0.001312971,-0.001312971,0.001312971,-0.001312971,0.001312971,-0.001256647,0.001256647,-0.001256647,0.001256647,0.750800958,0.471889826,1368840,32768,0.005338242,0.005338242,0.005338242,26.21088672,26.22190252,0.000124887,0.000124887,0.000124887,336674.4936,0.016143787
30548559,0.933098595,0.01568465,0.005228217,0.005228217,0.005228217,-0.001287735,0.001287735,8.17E-11,-7.95E-11,-1.47E-13,2.42E-12,-0.001316103,0.001316103,-0.001316103,0.001316103,-0.001316103,0.001316103,-0.001316103,0.001316103,-0.001259752,0.001259752,-0.001259752,0.001259752,5.25E-13,-2.01E-12,-4.84E-13,-6.95E-13,-0.001287735,0.001287735,-0.001316103,0.001316103,-0.001316103,0.001316103,-0.001316103,0.001316103,-0.001316103,0.001316103,-0.001259752,0.001259752,-0.001259752,0.001259752,-0.001259752,0.001259752,-0.001259752,0.001259752,-8.05E-11,8.07E-11,-0.001287735,0.001287735,5.30E-14,2.65E-13,-0.001316103,0.001316103,-0.001316103,0.001316103,-0.001316103,0.001316103,-0.001316103,0.001316103,-0.001259752,0.001259752,-0.001259752,0.001259752,0.753548217,0.527981226,1368840,32768,0.005351187,0.005351187,0.005351187,26.38201327,26.39335093,0.000126256,0.000126256,0.000126256,329560.3092,0.01618325
30634959,0.935085889,0.015717531,0.005239177,0.005239177,0.005239177,-0.001290835,0.001290835,8.17E-11,-7.94E-11,-1.41E-13,2.44E-12,-0.001319195,0.001319195,-0.001319195,0.001319195,-0.001319195,0.001319195,-0.001319195,0.001319195,-0.001262852,0.001262852,-0.001262852,0.001262852,4.90E-13,-2.07E-12,-4.92E-13,-7.10E-13,-0.001290835,0.001290835,-0.001319195,0.001319195,-0.001319195,0.001319195,-0.001319195,0.001319195,-0.001319195,0.001319195,-0.001262852,0.001262852,-0.001262852,0.001262852,-0.001262852,0.001262852,-0.001262852,0.001262852,-8.06E-11,8.06E-11,-0.001290835,0.001290835,-7.79E-14,1.41E-13,-0.001319195,0.001319195,-0.001319195,0.001319195,-0.001319195,0.001319195,-0.001319195,0.001319195,-0.001262852,0.001262852,-0.001262852,0.001262852,0.755082847,0.562048627,1368840,32768,0.005364033,0.005364033,0.005364033,26.55342456,26.56479934,0.000127627,0.000127627,0.000127627,321446.8226,0.016222414
30721359,0.937036838,0.015749884,0.005249961,0.005249961,0.005249961,-0.001293841,0.001293841,8.17E-11,-7.95E-11,-1.73E-13,2.40E-12,-0.001322214,0.001322214,-0.001322214,0.001322214,-0.001322214,0.001322214,-0.001322214,0.001322214,-0.001265838,0.001265838,-0.001265838,0.001265838,5.01E-13,-2.04E-12,-5.71E-13,-7.70E-13,-0.001293841,0.001293841,-0.001322214,0.001322214,-0.001322214,0.001322214,-0.001322214,0.001322214,-0.001322214,0.001322214,-0.001265838,0.001265838,-0.001265838,0.001265838,-0.001265838,0.001265838,-0.001265838,0.001265838,-8.05E-11,8.07E-11,-0.001293841,0.001293841,-1.65E-14,1.84E-13,-0.001322214,0.001322214,-0.001322214,0.001322214,-0.001322214,0.001322214,-0.001322214,0.001322214,-0.001265838,0.001265838,-0.001265838,0.001265838,0.756726677,0.596116028,1368840,32768,0.00537649,0.00537649,0.00537649,26.72486373,26.73624774,0.000128999,0.000128999,0.000128999,315808.1983,0.016260391
30807759,0.938951309,0.015781838,0.005260613,0.005260613,0.005260613,-0.001296814,0.001296814,8.17E-11,-7.95E-11,-2.74E-13,2.38E-12,-0.001325195,0.001325195,-0.001325195,0.001325195,-0.001325195,0.001325195,-0.001325195,0.001325195,-0.001268804,0.001268805,-0.001268805,0.001268804,7.10E-13,-1.92E-12,-5.19E-13,-7.23E-13,-0.001296814,0.001296814,-0.001325195,0.001325195,-0.001325195,0.001325195,-0.001325195,0.001325195,-0.001325195,0.001325195,-0.001268804,0.001268804,-0.001268804,0.001268804,-0.001268804,0.001268804,-0.001268804,0.001268804,-8.06E-11,8.07E-11,-0.001296814,0.001296814,-3.27E-14,1.72E-13,-0.001325195,0.001325195,-0.001325195,0.001325195,-0.001325195,0.001325195,-0.001325195,0.001325195,-0.001268804,0.001268805,-0.001268805,0.001268804,0.761634704,0.682951768,1368840,32768,0.005388813,0.005388813,0.005388813,26.89630632,26.90769615,0.00013037,0.00013037,0.00013037,309838.2155,0.016297964
30894159,0.940829201,0.015813391,0.00527113,0.00527113,0.00527113,-0.001299864,0.001299864,8.17E-11,-7.95E-11,-1.79E-13,2.46E-12,-0.001328192,0.001328192,-0.001328192,0.001328192,-0.001328192,0.001328192,-0.001328192,0.001328192,-0.001271909,0.001271909,-0.001271909,0.001271909,6.36E-13,-1.97E-12,-5.28E-13,-7.46E-13,-0.001299864,0.001299864,-0.001328192,0.001328192,-0.001328192,0.001328192,-0.001328192,0.001328192,-0.001328192,0.001328192,-0.001271909,0.001271909,-0.001271909,0.001271909,-0.001271909,0.001271909,-0.001271909,0.001271909,-8.06E-11,8.07E-11,-0.001299864,0.001299864,-4.24E-14,1.77E-13,-0.001328192,0.001328192,-0.001328192,0.001328192,-0.001328192,0.001328192,-0.001328192,0.001328192,-0.001271909,0.001271909,-0.001271909,0.001271909,0.766708169,0.762612071,1368840,32768,0.00540145,0.00540145,0.00540145,27.06775023,27.07914456,0.000131742,0.000131742,0.000131742,298515.8639,0.016336494
30980559,0.94267044,0.015844418,0.005281473,0.005281473,0.005281473,-0.001302847,0.001302847,8.18E-11,-7.95E-11,-1.85E-13,2.46E-12,-0.001331129,0.001331129,-0.001331129,0.001331129,-0.001331129,0.001331129,-0.001331129,0.001331129,-0.001274941,0.001274942,-0.001274942,0.001274941,5.27E-13,-2.09E-12,-5.93E-13,-7.41E-13,-0.001302847,0.001302847,-0.001331129,0.001331129,-0.001331129,0.001331129,-0.001331129,0.001331129,-0.001331129,0.001331129,-0.001274942,0.001274942,-0.001274942,0.001274942,-0.001274942,0.001274942,-0.001274942,0.001274942,-8.06E-11,8.07E-11,-0.001302847,0.001302847,2.22E-15,1.51E-13,-0.001331129,0.001331129,-0.001331129,0.001331129,-0.001331129,0.001331129,-0.001331129,0.001331129,-0.001274941,0.001274942,-0.001274942,0.001274941,0.768820478,0.780173419,1368840,32768,0.005413813,0.005413813,0.005413813,27.23919344,27.25059297,0.000133114,0.000133114,0.000133114,288341.6124,0.016374189
31066959,0.944477528,0.015874963,0.005291654,0.005291654,0.005291654,-0.001305718,0.001305718,8.18E-11,-7.95E-11,-1.82E-13,2.47E-12,-0.00133401,0.00133401,-0.00133401,0.00133401,-0.00133401,0.00133401,-0.00133401,0.00133401,-0.001277808,0.001277808,-0.001277808,0.001277808,5.85E-13,-2.04E-12,-5.70E-13,-7.53E-13,-0.001305718,0.001305718,-0.00133401,0.00133401,-0.00133401,0.00133401,-0.00133401,0.00133401,-0.00133401,0.00133401,-0.001277808,0.001277808,-0.001277808,0.001277808,-0.001277808,0.001277808,-0.001277808,0.001277808,-8.05E-11,8.08E-11,-0.001305718,0.001305718,1.20E-13,3.04E-13,-0.00133401,0.00133401,-0.00133401,0.00133401,-0.00133401,0.00133401,-0.00133401,0.00133401,-0.001277808,0.001277808,-0.001277808,0.001277808,0.771094063,0.797734766,1368840,32768,0.00542571,0.00542571,0.00542571,27.43475489,27.44771034,0.000134678,0.000134678,0.000134678,283592.49,0.016410465
31153359,0.946255126,0.015905311,0.00530177,0.00530177,0.00530177,-0.001308663,0.001308663,8.18E-11,-7.95E-11,-1.77E-13,2.43E-12,-0.001336956,0.001336956,-0.001336956,0.001336956,-0.001336956,0.001336956,-0.001336956,0.001336956,-0.001280762,0.001280762,-0.001280762,0.001280762,5.24E-13,-2.05E-12,-5.40E-13,-7.23E-13,-0.001308663,0.001308663,-0.001336956,0.001336956,-0.001336956,0.001336956,-0.001336956,0.001336956,-0.001336956,0.001336956,-0.001280762,0.001280762,-0.001280762,0.001280762,-0.001280762,0.001280762,-0.001280762,0.001280762,-8.06E-11,8.07E-11,-0.001308663,0.001308663,-4.75E-14,1.36E-13,-0.001336956,0.001336956,-0.001336956,0.001336956,-0.001336956,0.001336956,-0.001336956,0.001336956,-0.001280762,0.001280762,-0.001280762,0.001280762,0.778838418,0.899853388,1368840,32768,0.005437915,0.005437915,0.005437915,27.67731911,27.69335096,0.000136619,0.000136619,0.000136619,278387.5826,0.01644768
31239759,0.94800299,0.015935273,0.005311758,0.005311758,0.005311758,-0.001311728,0.001311728,8.18E-11,-7.96E-11,-1.69E-13,2.34E-12,-0.001339947,0.001339947,-0.001339947,0.001339947,-0.001339947,0.001339947,-0.001339947,0.001339947,-0.001283909,0.001283909,-0.001283909,0.001283909,4.92E-13,-1.99E-12,-6.25E-13,-8.11E-13,-0.001311728,0.001311728,-0.001339947,0.001339947,-0.001339947,0.001339947,-0.001339947,0.001339947,-0.001339947,0.001339947,-0.001283909,0.001283909,-0.001283909,0.001283909,-0.001283909,0.001283909,-0.001283909,0.001283909,-8.06E-11,8.08E-11,-0.001311728,0.001311728,-5.26E-14,1.34E-13,-0.001339947,0.001339947,-0.001339947,0.001339947,-0.001339947,0.001339947,-0.001339947,0.001339947,-0.001283909,0.001283909,-0.001283909,0.001283909,0.781959337,0.89946768,1368840,32768,0.005450617,0.005450617,0.005450617,27.92266722,27.93899158,0.000138581,0.000138581,0.000138581,266705.2619,0.016486414
31326159,0.949720634,0.015964634,0.005321545,0.005321545,0.005321545,-0.001314571,0.001314571,8.17E-11,-7.96E-11,-2.06E-13,2.31E-12,-0.001342805,0.001342805,-0.001342805,0.001342805,-0.001342805,0.001342805,-0.001342805,0.001342805,-0.001286744,0.001286744,-0.001286744,0.001286744,5.14E-13,-1.97E-12,-5.06E-13,-7.22E-13,-0.001314571,0.001314571,-0.001342805,0.001342805,-0.001342805,0.001342805,-0.001342805,0.001342805,-0.001342805,0.001342805,-0.001286744,0.001286744,-0.001286744,0.001286744,-0.001286744,0.001286744,-0.001286744,0.001286744,-8.06E-11,8.08E-11,-0.001314571,0.001314571,-5.46E-14,1.63E-13,-0.001342805,0.001342805,-0.001342805,0.001342805,-0.001342805,0.001342805,-0.001342805,0.001342805,-0.001286744,0.001286744,-0.001286744,0.001286744,0.779562959,0.82716983,1368840,32768,0.005462399,0.005462399,0.005462399,28.16826359,28.1846322,0.000140546,0.000140546,0.000140546,262959.5807,0.016522345
31412559,0.951407574,0.015993337,0.005331112,0.005331112,0.005331112,-0.001317236,0.001317236,8.17E-11,-7.96E-11,-1.89E-13,2.30E-12,-0.001345548,0.001345548,-0.001345548,0.001345548,-0.001345548,0.001345548,-0.001345548,0.001345548,-0.001289335,0.001289335,-0.001289335,0.001289335,5.34E-13,-1.93E-12,-5.33E-13,-6.93E-13,-0.001317236,0.001317236,-0.001345548,0.001345548,-0.001345548,0.001345548,-0.001345548,0.001345548,-0.001345548,0.001345548,-0.001289335,0.001289335,-0.001289335,0.001289335,-0.001289335,0.001289335,-0.001289335,0.001289335,-8.06E-11,8.08E-11,-0.001317236,0.001317236,6.39E-15,1.68E-13,-0.001345548,0.001345548,-0.001345548,0.001345548,-0.001345548,0.001345548,-0.001345548,0.001345548,-0.001289335,0.001289335,-0.001289335,0.001289335,0.775897034,0.761601071,1368840,32768,0.005473443,0.005473443,0.005473443,28.41388467,28.43027282,0.000142511,0.000142511,0.000142511,265044.2919,0.016556026
31498959,0.953063362,0.016021344,0.005340448,0.005340448,0.005340448,-0.001319846,0.001319846,8.18E-11,-7.96E-11,-1.42E-13,2.41E-12,-0.001348243,0.001348243,-0.001348243,0.001348243,-0.001348243,0.001348243,-0.001348243,0.001348243,-0.001291862,0.001291863,-0.001291863,0.001291862,5.09E-13,-2.02E-12,-5.51E-13,-6.97E-13,-0.001319846,0.001319846,-0.001348243,0.001348243,-0.001348243,0.001348243,-0.001348243,0.001348243,-0.001348243,0.001348243,-0.001291862,0.001291862,-0.001291862,0.001291862,-0.001291862,0.001291862,-0.001291862,0.001291862,-8.06E-11,8.08E-11,-0.001319846,0.001319846,-5.96E-15,1.41E-13,-0.001348243,0.001348243,-0.001348243,0.001348243,-0.001348243,0.001348243,-0.001348243,0.001348243,-0.001291862,0.001291863,-0.001291863,0.001291862,0.771294022,0.696032311,1368840,32768,0.005484257,0.005484257,0.005484257,28.65950909,28.67591345,0.000144476,0.000144476,0.000144476,267549.349,0.016589006
31585359,0.954687583,0.016048634,0.005349545,0.005349545,0.005349545,-0.001322388,0.001322388,8.17E-11,-7.96E-11,-2.26E-13,2.39E-12,-0.001350878,0.001350878,-0.001350878,0.001350878,-0.001350878,0.001350878,-0.001350878,0.001350878,-0.001294312,0.001294312,-0.001294312,0.001294312,5.02E-13,-2.09E-12,-5.34E-13,-6.75E-13,-0.001322388,0.001322388,-0.001350878,0.001350878,-0.001350878,0.001350878,-0.001350878,0.001350878,-0.001350878,0.001350878,-0.001294312,0.001294312,-0.001294312,0.001294312,-0.001294312,0.001294312,-0.001294312,0.001294312,-8.06E-11,8.07E-11,-0.001322388,0.001322388,1.24E-14,1.54E-13,-0.001350878,0.001350878,-0.001350878,0.001350878,-0.001350878,0.001350878,-0.001350878,0.001350878,-0.001294312,0.001294312,-0.001294312,0.001294312,0.766157082,0.630463552,1368840,32768,0.005494791,0.005494791,0.005494791,28.90513473,28.92155407,0.000146441,0.000146441,0.000146441,270771.9011,0.016621133
31671759,0.956279863,0.016075197,0.005358399,0.005358399,0.005358399,-0.001324862,0.001324862,8.16E-11,-7.96E-11,-1.90E-13,2.46E-12,-0.001353454,0.001353454,-0.001353454,0.001353454,-0.001353454,0.001353454,-0.001353454,0.001353454,-0.001296681,0.001296681,-0.001296681,0.001296681,6.08E-13,-2.01E-12,-6.15E-13,-7.20E-13,-0.001324862,0.001324862,-0.001353454,0.001353454,-0.001353454,0.001353454,-0.001353454,0.001353454,-0.001353454,0.001353454,-0.001296681,0.001296681,-0.001296681,0.001296681,-0.001296681,0.001296681,-0.001296681,0.001296681,-8.07E-11,8.06E-11,-0.001324862,0.001324862,-1.39E-13,-3.30E-14,-0.001353454,0.001353454,-0.001353454,0.001353454,-0.001353454,0.001353454,-0.001353454,0.001353454,-0.001296681,0.001296681,-0.001296681,0.001296681,0.760672359,0.564894793,1368840,32768,0.005505041,0.005505041,0.005505041,29.15076113,29.16719469,0.000148406,0.000148406,0.000148406,274725.719,0.016652395
31758159,0.957827875,0.016100817,0.005366939,0.005366939,0.005366939,-0.001326989,0.001326989,8.17E-11,-7.96E-11,-1.85E-13,2.50E-12,-0.001355698,0.001355698,-0.001355698,0.001355698,-0.001355698,0.001355698,-0.001355698,0.001355698,-0.001298687,0.001298687,-0.001298687,0.001298687,5.45E-13,-2.11E-12,-6.23E-13,-7.25E-13,-0.001326989,0.001326989,-0.001355698,0.001355698,-0.001355698,0.001355698,-0.001355698,0.001355698,-0.001355698,0.001355698,-0.001298687,0.001298687,-0.001298687,0.001298687,-0.001298687,0.001298687,-0.001298687,0.001298687,-8.06E-11,8.07E-11,-0.001326989,0.001326989,-3.82E-14,6.50E-14,-0.001355698,0.001355698,-0.001355698,0.001355698,-0.001355698,0.001355698,-0.001355698,0.001355698,-0.001298687,0.001298687,-0.001298687,0.001298687,0.754636115,0.494710446,1368840,32768,0.005513856,0.005513856,0.005513856,29.26197868,29.26972975,0.000149296,0.000149296,0.000149296,279565.9934,0.01667928
31844559,0.959323712,0.016125775,0.005375258,0.005375258,0.005375258,-0.001328848,0.001328848,8.18E-11,-7.95E-11,-1.97E-13,2.49E-12,-0.001357679,0.001357679,-0.001357679,0.001357679,-0.001357679,0.001357679,-0.001357679,0.001357679,-0.001300428,0.001300428,-0.001300428,0.001300428,5.49E-13,-2.11E-12,-5.97E-13,-7.09E-13,-0.001328848,0.001328848,-0.001357679,0.001357679,-0.001357679,0.001357679,-0.001357679,0.001357679,-0.001357679,0.001357679,-0.001300428,0.001300428,-0.001300428,0.001300428,-0.001300428,0.001300428,-0.001300428,0.001300428,-8.06E-11,8.07E-11,-0.001328848,0.001328848,1.16E-14,1.24E-13,-0.001357679,0.001357679,-0.001357679,0.001357679,-0.001357679,0.001357679,-0.001357679,0.001357679,-0.001300428,0.001300428,-0.001300428,0.001300428,0.760909703,0.614801787,1368840,32768,0.00552156,0.00552156,0.00552156,29.27265172,29.273612,0.000149381,0.000149381,0.000149381,284861.5128,0.01670278
31930959,0.960768468,0.016150162,0.005383387,0.005383387,0.005383387,-0.001331081,0.001331081,8.18E-11,-7.95E-11,-1.78E-13,2.47E-12,-0.001359806,0.001359806,-0.001359806,0.001359806,-0.001359806,0.001359806,-0.001359806,0.001359806,-0.001302768,0.001302768,-0.001302768,0.001302768,5.44E-13,-2.08E-12,-5.89E-13,-7.15E-13,-0.001331081,0.001331081,-0.001359806,0.001359806,-0.001359806,0.001359806,-0.001359806,0.001359806,-0.001359806,0.001359806,-0.001302768,0.001302768,-0.001302768,0.001302768,-0.001302768,0.001302768,-0.001302768,0.001302768,-8.06E-11,8.08E-11,-0.001331081,0.001331081,1.87E-15,1.29E-13,-0.001359806,0.001359806,-0.001359806,0.001359806,-0.001359806,0.001359806,-0.001359806,0.001359806,-0.001302768,0.001302768,-0.001302768,0.001302768,0.769979432,0.774379144,1368840,32768,0.005530812,0.005530812,0.005530812,29.27716513,29.27749426,0.000149417,0.000149417,0.000149417,271483.3922,0.016730998
32017359,0.96216372,0.016173788,0.005391263,0.005391263,0.005391263,-0.001333304,0.001333304,8.18E-11,-7.95E-11,-1.84E-13,2.46E-12,-0.001361895,0.001361895,-0.001361895,0.001361895,-0.001361895,0.001361895,-0.001361895,0.001361895,-0.001305127,0.001305128,-0.001305128,0.001305127,5.46E-13,-2.07E-12,-5.78E-13,-7.05E-13,-0.001333304,0.001333304,-0.001361895,0.001361895,-0.001361895,0.001361895,-0.001361895,0.001361895,-0.001361895,0.001361895,-0.001305128,0.001305128,-0.001305128,0.001305128,-0.001305128,0.001305128,-0.001305128,0.001305127,-8.06E-11,8.07E-11,-0.001333304,0.001333304,6.22E-16,1.30E-13,-0.001361895,0.001361895,-0.001361895,0.001361895,-0.001361895,0.001361895,-0.001361895,0.001361895,-0.001305127,0.001305128,-0.001305128,0.001305127,0.772310277,0.795584983,1368840,32768,0.005540024,0.005540024,0.005540024,29.28110978,29.28137651,0.000149449,0.000149449,0.000149449,256215.2455,0.016759099
32103759,0.963511044,0.016196692,0.005398897,0.005398897,0.005398897,-0.001335197,0.001335197,8.18E-11,-7.95E-11,-1.80E-13,2.46E-12,-0.001363782,0.001363782,-0.001363782,0.001363782,-0.001363782,0.001363782,-0.001363782,0.001363782,-0.00130703,0.001307031,-0.001307031,0.00130703,5.49E-13,-2.06E-12,-5.73E-13,-7.01E-13,-0.001335197,0.001335197,-0.001363782,0.001363782,-0.001363782,0.001363782,-0.001363782,0.001363782,-0.001363782,0.001363782,-0.00130703,0.00130703,-0.00130703,0.00130703,-0.00130703,0.00130703,-0.00130703,0.00130703,-8.06E-11,8.07E-11,-0.001335197,0.001335197,-1.83E-15,1.28E-13,-0.001363782,0.001363782,-0.001363782,0.001363782,-0.001363782,0.001363782,-0.001363782,0.001363782,-0.00130703,0.001307031,-0.001307031,0.00130703,0.775180195,0.821162567,1368840,32768,0.005547867,0.005547867,0.005547867,29.28499833,29.28525877,0.00014948,0.00014948,0.00014948,251941.1868,0.016783022
32190159,0.964811975,0.016218904,0.005406301,0.005406301,0.005406301,-0.001337041,0.001337041,8.18E-11,-7.96E-11,-1.78E-13,2.45E-12,-0.001365615,0.001365615,-0.001365615,0.001365615,-0.001365615,0.001365615,-0.001365615,0.001365615,-0.001308891,0.001308892,-0.001308892,0.001308891,5.37E-13,-2.06E-12,-5.68E-13,-6.98E-13,-0.001337041,0.001337041,-0.001365615,0.001365615,-0.001365615,0.001365615,-0.001365615,0.001365615,-0.001365615,0.001365615,-0.001308892,0.001308892,-0.001308892,0.001308892,-0.001308892,0.001308892,-0.001308892,0.001308892,-8.06E-11,8.07E-11,-0.001337041,0.001337041,-3.23E-16,1.31E-13,-0.001365615,0.001365615,-0.001365615,0.001365615,-0.001365615,0.001365615,-0.001365615,0.001365615,-0.001308891,0.001308892,-0.001308892,0.001308891,0.778523112,0.849034229,1368840,32768,0.005555509,0.005555509,0.005555509,29.28888126,29.28914102,0.000149511,0.000149511,0.000149511,247353.8706,0.016806334
32276559,0.966068011,0.01624045,0.005413483,0.005413483,0.005413483,-0.001338835,0.001338835,8.18E-11,-7.96E-11,-1.74E-13,2.44E-12,-0.001367393,0.001367393,-0.001367393,0.001367393,-0.001367393,0.001367393,-0.001367393,0.001367393,-0.001310707,0.001310708,-0.001310708,0.001310707,5.35E-13,-2.05E-12,-5.66E-13,-6.99E-13,-0.001338835,0.001338835,-0.001367393,0.001367393,-0.001367393,0.001367393,-0.001367393,0.001367393,-0.001367393,0.001367393,-0.001310707,0.001310707,-0.001310707,0.001310707,-0.001310707,0.001310707,-0.001310707,0.001310707,-8.06E-11,8.07E-11,-0.001338835,0.001338835,-1.31E-15,1.33E-13,-0.001367393,0.001367393,-0.001367393,0.001367393,-0.001367393,0.001367393,-0.001367393,0.001367393,-0.001310707,0.001310708,-0.001310708,0.001310707,0.782183553,0.87690589,1368840,32768,0.005562943,0.005562943,0.005562943,29.29276364,29.29302327,0.000149542,0.000149542,0.000149542,242601.7566,0.016829011
32362959,0.967280606,0.016261356,0.005420452,0.005420452,0.005420452,-0.001340577,0.001340577,8.18E-11,-7.96E-11,-1.70E-13,2.43E-12,-0.001369116,0.001369116,-0.001369116,0.001369116,-0.001369116,0.001369116,-0.001369116,0.001369116,-0.001312474,0.001312474,-0.001312474,0.001312474,5.31E-13,-2.05E-12,-5.64E-13,-6.97E-13,-0.001340577,0.001340577,-0.001369116,0.001369116,-0.001369116,0.001369116,-0.001369116,0.001369116,-0.001369116,0.001369116,-0.001312474,0.001312474,-0.001312474,0.001312474,-0.001312474,0.001312474,-0.001312474,0.001312474,-8.06E-11,8.07E-11,-0.001340577,0.001340577,2.74E-16,1.34E-13,-0.001369116,0.001369116,-0.001369116,0.001369116,-0.001369116,0.001369116,-0.001369116,0.001369116,-0.001312474,0.001312474,-0.001312474,0.001312474,0.786103366,0.904777552,1368840,32768,0.00557016,0.00557016,0.00557016,29.29664597,29.29690553,0.000149573,0.000149573,0.000149573,237859.4814,0.016851025
32449359,0.968451173,0.016281519,0.005427173,0.005427173,0.005427173,-0.001342258,0.001342258,8.18E-11,-7.96E-11,-1.71E-13,2.43E-12,-0.001370779,0.001370779,-0.001370779,0.001370779,-0.001370779,0.001370779,-0.001370779,0.001370779,-0.001314177,0.001314177,-0.001314177,0.001314177,5.27E-13,-2.05E-12,-5.57E-13,-7.03E-13,-0.001342258,0.001342258,-0.001370779,0.001370779,-0.001370779,0.001370779,-0.001370779,0.001370779,-0.001370779,0.001370779,-0.001314177,0.001314177,-0.001314177,0.001314177,-0.001314177,0.001314177,-0.001314177,0.001314177,-8.06E-11,8.08E-11,-0.001342258,0.001342258,-9.13E-15,1.38E-13,-0.001370779,0.001370779,-0.001370779,0.001370779,-0.001370779,0.001370779,-0.001370779,0.001370779,-0.001314177,0.001314177,-0.001314177,0.001314177,0.785303474,0.859507029,1368840,32768,0.005577125,0.005577125,0.005577125,29.30052819,29.30078778,0.000149604,0.000149604,0.000149604,233327.444,0.016872273
32535759,0.969579992,0.016300808,0.005433603,0.005433603,0.005433603,-0.001343713,0.001343713,8.18E-11,-7.96E-11,-1.72E-13,2.43E-12,-0.001372281,0.001372282,-0.001372282,0.001372281,-0.001372281,0.001372282,-0.001372282,0.001372281,-0.001315587,0.001315587,-0.001315587,0.001315587,5.26E-13,-2.05E-12,-5.58E-13,-6.93E-13,-0.001343713,0.001343713,-0.001372282,0.001372282,-0.001372282,0.001372282,-0.001372282,0.001372282,-0.001372282,0.001372282,-0.001315587,0.001315587,-0.001315587,0.001315587,-0.001315587,0.001315587,-0.001315587,0.001315587,-8.06E-11,8.07E-11,-0.001343713,0.001343713,-4.34E-15,1.31E-13,-0.001372282,0.001372281,-0.001372282,0.001372281,-0.001372281,0.001372282,-0.001372281,0.001372282,-0.001315587,0.001315587,-0.001315587,0.001315587,0.778905617,0.755249205,1368840,32768,0.005583154,0.005583154,0.005583154,29.28747497,29.28664041,0.0001495,0.0001495,0.0001495,233872.6738,0.016890665
32622159,0.970667785,0.016319213,0.005439738,0.005439738,0.005439738,-0.00134496,0.00134496,8.18E-11,-7.96E-11,-1.77E-13,2.43E-12,-0.001373636,0.001373636,-0.001373636,0.001373636,-0.001373636,0.001373636,-0.001373636,0.001373636,-0.001316728,0.001316728,-0.001316728,0.001316728,5.33E-13,-2.04E-12,-5.59E-13,-7.06E-13,-0.00134496,0.00134496,-0.001373636,0.001373636,-0.001373636,0.001373636,-0.001373636,0.001373636,-0.001373636,0.001373636,-0.001316728,0.001316728,-0.001316728,0.001316728,-0.001316728,0.001316728,-0.001316728,0.001316728,-8.06E-11,8.07E-11,-0.00134496,0.00134496,-1.41E-14,1.34E-13,-0.001373636,0.001373636,-0.001373636,0.001373636,-0.001373636,0.001373636,-0.001373636,0.001373636,-0.001316728,0.001316728,-0.001316728,0.001316728,0.771167128,0.65099138,1368840,32768,0.00558832,0.00558832,0.00558832,29.26276283,29.26113791,0.000149302,0.000149302,0.000149302,239200.3989,0.016906426
32708559,0.971715991,0.016336755,0.005445585,0.005445585,0.005445585,-0.001346115,0.001346115,8.18E-11,-7.95E-11,-1.65E-13,2.42E-12,-0.001374916,0.001374916,-0.001374916,0.001374916,-0.001374916,0.001374916,-0.001374916,0.001374916,-0.001317757,0.001317757,-0.001317757,0.001317757,5.24E-13,-2.04E-12,-5.60E-13,-6.96E-13,-0.001346115,0.001346115,-0.001374916,0.001374916,-0.001374916,0.001374916,-0.001374916,0.001374916,-0.001374916,0.001374916,-0.001317757,0.001317757,-0.001317757,0.001317757,-0.001317757,0.001317757,-0.001317757,0.001317757,-8.06E-11,8.07E-11,-0.001346115,0.001346115,-4.88E-15,1.32E-13,-0.001374916,0.001374916,-0.001374916,0.001374916,-0.001374916,0.001374916,-0.001374916,0.001374916,-0.001317757,0.001317757,-0.001317757,0.001317757,0.762709927,0.546733556,1368840,32768,0.005593104,0.005593104,0.005593104,29.23733394,29.23563541,0.000149099,0.000149099,0.000149099,245751.1482,0.016921021
32794959,0.972726042,0.016353461,0.005451154,0.005451154,0.005451154,-0.001347178,0.001347178,8.18E-11,-7.96E-11,-1.63E-13,2.41E-12,-0.00137612,0.00137612,-0.00137612,0.00137612,-0.00137612,0.00137612,-0.00137612,0.00137612,-0.001318678,0.001318678,-0.001318678,0.001318678,5.19E-13,-2.03E-12,-5.54E-13,-7.00E-13,-0.001347178,0.001347178,-0.00137612,0.00137612,-0.00137612,0.00137612,-0.00137612,0.00137612,-0.00137612,0.00137612,-0.001318678,0.001318678,-0.001318678,0.001318678,-0.001318678,0.001318678,-0.001318678,0.001318678,-8.06E-11,8.07E-11,-0.001347178,0.001347178,-5.84E-15,1.42E-13,-0.00137612,0.00137612,-0.00137612,0.00137612,-0.00137612,0.00137612,-0.00137612,0.00137612,-0.001318678,0.001318678,-0.001318678,0.001318678,0.75382688,0.442475731,1368840,32768,0.005597512,0.005597512,0.005597512,29.21183867,29.2101329,0.000148895,0.000148895,0.000148895,253488.589,0.016934469
32881359,0.973699324,0.016369602,0.005456534,0.005456534,0.005456534,-0.001348172,0.001348172,8.18E-11,-7.96E-11,-1.62E-13,2.41E-12,-0.001377265,0.001377265,-0.001377265,0.001377265,-0.001377265,0.001377265,-0.001377265,0.001377265,-0.00131952,0.00131952,-0.00131952,0.00131952,5.15E-13,-2.03E-12,-5.59E-13,-7.03E-13,-0.001348172,0.001348172,-0.001377265,0.001377265,-0.001377265,0.001377265,-0.001377265,0.001377265,-0.001377265,0.001377265,-0.00131952,0.00131952,-0.00131952,0.00131952,-0.00131952,0.00131952,-0.00131952,0.00131952,-8.06E-11,8.07E-11,-0.001348172,0.001348172,-6.13E-15,1.40E-13,-0.001377265,0.001377265,-0.001377265,0.001377265,-0.001377265,0.001377265,-0.001377265,0.001377265,-0.00131952,0.00131952,-0.00131952,0.00131952,0.7559249,0.500359643,1368840,32768,0.005601628,0.005601628,0.005601628,29.18633684,29.1846304,0.000148691,0.000148691,0.000148691,262107.523,0.016947026
32967759,0.974637173,0.016385191,0.00546173,0.00546173,0.00546173,-0.001349504,0.001349504,8.18E-11,-7.95E-11,-1.21E-13,2.44E-12,-0.001378557,0.001378557,-0.001378557,0.001378557,-0.001378557,0.001378557,-0.001378557,0.001378557,-0.001320889,0.001320889,-0.001320889,0.001320889,5.25E-13,-2.01E-12,-5.49E-13,-6.82E-13,-0.001349504,0.001349504,-0.001378557,0.001378557,-0.001378557,0.001378557,-0.001378557,0.001378557,-0.001378557,0.001378557,-0.001320889,0.001320889,-0.001320889,0.001320889,-0.001320889,0.001320889,-0.001320889,0.001320889,-8.06E-11,8.07E-11,-0.001349504,0.001349504,-2.09E-14,1.15E-13,-0.001378557,0.001378557,-0.001378557,0.001378557,-0.001378557,0.001378557,-0.001378557,0.001378557,-0.001320889,0.001320889,-0.001320889,0.001320889,0.75787499,0.550412233,1368840,32768,0.005607149,0.005607149,0.005607149,29.16083432,29.1591279,0.000148487,0.000148487,0.000148487,255981.1279,0.01696387
33054159,0.975540883,0.016400475,0.005466825,0.005466825,0.005466825,-0.001350794,0.001350794,8.18E-11,-7.96E-11,-1.56E-13,2.37E-12,-0.001379804,0.001379804,-0.001379804,0.001379804,-0.001379804,0.001379804,-0.001379804,0.001379804,-0.001322222,0.001322223,-0.001322223,0.001322222,5.19E-13,-1.98E-12,-5.74E-13,-6.87E-13,-0.001350794,0.001350794,-0.001379804,0.001379804,-0.001379804,0.001379804,-0.001379804,0.001379804,-0.001379804,0.001379804,-0.001322222,0.001322222,-0.001322222,0.001322222,-0.001322222,0.001322222,-0.001322222,0.001322222,-8.06E-11,8.07E-11,-0.001350794,0.001350794,3.40E-15,1.18E-13,-0.001379804,0.001379804,-0.001379804,0.001379804,-0.001379804,0.001379804,-0.001379804,0.001379804,-0.001322222,0.001322223,-0.001322223,0.001322222,0.771175592,0.790556292,1368840,32768,0.005612491,0.005612491,0.005612491,29.13533117,29.1336254,0.000148283,0.000148283,0.000148283,250216.8708,0.01698017
33140559,0.976411698,0.016415255,0.005471752,0.005471752,0.005471752,-0.001352416,0.001352416,8.18E-11,-7.96E-11,-1.44E-13,2.37E-12,-0.001381198,0.001381198,-0.001381198,0.001381198,-0.001381198,0.001381198,-0.001381198,0.001381198,-0.001324071,0.001324071,-0.001324071,0.001324071,5.01E-13,-1.98E-12,-5.59E-13,-6.69E-13,-0.001352416,0.001352416,-0.001381198,0.001381198,-0.001381198,0.001381198,-0.001381198,0.001381198,-0.001381198,0.001381198,-0.001324071,0.001324071,-0.001324071,0.001324071,-0.001324071,0.001324071,-0.001324071,0.001324071,-8.06E-11,8.07E-11,-0.001352416,0.001352416,5.96E-15,1.18E-13,-0.001381198,0.001381198,-0.001381198,0.001381198,-0.001381198,0.001381198,-0.001381198,0.001381198,-0.001324071,0.001324071,-0.001324071,0.001324071,0.773911592,0.812073383,1368840,32768,0.005619214,0.005619214,0.005619214,29.10982828,29.10812289,0.000148079,0.000148079,0.000148079,230867.3394,0.017000679
33226959,0.977250821,0.016429555,0.005476518,0.005476518,0.005476518,-0.001353562,0.001353562,8.18E-11,-7.96E-11,-1.41E-13,2.37E-12,-0.00138233,0.00138233,-0.00138233,0.00138233,-0.00138233,0.00138233,-0.00138233,0.00138233,-0.001325231,0.001325232,-0.001325232,0.001325231,5.04E-13,-1.98E-12,-5.53E-13,-6.67E-13,-0.001353562,0.001353562,-0.00138233,0.00138233,-0.00138233,0.00138233,-0.00138233,0.00138233,-0.00138233,0.00138233,-0.001325232,0.001325232,-0.001325232,0.001325232,-0.001325232,0.001325232,-0.001325232,0.001325232,-8.06E-11,8.08E-11,-0.001353562,0.001353562,4.19E-15,1.20E-13,-0.00138233,0.00138233,-0.00138233,0.00138233,-0.00138233,0.00138233,-0.00138233,0.00138233,-0.001325231,0.001325232,-0.001325232,0.001325231,0.776827967,0.833590474,1368840,32768,0.00562396,0.00562396,0.00562396,29.08432536,29.08262039,0.000147875,0.000147875,0.000147875,227510.2037,0.01701516
33313359,0.978063748,0.016443463,0.005481154,0.005481154,0.005481154,-0.001354855,0.001354855,8.18E-11,-7.96E-11,-1.67E-13,2.39E-12,-0.001383607,0.001383607,-0.001383607,0.001383607,-0.001383607,0.001383607,-0.001383607,0.001383607,-0.001326543,0.001326544,-0.001326544,0.001326543,5.12E-13,-2.02E-12,-5.69E-13,-6.78E-13,-0.001354855,0.001354855,-0.001383607,0.001383607,-0.001383607,0.001383607,-0.001383607,0.001383607,-0.001383607,0.001383607,-0.001326544,0.001326544,-0.001326544,0.001326544,-0.001326544,0.001326544,-0.001326544,0.001326544,-8.06E-11,8.07E-11,-0.001354855,0.001354855,2.31E-15,1.13E-13,-0.001383607,0.001383607,-0.001383607,0.001383607,-0.001383607,0.001383607,-0.001383607,0.001383607,-0.001326543,0.001326544,-0.001326544,0.001326543,0.779932686,0.855107566,1368840,32768,0.00562932,0.00562932,0.00562932,29.15233312,29.15666638,0.000148419,0.000148419,0.000148419,224096.8755,0.017031515
33399759,0.978853817,0.016457038,0.005485679,0.005485679,0.005485679,-0.001356236,0.001356236,8.18E-11,-7.96E-11,-1.63E-13,2.40E-12,-0.00138497,0.00138497,-0.00138497,0.00138497,-0.00138497,0.00138497,-0.00138497,0.00138497,-0.001327943,0.001327943,-0.001327943,0.001327943,5.00E-13,-2.04E-12,-5.71E-13,-6.86E-13,-0.001356236,0.001356236,-0.00138497,0.00138497,-0.00138497,0.00138497,-0.00138497,0.00138497,-0.00138497,0.00138497,-0.001327943,0.001327943,-0.001327943,0.001327943,-0.001327943,0.001327943,-0.001327943,0.001327943,-8.06E-11,8.08E-11,-0.001356236,0.001356236,-1.23E-15,1.14E-13,-0.00138497,0.00138497,-0.00138497,0.00138497,-0.00138497,0.00138497,-0.00138497,0.00138497,-0.001327943,0.001327943,-0.001327943,0.001327943,0.783212743,0.876624657,1368840,32768,0.005635039,0.005635039,0.005635039,29.27952411,29.28788259,0.000149436,0.000149436,0.000149436,220727.7283,0.017048964
33486159,0.979621585,0.016470288,0.005490096,0.005490096,0.005490096,-0.001357596,0.001357596,8.18E-11,-7.95E-11,-1.67E-13,2.39E-12,-0.001386314,0.001386314,-0.001386314,0.001386314,-0.001386314,0.001386314,-0.001386314,0.001386314,-0.001329322,0.001329323,-0.001329322,0.001329322,6.23E-13,-1.91E-12,-5.40E-13,-6.34E-13,-0.001357596,0.001357596,-0.001386314,0.001386314,-0.001386314,0.001386314,-0.001386314,0.001386314,-0.001386314,0.001386314,-0.001329322,0.001329322,-0.001329322,0.001329322,-0.001329322,0.001329322,-0.001329322,0.001329322,-8.07E-11,8.07E-11,-0.001357596,0.001357596,-2.14E-14,7.31E-14,-0.001386314,0.001386314,-0.001386314,0.001386314,-0.001386314,0.001386314,-0.001386314,0.001386314,-0.001329322,0.001329323,-0.001329323,0.001329322,0.786644567,0.898141748,1368840,32768,0.005640675,0.005640675,0.005640675,29.4103645,29.4190988,0.000150483,0.000150483,0.000150483,217435.6084,0.01706616
33572559,0.980367448,0.016483218,0.005494406,0.005494406,0.005494406,-0.00135893,0.00135893,8.17E-11,-7.96E-11,-2.52E-13,2.33E-12,-0.00138763,0.00138763,-0.00138763,0.00138763,-0.00138763,0.00138763,-0.00138763,0.00138763,-0.001330677,0.001330677,-0.001330677,0.001330677,5.90E-13,-1.97E-12,-4.88E-13,-6.04E-13,-0.00135893,0.00135893,-0.00138763,0.00138763,-0.00138763,0.00138763,-0.00138763,0.00138763,-0.00138763,0.00138763,-0.001330677,0.001330677,-0.001330677,0.001330677,-0.001330677,0.001330677,-0.001330677,0.001330677,-8.07E-11,8.07E-11,-0.00135893,0.00135893,-1.39E-14,1.03E-13,-0.00138763,0.00138763,-0.00138763,0.00138763,-0.00138763,0.00138763,-0.00138763,0.00138763,-0.001330677,0.001330677,-0.001330677,0.001330677,0.790203584,0.919658839,1368840,32768,0.005646203,0.005646203,0.005646203,29.54154226,29.55031502,0.000151532,0.000151532,0.000151532,214177.2233,0.017083027
33658959,0.981091794,0.016495798,0.005498599,0.005498599,0.005498599,-0.001360235,0.001360235,8.18E-11,-7.96E-11,-1.90E-13,2.37E-12,-0.001388917,0.001388917,-0.001388917,0.001388917,-0.001388917,0.001388917,-0.001388917,0.001388917,-0.001332003,0.001332003,-0.001332003,0.001332003,5.59E-13,-1.98E-12,-5.53E-13,-6.64E-13,-0.001360235,0.001360235,-0.001388917,0.001388917,-0.001388917,0.001388917,-0.001388917,0.001388917,-0.001388917,0.001388917,-0.001332003,0.001332003,-0.001332003,0.001332003,-0.001332003,0.001332003,-0.001332003,0.001332003,-8.07E-11,8.07E-11,-0.001360235,0.001360235,-6.54E-15,1.06E-13,-0.001388917,0.001388917,-0.001388917,0.001388917,-0.001388917,0.001388917,-0.001388917,0.001388917,-0.001332003,0.001332003,-0.001332003,0.001332003,0.791584528,0.905720959,1368840,32768,0.005651611,0.005651611,0.005651611,29.67275164,29.68153123,0.000152582,0.000152582,0.000152582,210990.2582,0.017099528
33745359,0.98179501,0.01650809,0.005502697,0.005502697,0.005502697,-0.001361459,0.001361459,8.18E-11,-7.95E-11,-1.54E-13,2.40E-12,-0.001390149,0.001390149,-0.001390149,0.001390149,-0.001390149,0.001390149,-0.001390149,0.001390149,-0.001333222,0.001333222,-0.001333222,0.001333222,5.25E-13,-2.00E-12,-5.64E-13,-6.70E-13,-0.001361459,0.001361459,-0.001390149,0.001390149,-0.001390149,0.001390149,-0.001390149,0.001390149,-0.001390149,0.001390149,-0.001333222,0.001333222,-0.001333222,0.001333222,-0.001333222,0.001333222,-0.001333222,0.001333222,-8.06E-11,8.07E-11,-0.001361459,0.001361459,-5.87E-15,1.02E-13,-0.001390149,0.001390149,-0.001390149,0.001390149,-0.001390149,0.001390149,-0.001390149,0.001390149,-0.001333222,0.001333222,-0.001333222,0.001333222,0.79675691,0.960907484,1368840,32768,0.00565668,0.00565668,0.00565668,29.8039674,29.81274744,0.000153632,0.000153632,0.000153632,209794.3074,0.017114995
33831759,0.982477483,0.016519941,0.005506647,0.005506647,0.005506647,-0.001362756,0.001362756,8.17E-11,-7.96E-11,-1.76E-13,2.38E-12,-0.001391403,0.001391403,-0.001391403,0.001391403,-0.001391403,0.001391403,-0.001391403,0.001391403,-0.001334562,0.001334562,-0.001334562,0.001334562,5.39E-13,-1.98E-12,-5.59E-13,-6.51E-13,-0.001362756,0.001362756,-0.001391403,0.001391403,-0.001391403,0.001391403,-0.001391403,0.001391403,-0.001391403,0.001391403,-0.001334562,0.001334562,-0.001334562,0.001334562,-0.001334562,0.001334562,-0.001334562,0.001334562,-8.06E-11,8.07E-11,-0.001362756,0.001362756,1.17E-14,1.06E-13,-0.001391403,0.001391403,-0.001391403,0.001391403,-0.001391403,0.001391403,-0.001391403,0.001391403,-0.001334562,0.001334562,-0.001334562,0.001334562,0.791346332,0.847671892,1368840,32768,0.005662056,0.005662056,0.005662056,29.93517551,29.94396365,0.000154681,0.000154681,0.000154681,205064.4645,0.0171314
33918159,0.983139604,0.016531378,0.005510459,0.005510459,0.005510459,-0.001363747,0.001363748,8.17E-11,-7.96E-11,-1.38E-13,2.40E-12,-0.001392484,0.001392484,-0.001392484,0.001392484,-0.001392484,0.001392484,-0.001392484,0.001392484,-0.001335466,0.001335466,-0.001335466,0.001335466,4.94E-13,-2.01E-12,-6.08E-13,-7.03E-13,-0.001363748,0.001363747,-0.001392484,0.001392484,-0.001392484,0.001392484,-0.001392484,0.001392484,-0.001392484,0.001392484,-0.001335466,0.001335466,-0.001335466,0.001335466,-0.001335466,0.001335466,-0.001335466,0.001335466,-8.06E-11,8.07E-11,-0.001363748,0.001363748,4.93E-15,1.02E-13,-0.001392484,0.001392484,-0.001392484,0.001392484,-0.001392484,0.001392484,-0.001392484,0.001392484,-0.001335466,0.001335466,-0.001335466,0.001335466,0.787157398,0.784356827,1368840,32768,0.005666162,0.005666162,0.005666162,30.06638492,30.07517987,0.000155731,0.000155731,0.000155731,209772.8952,0.017143929
34004559,0.983781764,0.016542439,0.005514146,0.005514146,0.005514146,-0.001364777,0.001364777,8.18E-11,-7.95E-11,-1.14E-13,2.43E-12,-0.001393575,0.001393575,-0.001393575,0.001393575,-0.001393575,0.001393575,-0.001393575,0.001393575,-0.001336437,0.001336437,-0.001336437,0.001336437,5.59E-13,-1.95E-12,-5.14E-13,-6.31E-13,-0.001364777,0.001364777,-0.001393575,0.001393575,-0.001393575,0.001393575,-0.001393575,0.001393575,-0.001393575,0.001393575,-0.001336437,0.001336437,-0.001336437,0.001336437,-0.001336437,0.001336437,-0.001336437,0.001336437,-8.06E-11,8.07E-11,-0.001364777,0.001364777,1.96E-14,1.38E-13,-0.001393575,0.001393575,-0.001393575,0.001393575,-0.001393575,0.001393575,-0.001393575,0.001393575,-0.001336437,0.001336437,-0.001336437,0.001336437,0.784939362,0.760999904,1368840,32768,0.005670428,0.005670428,0.005670428,30.19759603,30.20639608,0.000156781,0.000156781,0.000156781,212362.0006,0.017156947
34090959,0.984407561,0.016553185,0.005517728,0.005517728,0.005517728,-0.001366024,0.001366024,8.17E-11,-7.96E-11,-2.47E-13,2.30E-12,-0.001394849,0.001394849,-0.001394849,0.001394849,-0.001394849,0.001394849,-0.001394849,0.001394849,-0.001337657,0.001337657,-0.001337657,0.001337657,4.97E-13,-2.02E-12,-5.33E-13,-6.41E-13,-0.001366024,0.001366024,-0.001394849,0.001394849,-0.001394849,0.001394849,-0.001394849,0.001394849,-0.001394849,0.001394849,-0.001337657,0.001337657,-0.001337657,0.001337657,-0.001337657,0.001337657,-0.001337657,0.001337657,-8.05E-11,8.08E-11,-0.001366024,0.001366024,1.27E-13,2.36E-13,-0.001394849,0.001394849,-0.001394849,0.001394849,-0.001394849,0.001394849,-0.001394849,0.001394849,-0.001337657,0.001337657,-0.001337657,0.001337657,0.782541571,0.73764298,1368840,32768,0.005675593,0.005675593,0.005675593,30.41967511,30.43437302,0.000158557,0.000158557,0.000158557,212686.7886,0.017172708
34177359,0.985018887,0.016563641,0.005521214,0.005521214,0.005521214,-0.001367348,0.001367348,8.18E-11,-7.95E-11,-1.35E-13,2.46E-12,-0.001396202,0.001396202,-0.001396202,0.001396202,-0.001396202,0.001396202,-0.001396202,0.001396202,-0.001338953,0.001338953,-0.001338953,0.001338953,5.19E-13,-2.05E-12,-5.01E-13,-6.12E-13,-0.001367348,0.001367348,-0.001396202,0.001396202,-0.001396202,0.001396202,-0.001396202,0.001396202,-0.001396202,0.001396202,-0.001338953,0.001338953,-0.001338953,0.001338953,-0.001338953,0.001338953,-0.001338953,0.001338953,-8.06E-11,8.08E-11,-0.001367348,0.001367348,8.58E-14,1.99E-13,-0.001396202,0.001396202,-0.001396202,0.001396202,-0.001396202,0.001396202,-0.001396202,0.001396202,-0.001338953,0.001338953,-0.001338953,0.001338953,0.77936888,0.704930273,1368840,32768,0.00568108,0.00568108,0.00568108,30.69456418,30.71290166,0.000160757,0.000160757,0.000160757,213138.4995,0.017189452
34263759,0.985615772,0.016573754,0.005524585,0.005524585,0.005524585,-0.001368632,0.001368633,8.17E-11,-7.97E-11,-1.89E-13,2.31E-12,-0.001397528,0.001397528,-0.001397528,0.001397528,-0.001397528,0.001397528,-0.001397528,0.001397528,-0.001340195,0.001340195,-0.001340195,0.001340195,4.48E-13,-2.03E-12,-5.58E-13,-6.32E-13,-0.001368633,0.001368633,-0.001397528,0.001397528,-0.001397528,0.001397528,-0.001397528,0.001397528,-0.001397528,0.001397528,-0.001340195,0.001340195,-0.001340195,0.001340195,-0.001340195,0.001340195,-0.001340195,0.001340195,-8.08E-11,8.06E-11,-0.001368633,0.001368633,-5.12E-14,2.52E-14,-0.001397528,0.001397528,-0.001397528,0.001397528,-0.001397528,0.001397528,-0.001397528,0.001397528,-0.001340195,0.001340195,-0.001340195,0.001340195,0.772034568,0.614558916,1368840,32768,0.005686401,0.005686401,0.005686401,30.97273369,30.99143029,0.000162982,0.000162982,0.000162982,214414.3129,0.017205689
34350159,0.986198149,0.016583625,0.005527875,0.005527875,0.005527875,-0.001369779,0.001369779,8.17E-11,-7.97E-11,-1.69E-13,2.32E-12,-0.001398773,0.001398773,-0.001398773,0.001398773,-0.001398773,0.001398773,-0.001398773,0.001398773,-0.001341245,0.001341246,-0.001341246,0.001341245,4.78E-13,-1.98E-12,-5.79E-13,-6.71E-13,-0.001369779,0.001369779,-0.001398773,0.001398773,-0.001398773,0.001398773,-0.001398773,0.001398773,-0.001398773,0.001398773,-0.001341245,0.001341245,-0.001341245,0.001341245,-0.001341245,0.001341245,-0.001341245,0.001341245,-8.07E-11,8.07E-11,-0.001369779,0.001369779,-4.02E-14,5.45E-14,-0.001398773,0.001398773,-0.001398773,0.001398773,-0.001398773,0.001398773,-0.001398773,0.001398773,-0.001341245,0.001341246,-0.001341246,0.001341245,0.772353433,0.64297998,1368840,32768,0.00569115,0.00569115,0.00569115,31.25121173,31.26995892,0.00016521,0.00016521,0.00016521,219759.5492,0.017220182
34436559,0.98676596,0.016593278,0.005531093,0.005531093,0.005531093,-0.001371145,0.001371145,8.19E-11,-7.95E-11,-6.81E-14,2.41E-12,-0.001400123,0.001400123,-0.001400123,0.001400123,-0.001400123,0.001400123,-0.001400123,0.001400123,-0.001342628,0.001342628,-0.001342628,0.001342628,3.76E-13,-2.08E-12,-5.75E-13,-6.83E-13,-0.001371145,0.001371145,-0.001400123,0.001400123,-0.001400123,0.001400123,-0.001400123,0.001400123,-0.001400123,0.001400123,-0.001342628,0.001342628,-0.001342628,0.001342628,-0.001342628,0.001342628,-0.001342628,0.001342628,-8.07E-11,8.08E-11,-0.001371145,0.001371145,-2.23E-14,8.69E-14,-0.001400123,0.001400123,-0.001400123,0.001400123,-0.001400123,0.001400123,-0.001400123,0.001400123,-0.001342628,0.001342628,-0.001342628,0.001342628,0.774788094,0.698783489,1368840,32768,0.00569681,0.00569681,0.00569681,31.52972151,31.54848755,0.000167438,0.000167438,0.000167438,217023.7878,0.017237454
34522959,0.987319164,0.016602719,0.00553424,0.00553424,0.00553424,-0.001372549,0.001372549,8.18E-11,-7.96E-11,-1.40E-13,2.32E-12,-0.001401479,0.001401479,-0.001401479,0.001401479,-0.001401479,0.001401479,-0.001401479,0.001401479,-0.001344078,0.001344079,-0.001344079,0.001344078,3.56E-13,-2.08E-12,-6.40E-13,-7.51E-13,-0.001372549,0.001372549,-0.001401479,0.001401479,-0.001401479,0.001401479,-0.001401479,0.001401479,-0.001401479,0.001401479,-0.001344079,0.001344079,-0.001344079,0.001344079,-0.001344079,0.001344079,-0.001344079,0.001344079,-8.07E-11,8.08E-11,-0.001372549,0.001372549,-2.98E-14,8.32E-14,-0.001401479,0.001401479,-0.001401479,0.001401479,-0.001401479,0.001401479,-0.001401479,0.001401479,-0.001344078,0.001344079,-0.001344079,0.001344078,0.777824975,0.754586999,1368840,32768,0.005702626,0.005702626,0.005702626,31.80823587,31.82701618,0.000169666,0.000169666,0.000169666,212395.6204,0.017255202
34609359,0.987857737,0.016611957,0.005537319,0.005537319,0.005537319,-0.001373934,0.001373934,8.18E-11,-7.96E-11,-1.32E-13,2.37E-12,-0.001402816,0.001402816,-0.001402816,0.001402816,-0.001402816,0.001402816,-0.001402816,0.001402816,-0.001345512,0.001345512,-0.001345512,0.001345512,4.62E-13,-2.01E-12,-5.90E-13,-6.88E-13,-0.001373934,0.001373934,-0.001402816,0.001402816,-0.001402816,0.001402816,-0.001402816,0.001402816,-0.001402816,0.001402816,-0.001345512,0.001345512,-0.001345512,0.001345512,-0.001345512,0.001345512,-0.001345512,0.001345512,-8.06E-11,8.08E-11,-0.001373934,0.001373934,1.37E-14,1.14E-13,-0.001402816,0.001402816,-0.001402816,0.001402816,-0.001402816,0.001402816,-0.001402816,0.001402816,-0.001345512,0.001345512,-0.001345512,0.001345512,0.781703841,0.810390509,1368840,32768,0.005708365,0.005708365,0.005708365,32.0867528,32.10554482,0.000171894,0.000171894,0.000171894,207798.8267,0.017272716
34695759,0.988383101,0.016621023,0.005540341,0.005540341,0.005540341,-0.001375398,0.001375398,8.17E-11,-7.97E-11,-1.59E-13,2.34E-12,-0.001404231,0.001404231,-0.001404231,0.001404231,-0.001404231,0.001404231,-0.001404231,0.001404231,-0.001347025,0.001347026,-0.001347026,0.001347025,5.58E-13,-1.91E-12,-6.15E-13,-6.92E-13,-0.001375398,0.001375398,-0.001404231,0.001404231,-0.001404231,0.001404231,-0.001404231,0.001404231,-0.001404231,0.001404231,-0.001347026,0.001347026,-0.001347026,0.001347026,-0.001347026,0.001347026,-0.001347026,0.001347026,-8.07E-11,8.08E-11,-0.001375398,0.001375398,-7.61E-14,2.08E-15,-0.001404231,0.001404231,-0.001404231,0.001404231,-0.001404231,0.001404231,-0.001404231,0.001404231,-0.001347025,0.001347026,-0.001347026,0.001347025,0.786507538,0.866194018,1368840,32768,0.005714431,0.005714431,0.005714431,32.41443823,32.43644743,0.000174516,0.000174516,0.000174516,203191.244,0.01729123
34782159,0.988898295,0.016629977,0.005543326,0.005543326,0.005543326,-0.001377067,0.001377067,8.18E-11,-7.96E-11,-7.63E-14,2.35E-12,-0.001405848,0.001405848,-0.001405848,0.001405848,-0.001405848,0.001405848,-0.001405848,0.001405848,-0.001348746,0.001348746,-0.001348746,0.001348746,5.30E-13,-1.87E-12,-5.53E-13,-6.23E-13,-0.001377067,0.001377067,-0.001405848,0.001405848,-0.001405848,0.001405848,-0.001405848,0.001405848,-0.001405848,0.001405848,-0.001348746,0.001348746,-0.001348746,0.001348746,-0.001348746,0.001348746,-0.001348746,0.001348746,-8.08E-11,8.07E-11,-0.001377067,0.001377067,-1.54E-14,5.63E-14,-0.001405848,0.001405848,-0.001405848,0.001405848,-0.001405848,0.001405848,-0.001405848,0.001405848,-0.001348746,0.001348746,-0.001348746,0.001348746,0.792084859,0.921997528,1368840,32768,0.005721345,0.005721345,0.005721345,32.85399748,32.88343317,0.000178032,0.000178032,0.000178032,198530.7776,0.017312331
34868559,0.989403074,0.016638713,0.005546238,0.005546238,0.005546238,-0.001378729,0.001378729,8.18E-11,-7.97E-11,-1.84E-13,2.28E-12,-0.001407463,0.001407463,-0.001407463,0.001407463,-0.001407463,0.001407463,-0.001407463,0.001407463,-0.001350452,0.001350452,-0.001350452,0.001350452,5.94E-13,-1.84E-12,-5.74E-13,-6.38E-13,-0.001378729,0.001378729,-0.001407463,0.001407463,-0.001407463,0.001407463,-0.001407463,0.001407463,-0.001407463,0.001407463,-0.001350452,0.001350452,-0.001350452,0.001350452,-0.001350452,0.001350452,-0.001350452,0.001350452,-8.07E-11,8.08E-11,-0.001378729,0.001378729,-2.79E-14,3.79E-14,-0.001407463,0.001407463,-0.001407463,0.001407463,-0.001407463,0.001407463,-0.001407463,0.001407463,-0.001350452,0.001350452,-0.001350452,0.001350452,0.788638164,0.838147624,1368840,32768,0.005728229,0.005728229,0.005728229,33.30024103,33.33041891,0.000181602,0.000181602,0.000181602,194129.0565,0.017333339
34954959,0.989897032,0.016647211,0.00554907,0.00554907,0.00554907,-0.00138014,0.00138014,8.17E-11,-7.98E-11,-2.63E-13,2.27E-12,-0.001408943,0.001408943,-0.001408943,0.001408943,-0.001408943,0.001408943,-0.001408943,0.001408943,-0.001351797,0.001351797,-0.001351797,0.001351797,5.29E-13,-1.97E-12,-5.99E-13,-6.89E-13,-0.00138014,0.00138014,-0.001408943,0.001408943,-0.001408943,0.001408943,-0.001408943,0.001408943,-0.001408943,0.001408943,-0.001351797,0.001351797,-0.001351797,0.001351797,-0.001351797,0.001351797,-0.001351797,0.001351797,-8.04E-11,8.11E-11,-0.00138014,0.00138014,2.24E-13,3.15E-13,-0.001408943,0.001408943,-0.001408943,0.001408943,-0.001408943,0.001408943,-0.001408943,0.001408943,-0.001351797,0.001351797,-0.001351797,0.001351797,0.78377524,0.763480952,1368840,32768,0.005734078,0.005734078,0.005734078,33.74710395,33.77740466,0.000185177,0.000185177,0.000185177,197338.5855,0.017351191
35041359,0.990379767,0.016655478,0.005551826,0.005551826,0.005551826,-0.001381536,0.001381536,8.18E-11,-7.97E-11,-1.17E-13,2.43E-12,-0.001410409,0.001410409,-0.001410409,0.001410409,-0.001410409,0.001410409,-0.001410409,0.001410409,-0.001353124,0.001353124,-0.001353124,0.001353124,3.62E-13,-2.15E-12,-7.82E-13,-8.27E-13,-0.001381536,0.001381536,-0.001410409,0.001410409,-0.001410409,0.001410409,-0.001410409,0.001410409,-0.001410409,0.001410409,-0.001353124,0.001353124,-0.001353124,0.001353124,-0.001353124,0.001353124,-0.001353124,0.001353124,-8.07E-11,8.08E-11,-0.001381536,0.001381536,-5.88E-15,3.99E-14,-0.001410409,0.001410409,-0.001410409,0.001410409,-0.001410409,0.001410409,-0.001410409,0.001410409,-0.001353124,0.001353124,-0.001353124,0.001353124,0.780265281,0.722701392,1368840,32768,0.005739859,0.005739859,0.005739859,34.19403384,34.2243904,0.000188752,0.000188752,0.000188752,200698.7967,0.017368835
35127759,0.990850903,0.016663508,0.005554503,0.005554503,0.005554503,-0.001382966,0.001382966,8.19E-11,-7.97E-11,-1.41E-13,2.42E-12,-0.001411884,0.001411884,-0.001411884,0.001411884,-0.001411884,0.001411884,-0.001411884,0.001411884,-0.001354511,0.001354511,-0.001354511,0.001354511,5.41E-13,-1.99E-12,-5.84E-13,-5.73E-13,-0.001382966,0.001382966,-0.001411884,0.001411884,-0.001411884,0.001411884,-0.001411884,0.001411884,-0.001411884,0.001411884,-0.001354511,0.001354511,-0.001354511,0.001354511,-0.001354511,0.001354511,-0.001354511,0.001354511,-8.09E-11,8.07E-11,-0.001382966,0.001382966,3.62E-14,2.68E-14,-0.001411884,0.001411884,-0.001411884,0.001411884,-0.001411884,0.001411884,-0.001411884,0.001411884,-0.001354511,0.001354511,-0.001354511,0.001354511,0.776592754,0.684280268,1368840,32768,0.005745784,0.005745784,0.005745784,34.64097132,34.67137614,0.000192328,0.000192328,0.000192328,202415.5388,0.01738692
35214159,0.991310091,0.016671296,0.005557099,0.005557099,0.005557099,-0.001384378,0.001384378,8.19E-11,-7.96E-11,-4.27E-14,2.49E-12,-0.00141334,0.00141334,-0.00141334,0.00141334,-0.00141334,0.00141334,-0.00141334,0.00141334,-0.001355879,0.001355879,-0.001355879,0.001355879,4.97E-13,-2.01E-12,-6.43E-13,-6.71E-13,-0.001384378,0.001384378,-0.00141334,0.00141334,-0.00141334,0.00141334,-0.00141334,0.00141334,-0.00141334,0.00141334,-0.001355879,0.001355879,-0.001355879,0.001355879,-0.001355879,0.001355879,-0.001355879,0.001355879,-8.08E-11,8.08E-11,-0.001384378,0.001384378,-6.46E-14,-3.50E-14,-0.00141334,0.00141334,-0.00141334,0.00141334,-0.00141334,0.00141334,-0.00141334,0.00141334,-0.001355879,0.001355879,-0.001355879,0.001355879,0.772727577,0.645859143,1368840,32768,0.005751633,0.005751633,0.005751633,35.08791027,35.11836189,0.000195903,0.000195903,0.000195903,204161.6811,0.017404773
35300559,0.991757011,0.016678836,0.005559612,0.005559612,0.005559612,-0.001385767,0.001385767,8.20E-11,-7.96E-11,-6.60E-14,2.49E-12,-0.001414776,0.001414776,-0.001414776,0.001414776,-0.001414776,0.001414776,-0.001414776,0.001414776,-0.001357222,0.001357222,-0.001357222,0.001357222,4.32E-13,-2.09E-12,-6.05E-13,-6.88E-13,-0.001385767,0.001385767,-0.001414776,0.001414776,-0.001414776,0.001414776,-0.001414776,0.001414776,-0.001414776,0.001414776,-0.001357222,0.001357222,-0.001357222,0.001357222,-0.001357222,0.001357222,-0.001357222,0.001357222,-8.07E-11,8.09E-11,-0.001385767,0.001385767,3.13E-14,1.16E-13,-0.001414776,0.001414776,-0.001414776,0.001414776,-0.001414776,0.001414776,-0.001414776,0.001414776,-0.001357222,0.001357222,-0.001357222,0.001357222,0.768730967,0.607438019,1368840,32768,0.005757388,0.005757388,0.005757388,35.53485001,35.56534763,0.000199479,0.000199479,0.000199479,206066.5488,0.017422338
35386959,0.992187793,0.016686067,0.005562022,0.005562022,0.005562022,-0.00138683,0.00138683,8.20E-11,-7.96E-11,-1.75E-13,2.35E-12,-0.001415893,0.001415893,-0.001415893,0.001415893,-0.001415893,0.001415893,-0.001415893,0.001415893,-0.001358233,0.001358233,-0.001358233,0.001358233,5.68E-13,-1.93E-12,-5.62E-13,-6.65E-13,-0.00138683,0.00138683,-0.001415893,0.001415893,-0.001415893,0.001415893,-0.001415893,0.001415893,-0.001415893,0.001415893,-0.001358233,0.001358233,-0.001358233,0.001358233,-0.001358233,0.001358233,-0.001358233,0.001358233,-8.08E-11,8.08E-11,-0.00138683,0.00138683,2.43E-14,1.30E-13,-0.001415893,0.001415893,-0.001415893,0.001415893,-0.001415893,0.001415893,-0.001415893,0.001415893,-0.001358233,0.001358233,-0.001358233,0.001358233,0.764649491,0.569016894,1368840,32768,0.005761792,0.005761792,0.005761792,35.82747272,35.84782722,0.00020182,0.00020182,0.00020182,208256.8657,0.017435781
35473359,0.992602303,0.016693028,0.005564343,0.005564343,0.005564343,-0.00138784,0.00138784,8.19E-11,-7.97E-11,-1.88E-13,2.37E-12,-0.001416952,0.001416952,-0.001416952,0.001416952,-0.001416952,0.001416952,-0.001416952,0.001416952,-0.001359195,0.001359195,-0.001359195,0.001359195,4.89E-13,-2.04E-12,-5.00E-13,-6.33E-13,-0.00138784,0.00138784,-0.001416952,0.001416952,-0.001416952,0.001416952,-0.001416952,0.001416952,-0.001416952,0.001416952,-0.001359195,0.001359195,-0.001359195,0.001359195,-0.001359195,0.001359195,-0.001359195,0.001359195,-8.07E-11,8.10E-11,-0.00138784,0.00138784,1.46E-13,2.81E-13,-0.001416952,0.001416952,-0.001416952,0.001416952,-0.001416952,0.001416952,-0.001416952,0.001416952,-0.001359195,0.001359195,-0.001359195,0.001359195,0.765203015,0.599915604,1368840,32768,0.005765976,0.005765976,0.005765976,36.10528623,36.12433475,0.000204042,0.000204042,0.000204042,210424.4859,0.017448551
35559759,0.993000774,0.01669966,0.005566553,0.005566553,0.005566553,-0.001388968,0.001388968,8.19E-11,-7.98E-11,-1.44E-13,2.43E-12,-0.001418062,0.001418062,-0.001418062,0.001418062,-0.001418062,0.001418062,-0.001418062,0.001418062,-0.00136034,0.00136034,-0.00136034,0.00136034,5.79E-13,-1.97E-12,-5.10E-13,-6.55E-13,-0.001388968,0.001388968,-0.001418062,0.001418062,-0.001418062,0.001418062,-0.001418062,0.001418062,-0.001418062,0.001418062,-0.00136034,0.00136034,-0.00136034,0.00136034,-0.00136034,0.00136034,-0.00136034,0.00136034,-8.09E-11,8.08E-11,-0.001388968,0.001388968,-1.49E-14,1.31E-13,-0.001418062,0.001418062,-0.001418062,0.001418062,-0.001418062,0.001418062,-0.001418062,0.001418062,-0.00136034,0.00136034,-0.00136034,0.00136034,0.758303805,0.516514709,1368840,32768,0.005770649,0.005770649,0.005770649,36.3819063,36.40084228,0.000206255,0.000206255,0.000206255,207936.616,0.017462815
35646159,0.993383478,0.016705998,0.005568666,0.005568666,0.005568666,-0.001389826,0.001389826,8.19E-11,-7.98E-11,-1.77E-13,2.40E-12,-0.001419019,0.001419019,-0.001419019,0.001419019,-0.001419019,0.001419019,-0.001419019,0.001419019,-0.001361101,0.001361101,-0.001361101,0.001361101,4.18E-13,-2.13E-12,-6.71E-13,-7.46E-13,-0.001389826,0.001389826,-0.001419019,0.001419019,-0.001419019,0.001419019,-0.001419019,0.001419019,-0.001419019,0.001419019,-0.001361101,0.001361101,-0.001361101,0.001361101,-0.001361101,0.001361101,-0.001361101,0.001361101,-8.07E-11,8.10E-11,-0.001389826,0.001389826,2.83E-14,1.07E-13,-0.001419019,0.001419019,-0.001419019,0.001419019,-0.001419019,0.001419019,-0.001419019,0.001419019,-0.001361101,0.001361101,-0.001361101,0.001361101,0.754418786,0.481897019,1368840,32768,0.005774204,0.005774204,0.005774204,36.6584098,36.67734981,0.000208467,0.000208467,0.000208467,213422.4208,0.017473666
35732559,0.993750705,0.016712112,0.005570704,0.005570704,0.005570704,-0.001390767,0.001390767,8.19E-11,-7.97E-11,-1.69E-13,2.42E-12,-0.001420012,0.001420012,-0.001420012,0.001420012,-0.001420012,0.001420012,-0.001420012,0.001420012,-0.001361991,0.001361992,-0.001361992,0.001361991,5.12E-13,-2.05E-12,-5.83E-13,-6.84E-13,-0.001390767,0.001390767,-0.001420012,0.001420012,-0.001420012,0.001420012,-0.001420012,0.001420012,-0.001420012,0.001420012,-0.001361991,0.001361991,-0.001361991,0.001361991,-0.001361991,0.001361991,-0.001361991,0.001361991,-8.08E-11,8.09E-11,-0.001390767,0.001390767,9.51E-15,1.12E-13,-0.001420012,0.001420012,-0.001420012,0.001420012,-0.001420012,0.001420012,-0.001420012,0.001420012,-0.001361991,0.001361992,-0.001361992,0.001361991,0.758557084,0.567586254,1368840,32768,0.005778101,0.005778101,0.005778101,36.93490186,36.95385734,0.000210679,0.000210679,0.000210679,215654.2056,0.017485561
35818959,0.994102754,0.016718007,0.005572669,0.005572669,0.005572669,-0.001391962,0.001391962,8.19E-11,-7.97E-11,-2.26E-13,2.36E-12,-0.001421121,0.001421121,-0.001421121,0.001421121,-0.001421121,0.001421121,-0.001421121,0.001421121,-0.001363271,0.001363271,-0.001363271,0.001363271,5.73E-13,-1.99E-12,-6.64E-13,-7.34E-13,-0.001391962,0.001391962,-0.001421121,0.001421121,-0.001421121,0.001421121,-0.001421121,0.001421121,-0.001421121,0.001421121,-0.001363271,0.001363271,-0.001363271,0.001363271,-0.001363271,0.001363271,-0.001363271,0.001363271,-8.07E-11,8.09E-11,-0.001391962,0.001391962,2.98E-14,1.00E-13,-0.001421121,0.001421121,-0.001421121,0.001421121,-0.001421121,0.001421121,-0.001421121,0.001421121,-0.001363271,0.001363271,-0.001363271,0.001363271,0.763095136,0.65327549,1368840,32768,0.005783053,0.005783053,0.005783053,37.21139411,37.23036487,0.000212891,0.000212891,0.000212891,209016.3258,0.017500677
35905359,0.994439939,0.016723692,0.005574564,0.005574564,0.005574564,-0.001393131,0.001393131,8.20E-11,-7.96E-11,4.60E-15,2.48E-12,-0.001422206,0.001422206,-0.001422206,0.001422206,-0.001422206,0.001422206,-0.001422206,0.001422206,-0.00136452,0.00136452,-0.00136452,0.00136452,5.83E-13,-1.87E-12,-5.06E-13,-5.75E-13,-0.001393131,0.001393131,-0.001422206,0.001422206,-0.001422206,0.001422206,-0.001422206,0.001422206,-0.001422206,0.001422206,-0.00136452,0.00136452,-0.00136452,0.00136452,-0.00136452,0.00136452,-0.00136452,0.00136452,-8.07E-11,8.09E-11,-0.001393131,0.001393131,8.16E-14,1.52E-13,-0.001422206,0.001422206,-0.001422206,0.001422206,-0.001422206,0.001422206,-0.001422206,0.001422206,-0.00136452,0.00136452,-0.00136452,0.00136452,0.768295283,0.738964725,1368840,32768,0.005787892,0.005787892,0.005787892,37.48788866,37.50687239,0.000215103,0.000215103,0.000215103,202722.6785,0.017515449
35991759,0.994762583,0.016729186,0.005576395,0.005576395,0.005576395,-0.001394274,0.001394274,8.20E-11,-7.95E-11,-1.66E-14,2.43E-12,-0.00142327,0.00142327,-0.00142327,0.00142327,-0.00142327,0.00142327,-0.00142327,0.00142327,-0.001365742,0.001365742,-0.001365742,0.001365742,4.93E-13,-1.93E-12,-5.64E-13,-6.50E-13,-0.001394274,0.001394274,-0.00142327,0.00142327,-0.00142327,0.00142327,-0.00142327,0.00142327,-0.00142327,0.00142327,-0.001365742,0.001365742,-0.001365742,0.001365742,-0.001365742,0.001365742,-0.001365742,0.001365742,-8.08E-11,8.08E-11,-0.001394274,0.001394274,4.38E-14,1.31E-13,-0.00142327,0.00142327,-0.00142327,0.00142327,-0.00142327,0.00142327,-0.00142327,0.00142327,-0.001365742,0.001365742,-0.001365742,0.001365742,0.776024951,0.839863324,1368840,32768,0.005792628,0.005792628,0.005792628,37.76438971,37.78337992,0.000217315,0.000217315,0.000217315,196714.7423,0.017529907
36078159,0.995071018,0.016734428,0.005578143,0.005578143,0.005578143,-0.001395416,0.001395416,8.19E-11,-7.98E-11,-1.16E-13,2.33E-12,-0.001424322,0.001424322,-0.001424322,0.001424322,-0.001424322,0.001424322,-0.001424322,0.001424322,-0.00136697,0.00136697,-0.00136697,0.00136697,4.91E-13,-1.93E-12,-5.35E-13,-6.53E-13,-0.001395416,0.001395416,-0.001424322,0.001424322,-0.001424322,0.001424322,-0.001424322,0.001424322,-0.001424322,0.001424322,-0.00136697,0.00136697,-0.00136697,0.00136697,-0.00136697,0.00136697,-0.00136697,0.00136697,-8.08E-11,8.09E-11,-0.001395416,0.001395416,-9.11E-16,1.18E-13,-0.001424322,0.001424322,-0.001424322,0.001424322,-0.001424322,0.001424322,-0.001424322,0.001424322,-0.00136697,0.00136697,-0.00136697,0.00136697,0.774393349,0.786667273,1368840,32768,0.00579736,0.00579736,0.00579736,38.04087815,38.05988745,0.000219527,0.000219527,0.000219527,190111.3855,0.01754435
36164559,0.995359602,0.016739317,0.005579772,0.005579772,0.005579772,-0.0013955,0.0013955,8.19E-11,-7.98E-11,-1.18E-13,2.32E-12,-0.001424463,0.001424463,-0.001424463,0.001424463,-0.001424463,0.001424463,-0.001424463,0.001424463,-0.001367001,0.001367001,-0.001367001,0.001367001,5.21E-13,-1.89E-12,-5.65E-13,-6.41E-13,-0.0013955,0.0013955,-0.001424463,0.001424463,-0.001424463,0.001424463,-0.001424463,0.001424463,-0.001424463,0.001424463,-0.001367001,0.001367001,-0.001367001,0.001367001,-0.001367001,0.001367001,-0.001367001,0.001367001,-8.08E-11,8.09E-11,-0.0013955,0.0013955,-9.72E-15,6.83E-14,-0.001424463,0.001424463,-0.001424463,0.001424463,-0.001424463,0.001424463,-0.001424463,0.001424463,-0.001367001,0.001367001,-0.001367001,0.001367001,0.771697708,0.738577566,1368840,32768,0.005797709,0.005797709,0.005797709,37.92618749,37.9192449,0.000218609,0.000218609,0.000218609,192399.1858,0.017545415
36250959,0.995629294,0.016743877,0.005581292,0.005581292,0.005581292,-0.001395504,0.001395504,8.19E-11,-7.98E-11,-1.08E-13,2.32E-12,-0.001424515,0.001424515,-0.001424515,0.001424515,-0.001424515,0.001424515,-0.001424515,0.001424515,-0.001366959,0.001366959,-0.001366959,0.001366959,5.05E-13,-1.89E-12,-5.48E-13,-6.27E-13,-0.001395504,0.001395504,-0.001424515,0.001424515,-0.001424515,0.001424515,-0.001424515,0.001424515,-0.001424515,0.001424515,-0.001366959,0.001366959,-0.001366959,0.001366959,-0.001366959,0.001366959,-0.001366959,0.001366959,-8.08E-11,8.09E-11,-0.001395504,0.001395504,2.53E-14,1.06E-13,-0.001424515,0.001424515,-0.001424515,0.001424515,-0.001424515,0.001424515,-0.001424515,0.001424515,-0.001366959,0.001366959,-0.001366959,0.001366959,0.770257518,0.719624071,1368840,32768,0.005797724,0.005797724,0.005797724,37.78268017,37.77293841,0.000217461,0.000217461,0.000217461,194527.071,0.017545461
36337359,0.995881408,0.01674813,0.00558271,0.00558271,0.00558271,-0.001395528,0.001395528,8.19E-11,-7.98E-11,-1.28E-13,2.31E-12,-0.001424561,0.001424561,-0.001424561,0.001424561,-0.001424561,0.001424561,-0.001424561,0.001424561,-0.001366963,0.001366963,-0.001366963,0.001366963,4.74E-13,-1.94E-12,-5.59E-13,-6.49E-13,-0.001395528,0.001395528,-0.001424561,0.001424561,-0.001424561,0.001424561,-0.001424561,0.001424561,-0.001424561,0.001424561,-0.001366963,0.001366963,-0.001366963,0.001366963,-0.001366963,0.001366963,-0.001366963,0.001366963,-8.08E-11,8.09E-11,-0.001395528,0.001395528,1.41E-14,1.06E-13,-0.001424561,0.001424561,-0.001424561,0.001424561,-0.001424561,0.001424561,-0.001424561,0.001424561,-0.001366963,0.001366963,-0.001366963,0.001366963,0.76859245,0.700670575,1368840,32768,0.005797825,0.005797825,0.005797825,37.63665056,37.62663192,0.000216293,0.000216293,0.000216293,195120.1592,0.01754577
36423759,0.996117191,0.016752099,0.005584033,0.005584033,0.005584033,-0.001395528,0.001395528,8.19E-11,-7.98E-11,-1.23E-13,2.32E-12,-0.001424582,0.001424582,-0.001424582,0.001424582,-0.001424582,0.001424582,-0.001424582,0.001424582,-0.001366941,0.001366941,-0.001366941,0.001366941,4.62E-13,-1.95E-12,-5.42E-13,-6.63E-13,-0.001395528,0.001395528,-0.001424582,0.001424582,-0.001424582,0.001424582,-0.001424582,0.001424582,-0.001424582,0.001424582,-0.001366941,0.001366941,-0.001366941,0.001366941,-0.001366941,0.001366941,-0.001366941,0.001366941,-8.08E-11,8.09E-11,-0.001395528,0.001395528,-2.07E-15,1.21E-13,-0.001424582,0.001424582,-0.001424582,0.001424582,-0.001424582,0.001424582,-0.001424582,0.001424582,-0.001366941,0.001366941,-0.001366941,0.001366941,0.766764916,0.68171708,1368840,32768,0.005797824,0.005797824,0.005797824,37.49036892,37.48032543,0.000215123,0.000215123,0.000215123,195791.0513,0.017545767
36510159,0.996337796,0.016755796,0.005585265,0.005585265,0.005585265,-0.001395505,0.001395505,8.19E-11,-7.98E-11,-1.22E-13,2.33E-12,-0.001424581,0.001424582,-0.001424582,0.001424581,-0.001424581,0.001424582,-0.001424582,0.001424581,-0.001366897,0.001366897,-0.001366897,0.001366897,5.05E-13,-1.92E-12,-5.57E-13,-6.65E-13,-0.001395505,0.001395505,-0.001424581,0.001424581,-0.001424581,0.001424581,-0.001424581,0.001424581,-0.001424581,0.001424581,-0.001366897,0.001366897,-0.001366897,0.001366897,-0.001366897,0.001366897,-0.001366897,0.001366897,-8.08E-11,8.09E-11,-0.001395505,0.001395505,2.50E-14,1.34E-13,-0.001424582,0.001424581,-0.001424582,0.001424581,-0.001424581,0.001424582,-0.001424581,0.001424582,-0.001366897,0.001366897,-0.001366897,0.001366897,0.763527192,0.643619395,1368840,32768,0.005797728,0.005797728,0.005797728,37.34406175,37.33401893,0.000213952,0.000213952,0.000213952,196535.3281,0.017545475
36596559,0.996544292,0.016759207,0.005586402,0.005586402,0.005586402,-0.001395419,0.00139542,8.19E-11,-7.98E-11,-1.45E-13,2.34E-12,-0.00142454,0.00142454,-0.00142454,0.00142454,-0.00142454,0.00142454,-0.00142454,0.00142454,-0.001366769,0.001366769,-0.001366769,0.001366769,4.83E-13,-1.98E-12,-5.82E-13,-6.79E-13,-0.00139542,0.00139542,-0.00142454,0.00142454,-0.00142454,0.00142454,-0.00142454,0.00142454,-0.00142454,0.00142454,-0.001366769,0.001366769,-0.001366769,0.001366769,-0.001366769,0.001366769,-0.001366769,0.001366769,-8.08E-11,8.09E-11,-0.00139542,0.00139542,5.42E-15,1.04E-13,-0.00142454,0.00142454,-0.00142454,0.00142454,-0.00142454,0.00142454,-0.00142454,0.00142454,-0.001366769,0.001366769,-0.001366769,0.001366769,0.752351251,0.494814476,1368840,32768,0.005797374,0.005797374,0.005797374,37.19775242,37.18771244,0.000212782,0.000212782,0.000212782,198601.3592,0.017544394
36682959,0.996737666,0.016762397,0.005587466,0.005587466,0.005587466,-0.001395071,0.001395071,8.20E-11,-7.97E-11,-1.07E-13,2.35E-12,-0.001424353,0.001424353,-0.001424353,0.001424353,-0.001424353,0.001424353,-0.001424353,0.001424353,-0.001366264,0.001366264,-0.001366264,0.001366264,4.85E-13,-1.95E-12,-4.85E-13,-5.64E-13,-0.001395071,0.001395071,-0.001424353,0.001424353,-0.001424353,0.001424353,-0.001424353,0.001424353,-0.001424353,0.001424353,-0.001366264,0.001366264,-0.001366264,0.001366264,-0.001366264,0.001366264,-0.001366264,0.001366264,-8.08E-11,8.10E-11,-0.001395071,0.001395071,2.83E-14,1.09E-13,-0.001424353,0.001424353,-0.001424353,0.001424353,-0.001424353,0.001424353,-0.001424353,0.001424353,-0.001366264,0.001366264,-0.001366264,0.001366264,0.751339749,0.503618846,1368840,32768,0.005795929,0.005795929,0.005795929,37.05144191,37.04140595,0.000211612,0.000211612,0.000211612,208436.8881,0.017539984
36769359,0.996918829,0.01676535,0.00558845,0.00558845,0.00558845,-0.001395039,0.001395039,8.20E-11,-7.97E-11,-8.70E-14,2.36E-12,-0.001424323,0.001424323,-0.001424323,0.001424323,-0.001424323,0.001424323,-0.001424323,0.001424323,-0.001366231,0.001366231,-0.001366231,0.001366231,4.73E-13,-1.94E-12,-5.58E-13,-6.04E-13,-0.001395039,0.001395039,-0.001424323,0.001424323,-0.001424323,0.001424323,-0.001424323,0.001424323,-0.001424323,0.001424323,-0.001366231,0.001366231,-0.001366231,0.001366231,-0.001366231,0.001366231,-0.001366231,0.001366231,-8.08E-11,8.10E-11,-0.001395039,0.001395039,4.06E-14,8.84E-14,-0.001424323,0.001424323,-0.001424323,0.001424323,-0.001424323,0.001424323,-0.001424323,0.001424323,-0.001366231,0.001366231,-0.001366231,0.001366231,0.742411833,0.394122184,1368840,32768,0.005795798,0.005795798,0.005795798,36.90513109,36.89509946,0.000210441,0.000210441,0.000210441,207782.973,0.017539585
36855759,0.997088647,0.016768133,0.005589378,0.005589378,0.005589378,-0.001394718,0.001394718,8.19E-11,-7.98E-11,-1.25E-13,2.32E-12,-0.001424139,0.001424139,-0.001424139,0.001424139,-0.001424139,0.001424139,-0.001424139,0.001424139,-0.001365777,0.001365778,-0.001365778,0.001365777,4.64E-13,-1.95E-12,-5.93E-13,-6.33E-13,-0.001394718,0.001394718,-0.001424139,0.001424139,-0.001424139,0.001424139,-0.001424139,0.001424139,-0.001424139,0.001424139,-0.001365777,0.001365777,-0.001365777,0.001365777,-0.001365777,0.001365777,-0.001365777,0.001365777,-8.08E-11,8.09E-11,-0.001394718,0.001394718,2.91E-14,7.01E-14,-0.001424139,0.001424139,-0.001424139,0.001424139,-0.001424139,0.001424139,-0.001424139,0.001424139,-0.001365777,0.001365778,-0.001365778,0.001365777,0.746640288,0.482334738,1368840,32768,0.005794466,0.005794466,0.005794466,36.76105356,36.75117346,0.000209288,0.000209288,0.000209288,216015.4541,0.017535517
36942159,0.99725019,0.016770797,0.005590266,0.005590266,0.005590266,-0.001395379,0.001395379,8.19E-11,-7.98E-11,-1.11E-13,2.33E-12,-0.001424696,0.001424696,-0.001424696,0.001424696,-0.001424696,0.001424696,-0.001424696,0.001424696,-0.001366539,0.00136654,-0.00136654,0.001366539,4.59E-13,-1.96E-12,-5.53E-13,-6.11E-13,-0.001395379,0.001395379,-0.001424696,0.001424696,-0.001424696,0.001424696,-0.001424696,0.001424696,-0.001424696,0.001424696,-0.00136654,0.00136654,-0.00136654,0.00136654,-0.00136654,0.00136654,-0.00136654,0.00136654,-8.08E-11,8.09E-11,-0.001395379,0.001395379,4.69E-14,1.06E-13,-0.001424696,0.001424696,-0.001424696,0.001424696,-0.001424696,0.001424696,-0.001424696,0.001424696,-0.001366539,0.00136654,-0.00136654,0.001366539,0.751218152,0.570547292,1368840,32768,0.005797208,0.005797208,0.005797208,36.88590106,36.89381706,0.000210287,0.000210287,0.000210287,208983.5494,0.017543886
37028559,0.997403931,0.016773348,0.005591116,0.005591116,0.005591116,-0.001396051,0.001396051,8.20E-11,-7.98E-11,-1.41E-13,2.30E-12,-0.001425273,0.001425273,-0.001425273,0.001425273,-0.001425273,0.001425273,-0.001425273,0.001425273,-0.001367302,0.001367302,-0.001367302,0.001367302,5.44E-13,-1.87E-12,-4.81E-13,-5.92E-13,-0.001396051,0.001396051,-0.001425273,0.001425273,-0.001425273,0.001425273,-0.001425273,0.001425273,-0.001425273,0.001425273,-0.001367302,0.001367302,-0.001367302,0.001367302,-0.001367302,0.001367302,-0.001367302,0.001367302,-8.08E-11,8.10E-11,-0.001396051,0.001396051,-1.25E-14,9.80E-14,-0.001425273,0.001425273,-0.001425273,0.001425273,-0.001425273,0.001425273,-0.001425273,0.001425273,-0.001367302,0.001367302,-0.001367302,0.001367302,0.756131969,0.658759846,1368840,32768,0.005799988,0.005799988,0.005799988,37.0268657,37.03646066,0.000211415,0.000211415,0.000211415,202543.5958,0.017552375
37114959,0.997550189,0.016775793,0.005591931,0.005591931,0.005591931,-0.001396704,0.001396704,8.19E-11,-7.98E-11,-1.54E-13,2.31E-12,-0.001425838,0.001425838,-0.001425838,0.001425838,-0.001425838,0.001425838,-0.001425838,0.001425838,-0.001368042,0.001368042,-0.001368042,0.001368042,5.07E-13,-1.93E-12,-5.31E-13,-6.74E-13,-0.001396704,0.001396704,-0.001425838,0.001425838,-0.001425838,0.001425838,-0.001425838,0.001425838,-0.001425838,0.001425838,-0.001368042,0.001368042,-0.001368042,0.001368042,-0.001368042,0.001368042,-0.001368042,0.001368042,-8.09E-11,8.08E-11,-0.001396704,0.001396704,-1.10E-13,3.53E-14,-0.001425838,0.001425838,-0.001425838,0.001425838,-0.001425838,0.001425838,-0.001425838,0.001425838,-0.001368042,0.001368042,-0.001368042,0.001368042,0.761769131,0.7469724,1368840,32768,0.005802696,0.005802696,0.005802696,37.16933797,37.17910425,0.000212555,0.000212555,0.000212555,196526.4558,0.017560641
37201359,0.997689266,0.016778141,0.005592714,0.005592714,0.005592714,-0.00139734,0.00139734,8.20E-11,-7.98E-11,-1.40E-13,2.34E-12,-0.001426391,0.001426391,-0.001426391,0.001426391,-0.001426391,0.001426391,-0.001426391,0.001426391,-0.001368759,0.001368759,-0.001368759,0.001368759,4.16E-13,-2.03E-12,-5.67E-13,-7.17E-13,-0.00139734,0.00139734,-0.001426391,0.001426391,-0.001426391,0.001426391,-0.001426391,0.001426391,-0.001426391,0.001426391,-0.001368759,0.001368759,-0.001368759,0.001368759,-0.001368759,0.001368759,-0.001368759,0.001368759,-8.08E-11,8.10E-11,-0.00139734,0.00139734,3.28E-14,1.84E-13,-0.001426391,0.001426391,-0.001426391,0.001426391,-0.001426391,0.001426391,-0.001426391,0.001426391,-0.001368759,0.001368759,-0.001368759,0.001368759,0.769054039,0.835184954,1368840,32768,0.00580533,0.00580533,0.00580533,37.31196429,37.32174785,0.000213696,0.000213696,0.000213696,190827.6947,0.017568679
37287759,0.997821451,0.01678038,0.00559346,0.00559346,0.00559346,-0.001397959,0.001397959,8.20E-11,-7.98E-11,-1.53E-13,2.33E-12,-0.001426929,0.001426929,-0.001426929,0.001426929,-0.001426929,0.001426929,-0.001426929,0.001426929,-0.001369453,0.001369454,-0.001369454,0.001369453,4.80E-13,-1.98E-12,-5.06E-13,-6.92E-13,-0.001397959,0.001397959,-0.001426929,0.001426929,-0.001426929,0.001426929,-0.001426929,0.001426929,-0.001426929,0.001426929,-0.001369453,0.001369453,-0.001369453,0.001369453,-0.001369453,0.001369453,-0.001369453,0.001369453,-8.08E-11,8.10E-11,-0.001397959,0.001397959,-3.46E-14,1.53E-13,-0.001426929,0.001426929,-0.001426929,0.001426929,-0.001426929,0.001426929,-0.001426929,0.001426929,-0.001369453,0.001369454,-0.001369454,0.001369453,0.771793644,0.835357689,1368840,32768,0.005807895,0.005807895,0.005807895,37.45460329,37.46439145,0.000214837,0.000214837,0.000214837,185309.9853,0.01757651
37374159,0.997947026,0.016782484,0.005594161,0.005594161,0.005594161,-0.001398412,0.001398412,8.21E-11,-7.97E-11,-7.90E-14,2.37E-12,-0.00142738,0.00142738,-0.00142738,0.00142738,-0.00142738,0.00142738,-0.00142738,0.00142738,-0.001369906,0.001369906,-0.001369906,0.001369906,4.70E-13,-1.95E-12,-5.28E-13,-7.32E-13,-0.001398412,0.001398412,-0.00142738,0.00142738,-0.00142738,0.00142738,-0.00142738,0.00142738,-0.00142738,0.00142738,-0.001369906,0.001369906,-0.001369906,0.001369906,-0.001369906,0.001369906,-0.001369906,0.001369906,-8.08E-11,8.10E-11,-0.001398412,0.001398412,-8.09E-14,1.24E-13,-0.00142738,0.00142738,-0.00142738,0.00142738,-0.00142738,0.00142738,-0.00142738,0.00142738,-0.001369906,0.001369906,-0.001369906,0.001369906,0.763242198,0.692218703,1368840,32768,0.005809772,0.005809772,0.005809772,37.59723737,37.60703505,0.000215978,0.000215978,0.000215978,184525.1741,0.017582242
37460559,0.998066265,0.016784465,0.005594822,0.005594822,0.005594822,-0.00139859,0.00139859,8.19E-11,-7.98E-11,-1.28E-13,2.29E-12,-0.001427686,0.001427686,-0.001427686,0.001427686,-0.001427686,0.001427686,-0.001427686,0.001427686,-0.001369961,0.001369961,-0.001369961,0.001369961,4.52E-13,-1.94E-12,-4.83E-13,-6.88E-13,-0.00139859,0.00139859,-0.001427686,0.001427686,-0.001427686,0.001427686,-0.001427686,0.001427686,-0.001427686,0.001427686,-0.001369961,0.001369961,-0.001369961,0.001369961,-0.001369961,0.001369961,-0.001369961,0.001369961,-8.08E-11,8.10E-11,-0.00139859,0.00139859,-2.27E-14,1.83E-13,-0.001427686,0.001427686,-0.001427686,0.001427686,-0.001427686,0.001427686,-0.001427686,0.001427686,-0.001369961,0.001369961,-0.001369961,0.001369961,0.756699533,0.603497916,1368840,32768,0.00581051,0.00581051,0.00581051,37.73987478,37.74967865,0.000217119,0.000217119,0.000217119,191992.836,0.017584494
37546959,0.998179433,0.016786335,0.005595445,0.005595445,0.005595445,-0.001398838,0.001398838,8.20E-11,-7.97E-11,-1.63E-15,2.35E-12,-0.001428024,0.001428024,-0.001428024,0.001428024,-0.001428024,0.001428024,-0.001428024,0.001428024,-0.00137012,0.00137012,-0.00137012,0.00137012,4.67E-13,-1.85E-12,-4.86E-13,-6.43E-13,-0.001398838,0.001398838,-0.001428024,0.001428024,-0.001428024,0.001428024,-0.001428024,0.001428024,-0.001428024,0.001428024,-0.00137012,0.00137012,-0.00137012,0.00137012,-0.00137012,0.00137012,-0.00137012,0.00137012,-8.08E-11,8.10E-11,-0.001398838,0.001398838,2.29E-14,1.82E-13,-0.001428024,0.001428024,-0.001428024,0.001428024,-0.001428024,0.001428024,-0.001428024,0.001428024,-0.00137012,0.00137012,-0.00137012,0.00137012,0.75270474,0.560757274,1368840,32768,0.005811533,0.005811533,0.005811533,37.88251329,37.89232225,0.00021826,0.00021826,0.00021826,197258.2873,0.017587619
37633359,0.998286747,0.016788099,0.005596033,0.005596033,0.005596033,-0.001399147,0.001399147,8.19E-11,-7.98E-11,-8.06E-14,2.24E-12,-0.001428384,0.001428384,-0.001428384,0.001428384,-0.001428384,0.001428384,-0.001428384,0.001428384,-0.001370382,0.001370383,-0.001370383,0.001370382,4.63E-13,-1.83E-12,-4.36E-13,-5.98E-13,-0.001399147,0.001399147,-0.001428384,0.001428384,-0.001428384,0.001428384,-0.001428384,0.001428384,-0.001428384,0.001428384,-0.001370382,0.001370382,-0.001370382,0.001370382,-0.001370382,0.001370382,-0.001370382,0.001370382,-8.08E-11,8.09E-11,-0.001399147,0.001399147,-6.19E-15,1.57E-13,-0.001428384,0.001428384,-0.001428384,0.001428384,-0.001428384,0.001428384,-0.001428384,0.001428384,-0.001370382,0.001370383,-0.001370383,0.001370382,0.748586522,0.518016632,1368840,32768,0.005812817,0.005812817,0.005812817,38.01818432,38.02753536,0.000219345,0.000219345,0.000219345,199969.1898,0.017591537
37719759,0.998387261,0.016789741,0.00559658,0.00559658,0.00559658,-0.001399006,0.001399006,8.19E-11,-7.98E-11,-9.43E-14,2.25E-12,-0.0014283,0.0014283,-0.0014283,0.0014283,-0.0014283,0.0014283,-0.0014283,0.0014283,-0.001370188,0.001370188,-0.001370188,0.001370188,4.30E-13,-1.89E-12,-4.91E-13,-6.64E-13,-0.001399006,0.001399006,-0.0014283,0.0014283,-0.0014283,0.0014283,-0.0014283,0.0014283,-0.0014283,0.0014283,-0.001370188,0.001370188,-0.001370188,0.001370188,-0.001370188,0.001370188,-0.001370188,0.001370188,-8.08E-11,8.09E-11,-0.001399006,0.001399006,-2.86E-14,1.46E-13,-0.0014283,0.0014283,-0.0014283,0.0014283,-0.0014283,0.0014283,-0.0014283,0.0014283,-0.001370188,0.001370188,-0.001370188,0.001370188,0.744382779,0.47527599,1368840,32768,0.00581223,0.00581223,0.00581223,37.92715511,37.92144057,0.000218617,0.000218617,0.000218617,202987.0388,0.017589745
37806159,0.998481364,0.01679127,0.00559709,0.00559709,0.00559709,-0.001398825,0.001398825,8.19E-11,-7.98E-11,-7.04E-14,2.29E-12,-0.001428173,0.001428173,-0.001428173,0.001428173,-0.001428173,0.001428173,-0.001428173,0.001428173,-0.001369955,0.001369956,-0.001369956,0.001369955,4.82E-13,-1.85E-12,-4.97E-13,-6.62E-13,-0.001398825,0.001398825,-0.001428173,0.001428173,-0.001428173,0.001428173,-0.001428173,0.001428173,-0.001428173,0.001428173,-0.001369955,0.001369955,-0.001369955,0.001369955,-0.001369955,0.001369955,-0.001369955,0.001369955,-8.08E-11,8.10E-11,-0.001398825,0.001398825,1.77E-14,1.83E-13,-0.001428173,0.001428173,-0.001428173,0.001428173,-0.001428173,0.001428173,-0.001428173,0.001428173,-0.001369955,0.001369956,-0.001369956,0.001369955,0.740112237,0.432535348,1368840,32768,0.00581148,0.00581148,0.00581148,37.8224815,37.81534577,0.00021778,0.00021778,0.00021778,206007.7144,0.017587456
37892559,0.998569489,0.016792709,0.00559757,0.00559757,0.00559757,-0.00139863,0.00139863,8.19E-11,-7.98E-11,-9.71E-14,2.27E-12,-0.001428034,0.001428034,-0.001428034,0.001428034,-0.001428034,0.001428034,-0.001428034,0.001428034,-0.001369708,0.001369708,-0.001369708,0.001369708,4.47E-13,-1.89E-12,-5.22E-13,-6.73E-13,-0.00139863,0.00139863,-0.001428034,0.001428034,-0.001428034,0.001428034,-0.001428034,0.001428034,-0.001428034,0.001428034,-0.001369708,0.001369708,-0.001369708,0.001369708,-0.001369708,0.001369708,-0.001369708,0.001369708,-8.08E-11,8.09E-11,-0.00139863,0.00139863,-1.19E-14,1.41E-13,-0.001428034,0.001428034,-0.001428034,0.001428034,-0.001428034,0.001428034,-0.001428034,0.001428034,-0.001369708,0.001369708,-0.001369708,0.001369708,0.74379036,0.509829286,1368840,32768,0.005810673,0.005810673,0.005810673,37.71652834,37.70925097,0.000216932,0.000216932,0.000216932,209156.6333,0.017584992
37978959,0.998652042,0.01679406,0.00559802,0.00559802,0.00559802,-0.001398708,0.001398708,8.19E-11,-7.98E-11,-1.39E-13,2.29E-12,-0.001428029,0.001428029,-0.001428029,0.001428029,-0.001428029,0.001428029,-0.001428029,0.001428029,-0.001369868,0.001369869,-0.001369869,0.001369868,4.39E-13,-1.96E-12,-5.59E-13,-7.33E-13,-0.001398708,0.001398708,-0.001428029,0.001428029,-0.001428029,0.001428029,-0.001428029,0.001428029,-0.001428029,0.001428029,-0.001369869,0.001369869,-0.001369869,0.001369869,-0.001369869,0.001369869,-0.001369869,0.001369869,-8.08E-11,8.10E-11,-0.001398708,0.001398708,1.81E-15,1.77E-13,-0.001428029,0.001428029,-0.001428029,0.001428029,-0.001428029,0.001428029,-0.001428029,0.001428029,-0.001369868,0.001369869,-0.001369869,0.001369868,0.745231463,0.546335991,1368840,32768,0.005810998,0.005810998,0.005810998,37.61044597,37.60315617,0.000216084,0.000216084,0.000216084,203503.0225,0.017585986
38065359,0.998729402,0.016795327,0.005598442,0.005598442,0.005598442,-0.001398684,0.001398684,8.19E-11,-7.98E-11,-1.26E-13,2.30E-12,-0.001427967,0.001427967,-0.001427967,0.001427967,-0.001427967,0.001427967,-0.001427967,0.001427967,-0.001369881,0.001369881,-0.001369881,0.001369881,4.54E-13,-1.94E-12,-5.20E-13,-6.90E-13,-0.001398684,0.001398684,-0.001427967,0.001427967,-0.001427967,0.001427967,-0.001427967,0.001427967,-0.001427967,0.001427967,-0.001369881,0.001369881,-0.001369881,0.001369881,-0.001369881,0.001369881,-0.001369881,0.001369881,-8.08E-11,8.10E-11,-0.001398684,0.001398684,-1.16E-14,1.60E-13,-0.001427967,0.001427967,-0.001427967,0.001427967,-0.001427967,0.001427967,-0.001427967,0.001427967,-0.001369881,0.001369881,-0.001369881,0.001369881,0.74615019,0.571561894,1368840,32768,0.005810898,0.005810898,0.005810898,37.50435028,37.49706138,0.000215235,0.000215235,0.000215235,200836.7255,0.017585679
38151759,0.998801918,0.016796515,0.005598838,0.005598838,0.005598838,-0.001398628,0.001398628,8.19E-11,-7.98E-11,-1.26E-13,2.32E-12,-0.001427886,0.001427886,-0.001427886,0.001427886,-0.001427886,0.001427886,-0.001427886,0.001427886,-0.001369851,0.001369851,-0.001369851,0.001369851,4.83E-13,-1.93E-12,-5.13E-13,-7.01E-13,-0.001398628,0.001398628,-0.001427886,0.001427886,-0.001427886,0.001427886,-0.001427886,0.001427886,-0.001427886,0.001427886,-0.001369851,0.001369851,-0.001369851,0.001369851,-0.001369851,0.001369851,-0.001369851,0.001369851,-8.08E-11,8.10E-11,-0.001398628,0.001398628,-2.64E-14,1.63E-13,-0.001427886,0.001427886,-0.001427886,0.001427886,-0.001427886,0.001427886,-0.001427886,0.001427886,-0.001369851,0.001369851,-0.001369851,0.001369851,0.746433215,0.584676749,1368840,32768,0.005810666,0.005810666,0.005810666,37.39825324,37.39096658,0.000214386,0.000214386,0.000214386,198953.6018,0.017584971
38238159,0.998869916,0.01679763,0.00559921,0.00559921,0.00559921,-0.00139854,0.00139854,8.19E-11,-7.98E-11,-1.31E-13,2.32E-12,-0.001427786,0.001427786,-0.001427786,0.001427786,-0.001427786,0.001427786,-0.001427786,0.001427786,-0.001369775,0.001369775,-0.001369775,0.001369775,4.89E-13,-1.94E-12,-5.15E-13,-7.00E-13,-0.00139854,0.00139854,-0.001427786,0.001427786,-0.001427786,0.001427786,-0.001427786,0.001427786,-0.001427786,0.001427786,-0.001369775,0.001369775,-0.001369775,0.001369775,-0.001369775,0.001369775,-0.001369775,0.001369775,-8.08E-11,8.10E-11,-0.00139854,0.00139854,-1.63E-14,1.70E-13,-0.001427786,0.001427786,-0.001427786,0.001427786,-0.001427786,0.001427786,-0.001427786,0.001427786,-0.001369775,0.001369775,-0.001369775,0.001369775,0.746783428,0.597791603,1368840,32768,0.005810303,0.005810303,0.005810303,37.29215603,37.28487178,0.000213537,0.000213537,0.000213537,197878.2537,0.017583862
38324559,0.998933745,0.016798677,0.005599559,0.005599559,0.005599559,-0.001398474,0.001398474,8.19E-11,-7.98E-11,-1.31E-13,2.33E-12,-0.001427706,0.001427707,-0.001427707,0.001427706,-0.001427706,0.001427707,-0.001427707,0.001427706,-0.001369721,0.001369722,-0.001369722,0.001369721,4.77E-13,-1.95E-12,-5.32E-13,-7.09E-13,-0.001398474,0.001398474,-0.001427706,0.001427706,-0.001427706,0.001427706,-0.001427706,0.001427706,-0.001427706,0.001427706,-0.001369722,0.001369722,-0.001369722,0.001369722,-0.001369722,0.001369722,-0.001369722,0.001369722,-8.08E-11,8.10E-11,-0.001398474,0.001398474,-1.78E-14,1.60E-13,-0.001427707,0.001427706,-0.001427707,0.001427706,-0.001427706,0.001427707,-0.001427706,0.001427707,-0.001369721,0.001369722,-0.001369722,0.001369721,0.747200321,0.610906457,1368840,32768,0.005810028,0.005810028,0.005810028,37.19996912,37.1936084,0.0002128,0.0002128,0.0002128,196798.4115,0.017583022
38410959,0.998993954,0.016799678,0.005599893,0.005599893,0.005599893,-0.001398571,0.001398571,8.19E-11,-7.98E-11,-1.32E-13,2.29E-12,-0.001427788,0.001427788,-0.001427788,0.001427788,-0.001427788,0.001427788,-0.001427788,0.001427788,-0.001369833,0.001369833,-0.001369833,0.001369833,4.73E-13,-1.93E-12,-5.06E-13,-6.98E-13,-0.001398571,0.001398571,-0.001427788,0.001427788,-0.001427788,0.001427788,-0.001427788,0.001427788,-0.001427788,0.001427788,-0.001369833,0.001369833,-0.001369833,0.001369833,-0.001369833,0.001369833,-0.001369833,0.001369833,-8.08E-11,8.10E-11,-0.001398571,0.001398571,3.50E-15,1.96E-13,-0.001427788,0.001427788,-0.001427788,0.001427788,-0.001427788,0.001427788,-0.001427788,0.001427788,-0.001369833,0.001369833,-0.001369833,0.001369833,0.757376226,0.779569167,1368840,32768,0.005810428,0.005810428,0.005810428,37.19421248,37.1936084,0.000212754,0.000212754,0.000212754,195653.358,0.017584245
38497359,0.999050763,0.016800626,0.005600209,0.005600209,0.005600209,-0.001398969,0.001398969,8.19E-11,-7.98E-11,-1.18E-13,2.31E-12,-0.001428027,0.001428027,-0.001428027,0.001428027,-0.001428027,0.001428027,-0.001428027,0.001428027,-0.001370384,0.001370384,-0.001370384,0.001370384,4.75E-13,-1.92E-12,-4.98E-13,-6.93E-13,-0.001398969,0.001398969,-0.001428027,0.001428027,-0.001428027,0.001428027,-0.001428027,0.001428027,-0.001428027,0.001428027,-0.001370384,0.001370384,-0.001370384,0.001370384,-0.001370384,0.001370384,-0.001370384,0.001370384,-8.08E-11,8.10E-11,-0.001398969,0.001398969,-2.30E-14,1.73E-13,-0.001428027,0.001428027,-0.001428027,0.001428027,-0.001428027,0.001428027,-0.001428027,0.001428027,-0.001370384,0.001370384,-0.001370384,0.001370384,0.760640751,0.79944244,1368840,32768,0.005812077,0.005812077,0.005812077,37.19366943,37.1936084,0.000212749,0.000212749,0.000212749,185555.4596,0.017589279
38583759,0.999104366,0.016801523,0.005600508,0.005600508,0.005600508,-0.001399083,0.001399083,8.19E-11,-7.98E-11,-1.19E-13,2.31E-12,-0.001428121,0.001428121,-0.001428121,0.001428121,-0.001428121,0.001428121,-0.001428121,0.001428121,-0.001370516,0.001370516,-0.001370516,0.001370516,4.77E-13,-1.92E-12,-4.99E-13,-6.93E-13,-0.001399083,0.001399083,-0.001428121,0.001428121,-0.001428121,0.001428121,-0.001428121,0.001428121,-0.001428121,0.001428121,-0.001370516,0.001370516,-0.001370516,0.001370516,-0.001370516,0.001370516,-0.001370516,0.001370516,-8.08E-11,8.10E-11,-0.001399083,0.001399083,-2.19E-14,1.73E-13,-0.001428121,0.001428121,-0.001428121,0.001428121,-0.001428121,0.001428121,-0.001428121,0.001428121,-0.001370516,0.001370516,-0.001370516,0.001370516,0.762610792,0.79944244,1368840,32768,0.00581255,0.00581255,0.00581255,37.19361466,37.1936084,0.000212749,0.000212749,0.000212749,183890.8108,0.017590723
38670159,0.999154943,0.016802372,0.005600791,0.005600791,0.005600791,-0.001399158,0.001399158,8.19E-11,-7.98E-11,-1.20E-13,2.31E-12,-0.001428193,0.001428193,-0.001428193,0.001428193,-0.001428193,0.001428193,-0.001428193,0.001428193,-0.001370591,0.001370591,-0.001370591,0.001370591,4.78E-13,-1.92E-12,-5.00E-13,-6.91E-13,-0.001399158,0.001399158,-0.001428193,0.001428193,-0.001428193,0.001428193,-0.001428193,0.001428193,-0.001428193,0.001428193,-0.001370591,0.001370591,-0.001370591,0.001370591,-0.001370591,0.001370591,-0.001370591,0.001370591,-8.08E-11,8.09E-11,-0.001399158,0.001399158,-2.18E-14,1.70E-13,-0.001428193,0.001428193,-0.001428193,0.001428193,-0.001428193,0.001428193,-0.001428193,0.001428193,-0.001370591,0.001370591,-0.001370591,0.001370591,0.764297586,0.79944244,1368840,32768,0.005812859,0.005812859,0.005812859,37.19360905,37.1936084,0.000212749,0.000212749,0.000212749,183323.5339,0.017591666
38756559,0.999202666,0.016803174,0.005601058,0.005601058,0.005601058,-0.001399227,0.001399227,8.19E-11,-7.98E-11,-1.19E-13,2.31E-12,-0.00142826,0.00142826,-0.00142826,0.00142826,-0.00142826,0.00142826,-0.00142826,0.00142826,-0.00137066,0.00137066,-0.00137066,0.00137066,4.72E-13,-1.93E-12,-5.05E-13,-6.97E-13,-0.001399227,0.001399227,-0.00142826,0.00142826,-0.00142826,0.00142826,-0.00142826,0.00142826,-0.00142826,0.00142826,-0.00137066,0.00137066,-0.00137066,0.00137066,-0.00137066,0.00137066,-0.00137066,0.00137066,-8.08E-11,8.09E-11,-0.001399227,0.001399227,-2.08E-14,1.72E-13,-0.00142826,0.00142826,-0.00142826,0.00142826,-0.00142826,0.00142826,-0.00142826,0.00142826,-0.00137066,0.00137066,-0.00137066,0.00137066,0.765755319,0.79944244,1368840,32768,0.005813147,0.005813147,0.005813147,37.19360847,37.1936084,0.000212749,0.000212749,0.000212749,182821.2396,0.017592546
38842959,0.999247696,0.016803932,0.005601311,0.005601311,0.005601311,-0.001399292,0.001399292,8.19E-11,-7.98E-11,-1.21E-13,2.31E-12,-0.001428324,0.001428324,-0.001428324,0.001428324,-0.001428324,0.001428324,-0.001428324,0.001428324,-0.001370725,0.001370725,-0.001370725,0.001370725,4.78E-13,-1.93E-12,-5.00E-13,-6.90E-13,-0.001399292,0.001399292,-0.001428324,0.001428324,-0.001428324,0.001428324,-0.001428324,0.001428324,-0.001428324,0.001428324,-0.001370725,0.001370725,-0.001370725,0.001370725,-0.001370725,0.001370725,-0.001370725,0.001370725,-8.08E-11,8.10E-11,-0.001399292,0.001399292,-1.81E-14,1.74E-13,-0.001428324,0.001428324,-0.001428324,0.001428324,-0.001428324,0.001428324,-0.001428324,0.001428324,-0.001370725,0.001370725,-0.001370725,0.001370725,0.767026187,0.79944244,1368840,32768,0.005813417,0.005813417,0.005813417,37.19360841,37.1936084,0.000212749,0.000212749,0.000212749,182370.0082,0.017593368
38880000,0.999266518,0.016804249,0.005601416,0.005601416,0.005601416,-0.001399321,0.001399321,8.19E-11,-7.98E-11,-1.21E-13,2.31E-12,-0.001428351,0.001428351,-0.001428351,0.001428351,-0.001428351,0.001428352,-0.001428351,0.001428351,-0.001370753,0.001370753,-0.001370753,0.001370753,4.78E-13,-1.93E-12,-5.01E-13,-6.91E-13,-0.001399321,0.001399321,-0.001428351,0.001428351,-0.001428351,0.001428351,-0.001428351,0.001428351,-0.001428351,0.001428351,-0.001370753,0.001370753,-0.001370753,0.001370753,-0.001370753,0.001370753,-0.001370753,0.001370753,-8.08E-11,8.10E-11,-0.001399321,0.001399321,-2.08E-14,1.71E-13,-0.001428351,0.001428351,-0.001428351,0.001428351,-0.001428351,0.001428351,-0.001428351,0.001428351,-0.001370753,0.001370753,-0.001370753,0.001370753,0.767539554,0.79944244,1368840,32768,0.005813535,0.005813535,0.005813535,37.1936084,37.1936084,0.000212749,0.000212749,0.000212749,182097.2843,0.01759373