time,ASR_ext,ASR_strain,ASR_strain_xx,ASR_strain_yy,ASR_strain_zz,disp_x_101,disp_x_102,disp_x_103,disp_x_104,disp_x_105,disp_x_106,disp_x_p1_neg,disp_x_p1_pos,disp_x_p2_neg,disp_x_p2_pos,disp_x_p3_neg,disp_x_p3_pos,disp_x_p4_neg,disp_x_p4_pos,disp_x_p5_neg,disp_x_p5_pos,disp_x_p6_neg,disp_x_p6_pos,disp_y_101,disp_y_102,disp_y_103,disp_y_104,disp_y_105,disp_y_106,disp_y_p1_neg,disp_y_p1_pos,disp_y_p2_neg,disp_y_p2_pos,disp_y_p3_neg,disp_y_p3_pos,disp_y_p4_neg,disp_y_p4_pos,disp_y_p5_neg,disp_y_p5_pos,disp_y_p6_neg,disp_y_p6_pos,disp_y_p7_neg,disp_y_p7_pos,disp_y_p8_neg,disp_y_p8_pos,disp_z_101,disp_z_102,disp_z_103,disp_z_104,disp_z_105,disp_z_106,disp_z_p1_neg,disp_z_p1_pos,disp_z_p2_neg,disp_z_p2_pos,disp_z_p3_neg,disp_z_p3_pos,disp_z_p4_neg,disp_z_p4_pos,disp_z_p5_neg,disp_z_p5_pos,disp_z_p6_neg,disp_z_p6_pos,humidity,humidity_bc,ndof,nelem,strain_xx,strain_yy,strain_zz,temp,temp_bc,thermal_strain_xx,thermal_strain_yy,thermal_strain_zz,vonmises,vstrain
2419200,0,0,0,0,0,0,0,0,0,0,0,0,0,0,0,0,0,0,0,0,0,0,0,0,0,0,0,0,0,0,0,0,0,0,0,0,0,0,0,0,0,0,0,0,0,0,0,0,0,0,0,0,0,0,0,0,0,0,0,0,0,0,0,0,0,0,0,0,0,0,0,0,0,0,0,0,0
2505600,0.009435648,0.000167482,5.58E-05,5.58E-05,5.58E-05,-5.04E-05,5.04E-05,1.15E-11,-1.26E-11,-7.87E-13,-2.57E-13,-4.96E-05,4.96E-05,-4.96E-05,4.96E-05,-4.96E-05,4.96E-05,-4.96E-05,4.96E-05,-5.11E-05,5.11E-05,-5.11E-05,5.11E-05,-5.98E-12,-6.55E-12,-2.79E-12,-2.70E-12,-5.04E-05,5.04E-05,-4.96E-05,4.96E-05,-4.96E-05,4.96E-05,-4.96E-05,4.96E-05,-4.96E-05,4.96E-05,-5.11E-05,5.11E-05,-5.11E-05,5.11E-05,-5.11E-05,5.11E-05,-5.11E-05,5.11E-05,-1.24E-11,1.19E-11,-5.04E-05,5.04E-05,-2.62E-13,-3.36E-13,-4.96E-05,4.96E-05,-4.96E-05,4.96E-05,-4.96E-05,4.96E-05,-4.96E-05,4.96E-05,-5.11E-05,5.11E-05,-5.11E-05,5.11E-05,0.806083523,0.890001078,1368840,32768,0.000210133,0.000210133,0.000210133,29.8886661,31.13435877,0.000154309,0.000154309,0.000154309,279206.2701,0.000630599
2592000,0.020800799,0.000368954,0.000122985,0.000122985,0.000122985,-7.00E-05,7.00E-05,1.25E-11,-1.24E-11,-1.98E-13,2.69E-13,-6.94E-05,6.94E-05,-6.94E-05,6.94E-05,-6.94E-05,6.94E-05,-6.94E-05,6.94E-05,-7.05E-05,7.05E-05,-7.05E-05,7.05E-05,-1.76E-12,-2.23E-12,-8.78E-13,-6.22E-13,-7.00E-05,7.00E-05,-6.94E-05,6.94E-05,-6.94E-05,6.94E-05,-6.94E-05,6.94E-05,-6.94E-05,6.94E-05,-7.05E-05,7.05E-05,-7.05E-05,7.05E-05,-7.05E-05,7.05E-05,-7.05E-05,7.05E-05,-1.25E-11,1.24E-11,-7.00E-05,7.00E-05,8.14E-14,-1.72E-13,-6.94E-05,6.94E-05,-6.94E-05,6.94E-05,-6.94E-05,6.94E-05,-6.94E-05,6.94E-05,-7.05E-05,7.05E-05,-7.05E-05,7.05E-05,0.807821013,0.891563291,1368840,32768,0.000291623,0.000291623,0.000291623,31.68382947,31.84244011,0.000168671,0.000168671,0.000168671,149452.4992,0.000875252
2678400,0.033287343,0.000590956,0.000196985,0.000196985,0.000196985,-8.93E-05,8.93E-05,1.31E-11,-1.29E-11,-1.90E-13,3.00E-13,-8.87E-05,8.87E-05,-8.87E-05,8.87E-05,-8.87E-05,8.87E-05,-8.87E-05,8.87E-05,-8.99E-05,8.99E-05,-8.99E-05,8.99E-05,-1.31E-12,-1.79E-12,-8.56E-13,-5.74E-13,-8.93E-05,8.93E-05,-8.87E-05,8.87E-05,-8.87E-05,8.87E-05,-8.87E-05,8.87E-05,-8.87E-05,8.87E-05,-8.99E-05,8.99E-05,-8.99E-05,8.99E-05,-8.99E-05,8.99E-05,-8.99E-05,8.99E-05,-1.30E-11,1.29E-11,-8.93E-05,8.93E-05,9.74E-14,-1.86E-13,-8.87E-05,8.87E-05,-8.87E-05,8.87E-05,-8.87E-05,8.87E-05,-8.87E-05,8.87E-05,-8.99E-05,8.99E-05,-8.99E-05,8.99E-05,0.809253114,0.891278062,1368840,32768,0.000372077,0.000372077,0.000372077,32.49171881,32.55052145,0.000175134,0.000175134,0.000175134,148315.2543,0.001116855
2764800,0.046405672,0.000824531,0.000274844,0.000274844,0.000274844,-0.000108656,0.000108656,1.32E-11,-1.32E-11,-1.97E-13,2.01E-13,-0.000108009,0.000108009,-0.000108009,0.000108009,-0.000108009,0.000108009,-0.000108009,0.000108009,-0.000109318,0.000109318,-0.000109318,0.000109318,-1.09E-12,-1.49E-12,-7.47E-13,-4.76E-13,-0.000108656,0.000108656,-0.000108009,0.000108009,-0.000108009,0.000108009,-0.000108009,0.000108009,-0.000108009,0.000108009,-0.000109318,0.000109318,-0.000109318,0.000109318,-0.000109318,0.000109318,-0.000109318,0.000109318,-1.33E-11,1.32E-11,-0.000108656,0.000108656,9.46E-14,-1.80E-13,-0.000108009,0.000108009,-0.000108009,0.000108009,-0.000108009,0.000108009,-0.000108009,0.000108009,-0.000109318,0.000109318,-0.000109318,0.000109318,0.810510698,0.890992834,1368840,32768,0.000452631,0.000452631,0.000452631,32.83029122,32.85449205,0.000177842,0.000177842,0.000177842,158035.4606,0.001358817
2851200,0.059664203,0.001060879,0.000353626,0.000353626,0.000353626,-0.000127388,0.000127388,1.32E-11,-1.32E-11,-2.05E-13,2.26E-13,-0.000126683,0.000126683,-0.000126683,0.000126683,-0.000126683,0.000126683,-0.000126683,0.000126683,-0.000128157,0.000128157,-0.000128157,0.000128157,-9.50E-13,-1.37E-12,-6.96E-13,-3.89E-13,-0.000127388,0.000127388,-0.000126683,0.000126683,-0.000126683,0.000126683,-0.000126683,0.000126683,-0.000126683,0.000126683,-0.000128157,0.000128157,-0.000128157,0.000128157,-0.000128157,0.000128157,-0.000128157,0.000128157,-1.33E-11,1.32E-11,-0.000127388,0.000127388,1.10E-13,-2.00E-13,-0.000126683,0.000126683,-0.000126683,0.000126683,-0.000126683,0.000126683,-0.000126683,0.000126683,-0.000128157,0.000128157,-0.000128157,0.000128157,0.811622799,0.890707605,1368840,32768,0.000530643,0.000530643,0.000530643,32.73477602,32.72940788,0.000177078,0.000177078,0.000177078,167205.6524,0.001593196
2937600,0.073022628,0.001299262,0.000433087,0.000433087,0.000433087,-0.000146232,0.000146232,1.30E-11,-1.30E-11,-1.86E-13,1.82E-13,-0.000145457,0.000145457,-0.000145457,0.000145457,-0.000145457,0.000145457,-0.000145457,0.000145457,-0.000147117,0.000147117,-0.000147117,0.000147117,-8.56E-13,-1.22E-12,-5.99E-13,-3.00E-13,-0.000146232,0.000146232,-0.000145457,0.000145457,-0.000145457,0.000145457,-0.000145457,0.000145457,-0.000145457,0.000145457,-0.000147117,0.000147117,-0.000147117,0.000147117,-0.000147117,0.000147117,-0.000147117,0.000147117,-1.31E-11,1.30E-11,-0.000146232,0.000146232,1.13E-13,-1.89E-13,-0.000145457,0.000145457,-0.000145457,0.000145457,-0.000145457,0.000145457,-0.000145457,0.000145457,-0.000147117,0.000147117,-0.000147117,0.000147117,0.812622322,0.890422377,1368840,32768,0.000609116,0.000609116,0.000609116,32.61246084,32.60432371,0.0001761,0.0001761,0.0001761,180334.7768,0.001829019
3024000,0.086467423,0.001539139,0.000513046,0.000513046,0.000513046,-0.000165194,0.000165194,1.28E-11,-1.28E-11,-1.68E-13,1.47E-13,-0.000164352,0.000164352,-0.000164352,0.000164352,-0.000164352,0.000164352,-0.000164352,0.000164352,-0.000166184,0.000166184,-0.000166184,0.000166184,-8.52E-13,-1.16E-12,-5.30E-13,-2.27E-13,-0.000165194,0.000165194,-0.000164352,0.000164352,-0.000164352,0.000164352,-0.000164352,0.000164352,-0.000164352,0.000164352,-0.000166184,0.000166184,-0.000166184,0.000166184,-0.000166184,0.000166184,-0.000166184,0.000166184,-1.29E-11,1.28E-11,-0.000165194,0.000165194,1.14E-13,-1.93E-13,-0.000164352,0.000164352,-0.000164352,0.000164352,-0.000164352,0.000164352,-0.000164352,0.000164352,-0.000166184,0.000166184,-0.000166184,0.000166184,0.812597339,0.876774308,1368840,32768,0.00068807,0.00068807,0.00068807,32.48765003,32.47923954,0.000175101,0.000175101,0.000175101,191460.8782,0.002066341
3110400,0.099987853,0.001779952,0.000593317,0.000593317,0.000593317,-0.000184233,0.000184233,1.27E-11,-1.27E-11,-1.58E-13,1.21E-13,-0.000183341,0.000183341,-0.000183341,0.000183341,-0.000183341,0.000183341,-0.000183341,0.000183341,-0.000185302,0.000185303,-0.000185303,0.000185302,-8.67E-13,-1.14E-12,-5.46E-13,-2.55E-13,-0.000184233,0.000184233,-0.000183341,0.000183341,-0.000183341,0.000183341,-0.000183341,0.000183341,-0.000183341,0.000183341,-0.000185302,0.000185302,-0.000185302,0.000185302,-0.000185302,0.000185302,-0.000185302,0.000185302,-1.29E-11,1.28E-11,-0.000184233,0.000184233,1.10E-13,-1.84E-13,-0.000183341,0.000183341,-0.000183341,0.000183341,-0.000183341,0.000183341,-0.000183341,0.000183341,-0.000185302,0.000185302,-0.000185302,0.000185302,0.811279718,0.849585612,1368840,32768,0.000767345,0.000767345,0.000767345,32.36259176,32.35415537,0.000174101,0.000174101,0.000174101,197411.5335,0.002304687
3196800,0.113573466,0.002021465,0.000673822,0.000673822,0.000673822,-0.000203333,0.000203333,1.26E-11,-1.26E-11,-1.50E-13,1.01E-13,-0.000202404,0.000202404,-0.000202404,0.000202404,-0.000202404,0.000202404,-0.000202404,0.000202404,-0.000204455,0.000204455,-0.000204455,0.000204455,-8.57E-13,-1.10E-12,-5.14E-13,-2.20E-13,-0.000203333,0.000203333,-0.000202404,0.000202404,-0.000202404,0.000202404,-0.000202404,0.000202404,-0.000202404,0.000202404,-0.000204455,0.000204455,-0.000204455,0.000204455,-0.000204455,0.000204455,-0.000204455,0.000204455,-1.27E-11,1.27E-11,-0.000203333,0.000203333,1.19E-13,-1.78E-13,-0.000202404,0.000202404,-0.000202404,0.000202404,-0.000202404,0.000202404,-0.000202404,0.000202404,-0.000204455,0.000204455,-0.000204455,0.000204455,0.809765117,0.826665679,1368840,32768,0.000846862,0.000846862,0.000846862,32.23750845,32.2290712,0.0001731,0.0001731,0.0001731,198443.7389,0.002543817
3283200,0.127213652,0.002262547,0.000754182,0.000754182,0.000754182,-0.0002224,0.0002224,1.26E-11,-1.26E-11,-1.33E-13,1.03E-13,-0.000221473,0.000221473,-0.000221473,0.000221473,-0.000221473,0.000221473,-0.000221473,0.000221473,-0.000223506,0.000223506,-0.000223506,0.000223506,-8.60E-13,-1.09E-12,-5.05E-13,-2.33E-13,-0.0002224,0.0002224,-0.000221473,0.000221473,-0.000221473,0.000221473,-0.000221473,0.000221473,-0.000221473,0.000221473,-0.000223506,0.000223506,-0.000223506,0.000223506,-0.000223506,0.000223506,-0.000223506,0.000223506,-1.27E-11,1.26E-11,-0.0002224,0.0002224,1.13E-13,-1.63E-13,-0.000221473,0.000221473,-0.000221473,0.000221473,-0.000221473,0.000221473,-0.000221473,0.000221473,-0.000223506,0.000223506,-0.000223506,0.000223506,0.805016524,0.764793389,1368840,32768,0.000926236,0.000926236,0.000926236,32.11242443,32.10398702,0.000172099,0.000172099,0.000172099,186732.4692,0.002782573
3369600,0.14089825,0.002503455,0.000834485,0.000834485,0.000834485,-0.000241455,0.000241455,1.25E-11,-1.26E-11,-1.40E-13,9.13E-14,-0.000240557,0.000240557,-0.000240557,0.000240557,-0.000240557,0.000240557,-0.000240557,0.000240557,-0.000242502,0.000242502,-0.000242502,0.000242502,-8.41E-13,-1.07E-12,-5.02E-13,-2.61E-13,-0.000241455,0.000241455,-0.000240557,0.000240557,-0.000240557,0.000240557,-0.000240557,0.000240557,-0.000240557,0.000240557,-0.000242502,0.000242502,-0.000242502,0.000242502,-0.000242502,0.000242502,-0.000242502,0.000242502,-1.27E-11,1.26E-11,-0.000241455,0.000241455,1.10E-13,-1.33E-13,-0.000240557,0.000240557,-0.000240557,0.000240557,-0.000240557,0.000240557,-0.000240557,0.000240557,-0.000242502,0.000242502,-0.000242502,0.000242502,0.801702656,0.732612154,1368840,32768,0.001005555,0.001005555,0.001005555,31.98733894,31.97890285,0.000171099,0.000171099,0.000171099,168760.4093,0.003021221
3456000,0.154616496,0.002743953,0.000914651,0.000914651,0.000914651,-0.000260473,0.000260473,1.25E-11,-1.25E-11,-1.05E-13,8.04E-14,-0.000259632,0.000259632,-0.000259632,0.000259632,-0.000259632,0.000259632,-0.000259632,0.000259632,-0.000261415,0.000261415,-0.000261415,0.000261415,-7.92E-13,-9.69E-13,-4.66E-13,-2.36E-13,-0.000260473,0.000260473,-0.000259632,0.000259632,-0.000259632,0.000259632,-0.000259632,0.000259632,-0.000259632,0.000259632,-0.000261415,0.000261415,-0.000261415,0.000261415,-0.000261415,0.000261415,-0.000261415,0.000261415,-1.26E-11,1.26E-11,-0.000260473,0.000260473,8.25E-14,-1.51E-13,-0.000259632,0.000259632,-0.000259632,0.000259632,-0.000259632,0.000259632,-0.000259632,0.000259632,-0.000261415,0.000261415,-0.000261415,0.000261415,0.798218275,0.700430919,1368840,32768,0.001084714,0.001084714,0.001084714,31.86225313,31.85381868,0.000170098,0.000170098,0.000170098,145785.6255,0.003259444
3542400,0.168496648,0.002986231,0.00099541,0.00099541,0.00099541,-0.000279878,0.000279878,1.24E-11,-1.24E-11,-1.04E-13,4.86E-14,-0.000279117,0.000279117,-0.000279117,0.000279117,-0.000279117,0.000279117,-0.000279117,0.000279117,-0.000280672,0.000280672,-0.000280672,0.000280672,-7.35E-13,-8.79E-13,-4.08E-13,-1.79E-13,-0.000279878,0.000279878,-0.000279117,0.000279117,-0.000279117,0.000279117,-0.000279117,0.000279117,-0.000279117,0.000279117,-0.000280672,0.000280672,-0.000280672,0.000280672,-0.000280672,0.000280672,-0.000280672,0.000280672,-1.25E-11,1.25E-11,-0.000279878,0.000279878,1.04E-13,-1.29E-13,-0.000279117,0.000279117,-0.000279117,0.000279117,-0.000279117,0.000279117,-0.000279117,0.000279117,-0.000280672,0.000280672,-0.000280672,0.000280672,0.794621797,0.668249684,1368840,32768,0.001165481,0.001165481,0.001165481,31.86607787,31.86603709,0.000170129,0.000170129,0.000170129,126675.4508,0.003502562
3628800,0.182669404,0.003232643,0.001077548,0.001077548,0.001077548,-0.000299868,0.000299868,1.23E-11,-1.23E-11,-1.04E-13,6.09E-14,-0.00029921,0.00029921,-0.00029921,0.00029921,-0.00029921,0.00029921,-0.00029921,0.00029921,-0.000300479,0.000300479,-0.000300479,0.000300479,-6.58E-13,-8.15E-13,-3.60E-13,-1.37E-13,-0.000299868,0.000299868,-0.00029921,0.00029921,-0.00029921,0.00029921,-0.00029921,0.00029921,-0.00029921,0.00029921,-0.000300479,0.000300479,-0.000300479,0.000300479,-0.000300479,0.000300479,-0.000300479,0.000300479,-1.24E-11,1.24E-11,-0.000299868,0.000299868,1.01E-13,-1.26E-13,-0.00029921,0.00029921,-0.00029921,0.00029921,-0.00029921,0.00029921,-0.00029921,0.00029921,-0.000300479,0.000300479,-0.000300479,0.000300479,0.791726125,0.647352145,1368840,32768,0.001248669,0.001248669,0.001248669,32.00302935,32.01194567,0.000171224,0.000171224,0.000171224,132450.8588,0.003753033
3715200,0.197133472,0.003483728,0.001161243,0.001161243,0.001161243,-0.000320247,0.000320247,1.24E-11,-1.24E-11,-1.06E-13,6.91E-14,-0.000319708,0.000319708,-0.000319708,0.000319708,-0.000319708,0.000319708,-0.000319708,0.000319708,-0.000320662,0.000320662,-0.000320662,0.000320662,-7.09E-13,-8.77E-13,-3.81E-13,-1.67E-13,-0.000320247,0.000320247,-0.000319708,0.000319708,-0.000319708,0.000319708,-0.000319708,0.000319708,-0.000319708,0.000319708,-0.000320662,0.000320662,-0.000320662,0.000320662,-0.000320662,0.000320662,-0.000320662,0.000320662,-1.25E-11,1.25E-11,-0.000320247,0.000320247,9.97E-14,-1.18E-13,-0.000319708,0.000319708,-0.000319708,0.000319708,-0.000319708,0.000319708,-0.000319708,0.000319708,-0.000320662,0.000320662,-0.000320662,0.000320662,0.79075888,0.654463583,1368840,32768,0.001333474,0.001333474,0.001333474,32.14809701,32.15785424,0.000172385,0.000172385,0.000172385,154274.4942,0.004008434
3801600,0.211879021,0.003739363,0.001246454,0.001246454,0.001246454,-0.000341,0.000341,1.26E-11,-1.27E-11,-1.07E-13,7.20E-14,-0.00034059,0.00034059,-0.00034059,0.00034059,-0.00034059,0.00034059,-0.00034059,0.00034059,-0.000341209,0.000341209,-0.000341209,0.000341209,-7.36E-13,-9.09E-13,-3.82E-13,-1.65E-13,-0.000341,0.000341,-0.00034059,0.00034059,-0.00034059,0.00034059,-0.00034059,0.00034059,-0.00034059,0.00034059,-0.000341209,0.000341209,-0.000341209,0.000341209,-0.000341209,0.000341209,-0.000341209,0.000341209,-1.27E-11,1.27E-11,-0.000341,0.000341,9.92E-14,-1.21E-13,-0.00034059,0.00034059,-0.00034059,0.00034059,-0.00034059,0.00034059,-0.00034059,0.00034059,-0.000341209,0.000341209,-0.000341209,0.000341209,0.789977246,0.66157502,1368840,32768,0.001419824,0.001419824,0.001419824,32.29391748,32.30376282,0.000173551,0.000173551,0.000173551,174850.3327,0.004268557
3888000,0.226894152,0.003999381,0.001333127,0.001333127,0.001333127,-0.000362107,0.000362107,1.30E-11,-1.30E-11,-1.03E-13,5.13E-14,-0.000361838,0.000361838,-0.000361838,0.000361838,-0.000361838,0.000361838,-0.000361838,0.000361838,-0.000362099,0.000362099,-0.000362099,0.000362099,-7.83E-13,-9.32E-13,-3.88E-13,-1.67E-13,-0.000362107,0.000362107,-0.000361838,0.000361838,-0.000361838,0.000361838,-0.000361838,0.000361838,-0.000361838,0.000361838,-0.000362099,0.000362099,-0.000362099,0.000362099,-0.000362099,0.000362099,-0.000362099,0.000362099,-1.31E-11,1.30E-11,-0.000362107,0.000362107,1.01E-13,-1.24E-13,-0.000361838,0.000361838,-0.000361838,0.000361838,-0.000361838,0.000361838,-0.000361838,0.000361838,-0.000362099,0.000362099,-0.000362099,0.000362099,0.789346849,0.668686458,1368840,32768,0.001507641,0.001507641,0.001507641,32.4398128,32.44967139,0.000174719,0.000174719,0.000174719,194751.4742,0.004533168
3974400,0.242165694,0.00426359,0.001421197,0.001421197,0.001421197,-0.000383552,0.000383552,1.33E-11,-1.33E-11,-1.06E-13,6.67E-14,-0.000383439,0.000383439,-0.000383439,0.000383439,-0.000383439,0.000383439,-0.000383439,0.000383439,-0.000383314,0.000383314,-0.000383314,0.000383314,-8.17E-13,-9.85E-13,-3.84E-13,-1.70E-13,-0.000383552,0.000383552,-0.000383439,0.000383439,-0.000383439,0.000383439,-0.000383439,0.000383439,-0.000383439,0.000383439,-0.000383314,0.000383314,-0.000383314,0.000383314,-0.000383314,0.000383314,-0.000383314,0.000383314,-1.34E-11,1.34E-11,-0.000383552,0.000383552,9.99E-14,-1.18E-13,-0.000383439,0.000383439,-0.000383439,0.000383439,-0.000383439,0.000383439,-0.000383439,0.000383439,-0.000383314,0.000383314,-0.000383314,0.000383314,0.788842657,0.675797896,1368840,32768,0.001596859,0.001596859,0.001596859,32.58571574,32.59557997,0.000175886,0.000175886,0.000175886,214396.1232,0.004802071
4060800,0.257679273,0.004531779,0.001510593,0.001510593,0.001510593,-0.00040532,0.00040532,1.36E-11,-1.36E-11,-1.11E-13,7.34E-14,-0.000405378,0.000405378,-0.000405378,0.000405378,-0.000405378,0.000405378,-0.000405378,0.000405378,-0.000404839,0.000404839,-0.000404839,0.000404839,-9.21E-13,-1.10E-12,-4.61E-13,-2.35E-13,-0.00040532,0.00040532,-0.000405378,0.000405378,-0.000405378,0.000405378,-0.000405378,0.000405378,-0.000405378,0.000405378,-0.000404839,0.000404839,-0.000404839,0.000404839,-0.000404839,0.000404839,-0.000404839,0.000404839,-1.37E-11,1.37E-11,-0.00040532,0.00040532,1.06E-13,-1.23E-13,-0.000405378,0.000405378,-0.000405378,0.000405378,-0.000405378,0.000405378,-0.000405378,0.000405378,-0.000404839,0.000404839,-0.000404839,0.000404839,0.788446861,0.682909333,1368840,32768,0.001687409,0.001687409,0.001687409,32.73161952,32.74148854,0.000177053,0.000177053,0.000177053,233709.8195,0.005075061
4147200,0.273419268,0.004803711,0.001601237,0.001601237,0.001601237,-0.00042739,0.00042739,1.38E-11,-1.38E-11,-1.15E-13,8.85E-14,-0.000427636,0.000427636,-0.000427636,0.000427636,-0.000427636,0.000427636,-0.000427636,0.000427636,-0.000426655,0.000426655,-0.000426655,0.000426655,-9.86E-13,-1.19E-12,-5.18E-13,-2.77E-13,-0.00042739,0.00042739,-0.000427636,0.000427636,-0.000427636,0.000427636,-0.000427636,0.000427636,-0.000427636,0.000427636,-0.000426655,0.000426655,-0.000426655,0.000426655,-0.000426655,0.000426655,-0.000426655,0.000426655,-1.39E-11,1.39E-11,-0.00042739,0.00042739,1.10E-13,-1.34E-13,-0.000427636,0.000427636,-0.000427636,0.000427636,-0.000427636,0.000427636,-0.000427636,0.000427636,-0.000426655,0.000426655,-0.000426655,0.000426655,0.788146946,0.690020771,1368840,32768,0.00177921,0.00177921,0.00177921,32.87752342,32.88739712,0.00017822,0.00017822,0.00017822,252274.3168,0.0053519
4233600,0.289368852,0.005079128,0.001693043,0.001693043,0.001693043,-0.000449743,0.000449743,1.39E-11,-1.39E-11,-1.21E-13,1.02E-13,-0.000450188,0.000450188,-0.000450188,0.000450188,-0.000450188,0.000450188,-0.000450188,0.000450188,-0.000448747,0.000448747,-0.000448747,0.000448747,-1.09E-12,-1.31E-12,-5.89E-13,-3.70E-13,-0.000449743,0.000449743,-0.000450188,0.000450188,-0.000450188,0.000450188,-0.000450188,0.000450188,-0.000450188,0.000450188,-0.000448747,0.000448747,-0.000448747,0.000448747,-0.000448747,0.000448747,-0.000448747,0.000448747,-1.40E-11,1.40E-11,-0.000449743,0.000449743,1.01E-13,-1.23E-13,-0.000450188,0.000450188,-0.000450188,0.000450188,-0.000450188,0.000450188,-0.000450188,0.000450188,-0.000448747,0.000448747,-0.000448747,0.000448747,0.787934222,0.697132209,1368840,32768,0.001872177,0.001872177,0.001872177,33.02342739,33.03330569,0.000179387,0.000179387,0.000179387,269569.1639,0.005632332
4320000,0.305597756,0.005359247,0.001786416,0.001786416,0.001786416,-0.000472625,0.000472625,1.38E-11,-1.38E-11,-1.33E-13,1.08E-13,-0.000473278,0.000473278,-0.000473278,0.000473278,-0.000473278,0.000473278,-0.000473278,0.000473278,-0.000471366,0.000471366,-0.000471366,0.000471366,-1.18E-12,-1.42E-12,-7.02E-13,-4.74E-13,-0.000472625,0.000472625,-0.000473278,0.000473278,-0.000473278,0.000473278,-0.000473278,0.000473278,-0.000473278,0.000473278,-0.000471366,0.000471366,-0.000471366,0.000471366,-0.000471366,0.000471366,-0.000471366,0.000471366,-1.39E-11,1.39E-11,-0.000472625,0.000472625,1.06E-13,-1.26E-13,-0.000473278,0.000473278,-0.000473278,0.000473278,-0.000473278,0.000473278,-0.000473278,0.000473278,-0.000471366,0.000471366,-0.000471366,0.000471366,0.787750657,0.703485145,1368840,32768,0.001967336,0.001967336,0.001967336,33.24704029,33.26200872,0.000181176,0.000181176,0.000181176,284924.4062,0.00591946
4406400,0.32217136,0.00564517,0.001881723,0.001881723,0.001881723,-0.000496118,0.000496118,1.35E-11,-1.36E-11,-1.26E-13,1.05E-13,-0.000496989,0.000496989,-0.000496989,0.000496989,-0.000496989,0.000496989,-0.000496989,0.000496989,-0.000494589,0.000494589,-0.000494589,0.000494589,-1.27E-12,-1.50E-12,-8.01E-13,-5.39E-13,-0.000496118,0.000496118,-0.000496989,0.000496989,-0.000496989,0.000496989,-0.000496989,0.000496989,-0.000496989,0.000496989,-0.000494589,0.000494589,-0.000494589,0.000494589,-0.000494589,0.000494589,-0.000494589,0.000494589,-1.37E-11,1.37E-11,-0.000496118,0.000496118,1.17E-13,-1.49E-13,-0.000496989,0.000496989,-0.000496989,0.000496989,-0.000496989,0.000496989,-0.000496989,0.000496989,-0.000494589,0.000494589,-0.000494589,0.000494589,0.787470283,0.707390611,1368840,32768,0.002065022,0.002065022,0.002065022,33.54463766,33.56463601,0.000183557,0.000183557,0.000183557,298667.067,0.006214297
4492800,0.339074908,0.005936653,0.001978884,0.001978884,0.001978884,-0.000520066,0.000520066,1.31E-11,-1.32E-11,-1.05E-13,5.36E-14,-0.000521169,0.000521169,-0.000521169,0.000521169,-0.000521169,0.000521169,-0.000521169,0.000521169,-0.00051826,0.00051826,-0.00051826,0.00051826,-1.37E-12,-1.52E-12,-8.74E-13,-6.11E-13,-0.000520066,0.000520066,-0.000521169,0.000521169,-0.000521169,0.000521169,-0.000521169,0.000521169,-0.000521169,0.000521169,-0.00051826,0.00051826,-0.00051826,0.00051826,-0.00051826,0.00051826,-0.00051826,0.00051826,-1.33E-11,1.33E-11,-0.000520066,0.000520066,1.17E-13,-1.50E-13,-0.000521169,0.000521169,-0.000521169,0.000521169,-0.000521169,0.000521169,-0.000521169,0.000521169,-0.00051826,0.00051826,-0.00051826,0.00051826,0.787230957,0.711296076,1368840,32768,0.002164595,0.002164595,0.002164595,33.84677526,33.86726329,0.000185974,0.000185974,0.000185974,310978.3542,0.006514917
4579200,0.356286696,0.006233339,0.00207778,0.00207778,0.00207778,-0.000544436,0.000544436,1.26E-11,-1.27E-11,-8.67E-14,9.06E-14,-0.000545771,0.000545771,-0.000545771,0.000545771,-0.000545771,0.000545771,-0.000545771,0.000545771,-0.000542357,0.000542357,-0.000542357,0.000542357,-1.29E-12,-1.46E-12,-8.42E-13,-5.97E-13,-0.000544436,0.000544436,-0.000545771,0.000545771,-0.000545771,0.000545771,-0.000545771,0.000545771,-0.000545771,0.000545771,-0.000542357,0.000542357,-0.000542357,0.000542357,-0.000542357,0.000542357,-0.000542357,0.000542357,-1.28E-11,1.28E-11,-0.000544436,0.000544436,1.04E-13,-1.47E-13,-0.000545771,0.000545771,-0.000545771,0.000545771,-0.000545771,0.000545771,-0.000545771,0.000545771,-0.000542357,0.000542357,-0.000542357,0.000542357,0.787032388,0.715201542,1368840,32768,0.002265914,0.002265914,0.002265914,34.14933603,34.16989058,0.000188395,0.000188395,0.000188395,319514.5832,0.006820901
4665600,0.373782306,0.006534826,0.002178275,0.002178275,0.002178275,-0.000569194,0.000569194,1.21E-11,-1.21E-11,-5.63E-14,1.08E-13,-0.00057078,0.00057078,-0.00057078,0.00057078,-0.00057078,0.00057078,-0.00057078,0.00057078,-0.000566832,0.000566832,-0.000566832,0.000566832,-1.25E-12,-1.40E-12,-8.18E-13,-6.06E-13,-0.000569194,0.000569194,-0.00057078,0.00057078,-0.00057078,0.00057078,-0.00057078,0.00057078,-0.00057078,0.00057078,-0.000566832,0.000566832,-0.000566832,0.000566832,-0.000566832,0.000566832,-0.000566832,0.000566832,-1.22E-11,1.24E-11,-0.000569194,0.000569194,1.43E-13,-7.53E-14,-0.00057078,0.00057078,-0.00057078,0.00057078,-0.00057078,0.00057078,-0.00057078,0.00057078,-0.000566832,0.000566832,-0.000566832,0.000566832,0.786874176,0.719107008,1368840,32768,0.002368831,0.002368831,0.002368831,34.45193909,34.47251786,0.000190816,0.000190816,0.000190816,328246.261,0.007131807
4752000,0.391534996,0.006840673,0.002280224,0.002280224,0.002280224,-0.000594304,0.000594304,1.15E-11,-1.16E-11,-1.04E-13,9.24E-14,-0.000596151,0.000596151,-0.000596151,0.000596151,-0.000596151,0.000596151,-0.000596151,0.000596151,-0.000591656,0.000591656,-0.000591656,0.000591656,-1.25E-12,-1.44E-12,-8.45E-13,-5.85E-13,-0.000594304,0.000594304,-0.000596151,0.000596151,-0.000596151,0.000596151,-0.000596151,0.000596151,-0.000596151,0.000596151,-0.000591656,0.000591656,-0.000591656,0.000591656,-0.000591656,0.000591656,-0.000591656,0.000591656,-1.18E-11,1.18E-11,-0.000594304,0.000594304,1.57E-13,-1.09E-13,-0.000596151,0.000596151,-0.000596151,0.000596151,-0.000596151,0.000596151,-0.000596151,0.000596151,-0.000591656,0.000591656,-0.000591656,0.000591656,0.786755919,0.723012474,1368840,32768,0.002473203,0.002473203,0.002473203,34.75454648,34.77514514,0.000193236,0.000193236,0.000193236,335590.7845,0.007447206
4838400,0.409515811,0.007150404,0.002383468,0.002383468,0.002383468,-0.000619728,0.000619728,1.09E-11,-1.11E-11,-1.92E-13,-2.33E-14,-0.000621845,0.000621845,-0.000621845,0.000621845,-0.000621845,0.000621845,-0.000621845,0.000621845,-0.000616794,0.000616794,-0.000616794,0.000616794,-1.24E-12,-1.39E-12,-8.18E-13,-5.43E-13,-0.000619728,0.000619728,-0.000621845,0.000621845,-0.000621845,0.000621845,-0.000621845,0.000621845,-0.000621845,0.000621845,-0.000616794,0.000616794,-0.000616794,0.000616794,-0.000616794,0.000616794,-0.000616794,0.000616794,-1.12E-11,1.12E-11,-0.000619728,0.000619728,1.93E-13,-8.22E-14,-0.000621845,0.000621845,-0.000621845,0.000621845,-0.000621845,0.000621845,-0.000621845,0.000621845,-0.000616794,0.000616794,-0.000616794,0.000616794,0.786677266,0.726917939,1368840,32768,0.002578871,0.002578871,0.002578871,35.05715435,35.07777243,0.000195657,0.000195657,0.000195657,341588.9753,0.00776662
4924800,0.427693694,0.007463505,0.002487835,0.002487835,0.002487835,-0.000645426,0.000645426,1.04E-11,-1.05E-11,-4.44E-14,1.08E-13,-0.000647818,0.000647818,-0.000647818,0.000647818,-0.000647818,0.000647818,-0.000647818,0.000647818,-0.000642205,0.000642205,-0.000642205,0.000642205,-1.03E-12,-1.17E-12,-7.27E-13,-4.47E-13,-0.000645426,0.000645426,-0.000647818,0.000647818,-0.000647818,0.000647818,-0.000647818,0.000647818,-0.000647818,0.000647818,-0.000642205,0.000642205,-0.000642205,0.000642205,-0.000642205,0.000642205,-0.000642205,0.000642205,-1.07E-11,1.06E-11,-0.000645426,0.000645426,6.45E-14,-2.16E-13,-0.000647818,0.000647818,-0.000647818,0.000647818,-0.000647818,0.000647818,-0.000647818,0.000647818,-0.000642205,0.000642205,-0.000642205,0.000642205,0.786637936,0.730823405,1368840,32768,0.002685663,0.002685663,0.002685663,35.35976231,35.38039971,0.000198078,0.000198078,0.000198078,346194.8917,0.008089537
5011200,0.446035622,0.007779266,0.002593089,0.002593089,0.002593089,-0.000671385,0.000671385,1.00E-11,-1.02E-11,-9.08E-14,5.73E-14,-0.000674059,0.000674059,-0.000674059,0.000674059,-0.000674059,0.000674059,-0.000674059,0.000674059,-0.000667872,0.000667872,-0.000667872,0.000667872,-8.79E-13,-1.02E-12,-5.26E-13,-2.49E-13,-0.000671385,0.000671385,-0.000674059,0.000674059,-0.000674059,0.000674059,-0.000674059,0.000674059,-0.000674059,0.000674059,-0.000667872,0.000667872,-0.000667872,0.000667872,-0.000667872,0.000667872,-0.000667872,0.000667872,-1.03E-11,1.03E-11,-0.000671385,0.000671385,1.15E-13,-1.65E-13,-0.000674059,0.000674059,-0.000674059,0.000674059,-0.000674059,0.000674059,-0.000674059,0.000674059,-0.000667872,0.000667872,-0.000667872,0.000667872,0.786230748,0.728857574,1368840,32768,0.002793529,0.002793529,0.002793529,35.66236992,35.683027,0.000200499,0.000200499,0.000200499,350693.48,0.008415806
5097600,0.464391662,0.00809383,0.002697943,0.002697943,0.002697943,-0.000696957,0.000696957,9.36E-12,-9.48E-12,-1.03E-13,1.77E-14,-0.000699983,0.000699983,-0.000699983,0.000699983,-0.000699983,0.000699983,-0.000699983,0.000699983,-0.000693069,0.000693069,-0.000693069,0.000693069,-8.98E-13,-1.01E-12,-5.42E-13,-2.68E-13,-0.000696957,0.000696957,-0.000699983,0.000699983,-0.000699983,0.000699983,-0.000699983,0.000699983,-0.000699983,0.000699983,-0.000693069,0.000693069,-0.000693069,0.000693069,-0.000693069,0.000693069,-0.000693069,0.000693069,-9.68E-12,9.64E-12,-0.000696957,0.000696957,1.18E-13,-1.59E-13,-0.000699983,0.000699983,-0.000699983,0.000699983,-0.000699983,0.000699983,-0.000699983,0.000699983,-0.000693069,0.000693069,-0.000693069,0.000693069,0.782574553,0.680332191,1368840,32768,0.002899777,0.002899777,0.002899777,35.86475625,35.87882077,0.000202118,0.000202118,0.000202118,367621.217,0.008737285
5184000,0.482627916,0.008406149,0.00280205,0.00280205,0.00280205,-0.000722197,0.000722197,8.84E-12,-8.97E-12,-1.04E-13,2.16E-14,-0.000725587,0.000725587,-0.000725587,0.000725587,-0.000725587,0.000725587,-0.000725587,0.000725587,-0.000717925,0.000717925,-0.000717925,0.000717925,-8.30E-13,-9.44E-13,-4.50E-13,-2.05E-13,-0.000722197,0.000722197,-0.000725587,0.000725587,-0.000725587,0.000725587,-0.000725587,0.000725587,-0.000725587,0.000725587,-0.000717925,0.000717925,-0.000717925,0.000717925,-0.000717925,0.000717925,-0.000717925,0.000717925,-9.17E-12,9.14E-12,-0.000722197,0.000722197,1.07E-13,-1.42E-13,-0.000725587,0.000725587,-0.000725587,0.000725587,-0.000725587,0.000725587,-0.000725587,0.000725587,-0.000717925,0.000717925,-0.000717925,0.000717925,0.782334315,0.688616509,1368840,32768,0.003004633,0.003004633,0.003004633,35.97914261,35.98718216,0.000203033,0.000203033,0.000203033,386458.7764,0.009054651
5270400,0.500709955,0.008718594,0.002906198,0.002906198,0.002906198,-0.000747485,0.000747485,8.40E-12,-8.53E-12,-1.02E-13,1.08E-16,-0.00075114,0.00075114,-0.00075114,0.00075114,-0.00075114,0.00075114,-0.00075114,0.00075114,-0.000742998,0.000742998,-0.000742998,0.000742998,-8.32E-13,-9.23E-13,-4.24E-13,-2.09E-13,-0.000747485,0.000747485,-0.00075114,0.00075114,-0.00075114,0.00075114,-0.00075114,0.00075114,-0.00075114,0.00075114,-0.000742998,0.000742998,-0.000742998,0.000742998,-0.000742998,0.000742998,-0.000742998,0.000742998,-8.73E-12,8.70E-12,-0.000747485,0.000747485,9.55E-14,-1.23E-13,-0.00075114,0.00075114,-0.00075114,0.00075114,-0.00075114,0.00075114,-0.00075114,0.00075114,-0.000742998,0.000742998,-0.000742998,0.000742998,0.789463479,0.80400171,1368840,32768,0.00310968,0.00310968,0.00310968,36.08807436,36.09554356,0.000203905,0.000203905,0.000203905,374287.169,0.009372696
5356800,0.518610832,0.00902678,0.003008927,0.003008927,0.003008927,-0.000772505,0.000772505,8.08E-12,-8.28E-12,-1.29E-13,-5.39E-14,-0.000776406,0.000776406,-0.000776406,0.000776406,-0.000776406,0.000776406,-0.000776406,0.000776406,-0.000767789,0.000767789,-0.000767789,0.000767789,-8.20E-13,-8.82E-13,-4.05E-13,-1.64E-13,-0.000772505,0.000772505,-0.000776406,0.000776406,-0.000776406,0.000776406,-0.000776406,0.000776406,-0.000776406,0.000776406,-0.000767789,0.000767789,-0.000767789,0.000767789,-0.000767789,0.000767789,-0.000767789,0.000767789,-8.45E-12,8.41E-12,-0.000772505,0.000772505,8.38E-14,-1.61E-13,-0.000776406,0.000776406,-0.000776406,0.000776406,-0.000776406,0.000776406,-0.000776406,0.000776406,-0.000767789,0.000767789,-0.000767789,0.000767789,0.786379491,0.74770296,1368840,32768,0.003213599,0.003213599,0.003213599,36.19648929,36.20390495,0.000204772,0.000204772,0.000204772,359333.5735,0.009687424
5443200,0.536303631,0.009329481,0.003109827,0.003109827,0.003109827,-0.00079697,0.00079697,7.85E-12,-7.99E-12,-9.83E-14,-2.95E-14,-0.000801233,0.000801233,-0.000801233,0.000801233,-0.000801233,0.000801233,-0.000801233,0.000801233,-0.00079188,0.00079188,-0.00079188,0.00079188,-7.93E-13,-8.49E-13,-3.70E-13,-1.31E-13,-0.00079697,0.00079697,-0.000801233,0.000801233,-0.000801233,0.000801233,-0.000801233,0.000801233,-0.000801233,0.000801233,-0.00079188,0.00079188,-0.00079188,0.00079188,-0.00079188,0.00079188,-0.00079188,0.00079188,-8.18E-12,8.16E-12,-0.00079697,0.00079697,1.04E-13,-1.39E-13,-0.000801233,0.000801233,-0.000801233,0.000801233,-0.000801233,0.000801233,-0.000801233,0.000801233,-0.00079188,0.00079188,-0.00079188,0.00079188,0.781292197,0.676333928,1368840,32768,0.003315207,0.003315207,0.003315207,36.30485245,36.31226635,0.000205639,0.000205639,0.000205639,375826.1601,0.009995248
5529600,0.553761738,0.009625805,0.003208602,0.003208602,0.003208602,-0.0008209,0.0008209,7.59E-12,-7.77E-12,-5.63E-14,-9.91E-14,-0.000825596,0.000825596,-0.000825596,0.000825596,-0.000825596,0.000825596,-0.000825596,0.000825596,-0.000815323,0.000815323,-0.000815323,0.000815323,-8.00E-13,-7.44E-13,-2.93E-13,-1.02E-13,-0.0008209,0.0008209,-0.000825596,0.000825596,-0.000825596,0.000825596,-0.000825596,0.000825596,-0.000825596,0.000825596,-0.000815323,0.000815323,-0.000815323,0.000815323,-0.000815323,0.000815323,-0.000815323,0.000815323,-7.93E-12,7.93E-12,-0.0008209,0.0008209,9.94E-14,-9.59E-14,-0.000825596,0.000825596,-0.000825596,0.000825596,-0.000825596,0.000825596,-0.000825596,0.000825596,-0.000815323,0.000815323,-0.000815323,0.000815323,0.77529935,0.601414126,1368840,32768,0.003414579,0.003414579,0.003414579,36.41321078,36.42062774,0.000206506,0.000206506,0.000206506,407140.7428,0.010296389
5616000,0.570960422,0.009915725,0.003305242,0.003305242,0.003305242,-0.00084429,0.00084429,7.40E-12,-7.59E-12,-9.81E-14,-9.67E-14,-0.000849492,0.000849492,-0.000849492,0.000849492,-0.000849492,0.000849492,-0.000849492,0.000849492,-0.000838129,0.000838129,-0.000838129,0.000838129,-7.69E-13,-7.56E-13,-2.71E-13,-9.00E-14,-0.00084429,0.00084429,-0.000849492,0.000849492,-0.000849492,0.000849492,-0.000849492,0.000849492,-0.000849492,0.000849492,-0.000838129,0.000838129,-0.000838129,0.000838129,-0.000838129,0.000838129,-0.000838129,0.000838129,-7.75E-12,7.73E-12,-0.00084429,0.00084429,9.95E-14,-8.56E-14,-0.000849492,0.000849492,-0.000849492,0.000849492,-0.000849492,0.000849492,-0.000849492,0.000849492,-0.000838129,0.000838129,-0.000838129,0.000838129,0.770362091,0.547990385,1368840,32768,0.003511701,0.003511701,0.003511701,36.52156906,36.52898914,0.000207373,0.000207373,0.000207373,449153.4001,0.0105908
5702400,0.587876585,0.010199135,0.003399712,0.003399712,0.003399712,-0.000867156,0.000867156,7.22E-12,-7.42E-12,-1.03E-13,-7.91E-14,-0.000872915,0.000872915,-0.000872915,0.000872915,-0.000872915,0.000872915,-0.000872915,0.000872915,-0.000860341,0.000860341,-0.000860341,0.000860341,-7.18E-13,-7.26E-13,-2.33E-13,-7.56E-14,-0.000867156,0.000867156,-0.000872915,0.000872915,-0.000872915,0.000872915,-0.000872915,0.000872915,-0.000872915,0.000872915,-0.000860341,0.000860341,-0.000860341,0.000860341,-0.000860341,0.000860341,-0.000860341,0.000860341,-7.56E-12,7.58E-12,-0.000867156,0.000867156,8.55E-14,-7.61E-14,-0.000872915,0.000872915,-0.000872915,0.000872915,-0.000872915,0.000872915,-0.000872915,0.000872915,-0.000860341,0.000860341,-0.000860341,0.000860341,0.766135085,0.507141103,1368840,32768,0.003606637,0.003606637,0.003606637,36.62992751,36.63735053,0.000208239,0.000208239,0.000208239,494922.6704,0.01087867
5788800,0.604488849,0.010475705,0.003491902,0.003491902,0.003491902,-0.000889468,0.000889468,7.08E-12,-7.29E-12,-9.02E-14,-9.17E-14,-0.000895838,0.000895838,-0.000895838,0.000895838,-0.000895838,0.000895838,-0.000895838,0.000895838,-0.000881927,0.000881927,-0.000881927,0.000881927,-7.02E-13,-6.85E-13,-1.97E-13,-6.03E-14,-0.000889468,0.000889468,-0.000895838,0.000895838,-0.000895838,0.000895838,-0.000895838,0.000895838,-0.000895838,0.000895838,-0.000881927,0.000881927,-0.000881927,0.000881927,-0.000881927,0.000881927,-0.000881927,0.000881927,-7.44E-12,7.43E-12,-0.000889468,0.000889468,6.60E-14,-7.48E-14,-0.000895838,0.000895838,-0.000895838,0.000895838,-0.000895838,0.000895838,-0.000895838,0.000895838,-0.000881927,0.000881927,-0.000881927,0.000881927,0.76186091,0.466291821,1368840,32768,0.003699264,0.003699264,0.003699264,36.73828606,36.74571193,0.000209106,0.000209106,0.000209106,544192.372,0.011159615
5875200,0.620718305,0.010745794,0.003581931,0.003581931,0.003581931,-0.000911131,0.000911131,6.98E-12,-7.20E-12,-8.57E-14,-1.27E-13,-0.00091812,0.00091812,-0.00091812,0.00091812,-0.00091812,0.00091812,-0.00091812,0.00091812,-0.000902875,0.000902875,-0.000902875,0.000902875,-7.38E-13,-6.81E-13,-2.07E-13,-7.35E-14,-0.000911131,0.000911131,-0.00091812,0.00091812,-0.00091812,0.00091812,-0.00091812,0.00091812,-0.00091812,0.00091812,-0.000902875,0.000902875,-0.000902875,0.000902875,-0.000902875,0.000902875,-0.000902875,0.000902875,-7.33E-12,7.35E-12,-0.000911131,0.000911131,6.91E-14,-6.81E-14,-0.00091812,0.00091812,-0.00091812,0.00091812,-0.00091812,0.00091812,-0.00091812,0.00091812,-0.000902875,0.000902875,-0.000902875,0.000902875,0.762100758,0.491841961,1368840,32768,0.003789189,0.003789189,0.003789189,36.78457464,36.78789582,0.000209477,0.000209477,0.000209477,586479.0024,0.011432438
5961600,0.636505732,0.011006731,0.00366891,0.00366891,0.00366891,-0.000932066,0.000932066,6.89E-12,-7.12E-12,-7.85E-14,-1.35E-13,-0.000939668,0.000939668,-0.000939668,0.000939668,-0.000939668,0.000939668,-0.000939668,0.000939668,-0.000923077,0.000923077,-0.000923077,0.000923077,-7.07E-13,-6.34E-13,-1.68E-13,-3.70E-14,-0.000932066,0.000932066,-0.000939668,0.000939668,-0.000939668,0.000939668,-0.000939668,0.000939668,-0.000939668,0.000939668,-0.000923077,0.000923077,-0.000923077,0.000923077,-0.000923077,0.000923077,-0.000923077,0.000923077,-7.24E-12,7.26E-12,-0.000932066,0.000932066,7.20E-14,-6.27E-14,-0.000939668,0.000939668,-0.000939668,0.000939668,-0.000939668,0.000939668,-0.000939668,0.000939668,-0.000923077,0.000923077,-0.000923077,0.000923077,0.757370282,0.440771033,1368840,32768,0.003876081,0.003876081,0.003876081,36.78061815,36.78047505,0.000209445,0.000209445,0.000209445,618535.6034,0.011696134
6048000,0.651841513,0.011259345,0.003753115,0.003753115,0.003753115,-0.00095218,0.00095218,6.80E-12,-7.04E-12,-7.53E-14,-1.49E-13,-0.000960483,0.000960483,-0.000960483,0.000960483,-0.000960483,0.000960483,-0.000960483,0.000960483,-0.000942376,0.000942376,-0.000942376,0.000942376,-6.51E-13,-5.59E-13,-1.03E-13,2.71E-14,-0.00095218,0.00095218,-0.000960483,0.000960483,-0.000960483,0.000960483,-0.000960483,0.000960483,-0.000960483,0.000960483,-0.000942376,0.000942376,-0.000942376,0.000942376,-0.000942376,0.000942376,-0.000942376,0.000942376,-7.16E-12,7.18E-12,-0.00095218,0.00095218,7.20E-14,-6.17E-14,-0.000960483,0.000960483,-0.000960483,0.000960483,-0.000960483,0.000960483,-0.000960483,0.000960483,-0.000942376,0.000942376,-0.000942376,0.000942376,0.755168904,0.428346577,1368840,32768,0.003959562,0.003959562,0.003959562,36.773526,36.77305428,0.000209388,0.000209388,0.000209388,665942.7103,0.011949542
6134400,0.666720261,0.011504257,0.003834752,0.003834752,0.003834752,-0.000971749,0.000971749,6.74E-12,-6.99E-12,-7.26E-14,-1.63E-13,-0.000980712,0.000980712,-0.000980712,0.000980712,-0.000980712,0.000980712,-0.000980712,0.000980712,-0.000961182,0.000961182,-0.000961182,0.000961182,-7.13E-13,-6.05E-13,-1.55E-13,-2.29E-14,-0.000971749,0.000971749,-0.000980712,0.000980712,-0.000980712,0.000980712,-0.000980712,0.000980712,-0.000980712,0.000980712,-0.000961182,0.000961182,-0.000961182,0.000961182,-0.000961182,0.000961182,-0.000961182,0.000961182,-7.11E-12,7.13E-12,-0.000971749,0.000971749,7.35E-14,-6.28E-14,-0.000980712,0.000980712,-0.000980712,0.000980712,-0.000980712,0.000980712,-0.000980712,0.000980712,-0.000961182,0.000961182,-0.000961182,0.000961182,0.755147285,0.447133136,1368840,32768,0.004040771,0.004040771,0.004040771,36.76613841,36.76563351,0.000209329,0.000209329,0.000209329,697118.9056,0.012196113
6220800,0.681139165,0.011741541,0.003913847,0.003913847,0.003913847,-0.000990783,0.000990783,6.70E-12,-6.96E-12,-7.05E-14,-1.77E-13,-0.001000358,0.001000358,-0.001000358,0.001000358,-0.001000358,0.001000358,-0.001000358,0.001000358,-0.000979517,0.000979517,-0.000979517,0.000979517,-6.93E-13,-5.68E-13,-1.24E-13,1.16E-14,-0.000990783,0.000990783,-0.001000358,0.001000358,-0.001000358,0.001000358,-0.001000358,0.001000358,-0.001000358,0.001000358,-0.000979517,0.000979517,-0.000979517,0.000979517,-0.000979517,0.000979517,-0.000979517,0.000979517,-7.07E-12,7.09E-12,-0.000990783,0.000990783,7.48E-14,-6.51E-14,-0.001000358,0.001000358,-0.001000358,0.001000358,-0.001000358,0.001000358,-0.001000358,0.001000358,-0.000979517,0.000979517,-0.000979517,0.000979517,0.755283235,0.465919695,1368840,32768,0.004119757,0.004119757,0.004119757,36.75872104,36.75821274,0.00020927,0.00020927,0.00020927,712998.39,0.012435994
6307200,0.695097028,0.011971271,0.003990424,0.003990424,0.003990424,-0.001009222,0.001009222,6.66E-12,-6.94E-12,-6.54E-14,-1.94E-13,-0.001019384,0.001019384,-0.001019384,0.001019384,-0.001019384,0.001019384,-0.001019384,0.001019384,-0.000997293,0.000997293,-0.000997293,0.000997293,-6.65E-13,-5.17E-13,-8.39E-14,4.97E-14,-0.001009222,0.001009222,-0.001019384,0.001019384,-0.001019384,0.001019384,-0.001019384,0.001019384,-0.001019384,0.001019384,-0.000997293,0.000997293,-0.000997293,0.000997293,-0.000997293,0.000997293,-0.000997293,0.000997293,-7.04E-12,7.06E-12,-0.001009222,0.001009222,7.56E-14,-6.19E-14,-0.001019384,0.001019384,-0.001019384,0.001019384,-0.001019384,0.001019384,-0.001019384,0.001019384,-0.000997293,0.000997293,-0.000997293,0.000997293,0.755546223,0.484706254,1368840,32768,0.004196268,0.004196268,0.004196268,36.75130062,36.75079198,0.00020921,0.00020921,0.00020921,722618.2879,0.012668411
6393600,0.708594054,0.012193149,0.004064383,0.004064383,0.004064383,-0.001027039,0.001027039,6.62E-12,-6.91E-12,-5.61E-14,-2.18E-13,-0.001037774,0.001037774,-0.001037774,0.001037774,-0.001037774,0.001037774,-0.001037774,0.001037774,-0.001014467,0.001014467,-0.001014467,0.001014467,-6.39E-13,-4.57E-13,-4.22E-14,9.39E-14,-0.001027039,0.001027039,-0.001037774,0.001037774,-0.001037774,0.001037774,-0.001037774,0.001037774,-0.001037774,0.001037774,-0.001014467,0.001014467,-0.001014467,0.001014467,-0.001014467,0.001014467,-0.001014467,0.001014467,-7.00E-12,7.02E-12,-0.001027039,0.001027039,7.61E-14,-6.39E-14,-0.001037774,0.001037774,-0.001037774,0.001037774,-0.001037774,0.001037774,-0.001037774,0.001037774,-0.001014467,0.001014467,-0.001014467,0.001014467,0.754719712,0.485380897,1368840,32768,0.004270187,0.004270187,0.004270187,36.74387989,36.74337121,0.000209151,0.000209151,0.000209151,728948.9899,0.012893006
6480000,0.721631863,0.012408622,0.004136207,0.004136207,0.004136207,-0.001044308,0.001044308,6.60E-12,-6.89E-12,-5.75E-14,-2.21E-13,-0.001055577,0.001055577,-0.001055577,0.001055577,-0.001055577,0.001055577,-0.001055577,0.001055577,-0.00103117,0.00103117,-0.00103117,0.00103117,-6.17E-13,-4.33E-13,-2.71E-14,1.13E-13,-0.001044308,0.001044308,-0.001055577,0.001055577,-0.001055577,0.001055577,-0.001055577,0.001055577,-0.001055577,0.001055577,-0.00103117,0.00103117,-0.00103117,0.00103117,-0.00103117,0.00103117,-0.00103117,0.00103117,-6.97E-12,7.01E-12,-0.001044308,0.001044308,7.95E-14,-6.48E-14,-0.001055577,0.001055577,-0.001055577,0.001055577,-0.001055577,0.001055577,-0.001055577,0.001055577,-0.00103117,0.00103117,-0.00103117,0.00103117,0.75876643,0.561350941,1368840,32768,0.004341834,0.004341834,0.004341834,36.73645911,36.73595044,0.000209092,0.000209092,0.000209092,729123.0526,0.013110748
6566400,0.734213896,0.012617464,0.004205821,0.004205821,0.004205821,-0.001061251,0.001061251,6.59E-12,-6.87E-12,-4.46E-14,-2.27E-13,-0.001072912,0.001072912,-0.001072912,0.001072912,-0.001072912,0.001072912,-0.001072912,0.001072912,-0.001047708,0.001047708,-0.001047708,0.001047708,-5.93E-13,-3.90E-13,1.43E-14,1.44E-13,-0.001061251,0.001061251,-0.001072912,0.001072912,-0.001072912,0.001072912,-0.001072912,0.001072912,-0.001072912,0.001072912,-0.001047708,0.001047708,-0.001047708,0.001047708,-0.001047708,0.001047708,-0.001047708,0.001047708,-6.97E-12,6.99E-12,-0.001061251,0.001061251,6.74E-14,-6.62E-14,-0.001072912,0.001072912,-0.001072912,0.001072912,-0.001072912,0.001072912,-0.001072912,0.001072912,-0.001047708,0.001047708,-0.001047708,0.001047708,0.761996174,0.619781363,1368840,32768,0.004412118,0.004412118,0.004412118,36.72962389,36.72915398,0.000209037,0.000209037,0.000209037,703196.7392,0.013324388
6652800,0.746653399,0.012824974,0.004274991,0.004274991,0.004274991,-0.001078906,0.001078906,6.58E-12,-6.87E-12,-7.84E-14,-2.44E-13,-0.001090925,0.001090925,-0.001090925,0.001090925,-0.001090925,0.001090925,-0.001090925,0.001090925,-0.001065018,0.001065018,-0.001065018,0.001065018,-5.25E-13,-3.39E-13,-2.29E-15,1.43E-13,-0.001078906,0.001078906,-0.001090925,0.001090925,-0.001090925,0.001090925,-0.001090925,0.001090925,-0.001090925,0.001090925,-0.001065018,0.001065018,-0.001065018,0.001065018,-0.001065018,0.001065018,-0.001065018,0.001065018,-6.96E-12,6.98E-12,-0.001078906,0.001078906,8.07E-14,-6.84E-14,-0.001090925,0.001090925,-0.001090925,0.001090925,-0.001090925,0.001090925,-0.001090925,0.001090925,-0.001065018,0.001065018,-0.001065018,0.001065018,0.765505732,0.678211785,1368840,32768,0.004485356,0.004485356,0.004485356,37.16878887,37.19785955,0.00021255,0.00021255,0.00021255,675948.7545,0.013547056
6739200,0.758943484,0.013031173,0.004343724,0.004343724,0.004343724,-0.001096507,0.001096507,6.54E-12,-6.83E-12,-6.14E-14,-2.27E-13,-0.001108848,0.001108848,-0.001108848,0.001108848,-0.001108848,0.001108848,-0.001108848,0.001108848,-0.001082337,0.001082337,-0.001082337,0.001082337,-7.02E-13,-5.17E-13,-8.00E-14,1.07E-14,-0.001096507,0.001096507,-0.001108848,0.001108848,-0.001108848,0.001108848,-0.001108848,0.001108848,-0.001108848,0.001108848,-0.001082337,0.001082337,-0.001082337,0.001082337,-0.001082337,0.001082337,-0.001082337,0.001082337,-6.91E-12,6.95E-12,-0.001096507,0.001096507,5.86E-14,-3.56E-14,-0.001108848,0.001108848,-0.001108848,0.001108848,-0.001108848,0.001108848,-0.001108848,0.001108848,-0.001082337,0.001082337,-0.001082337,0.001082337,0.769541554,0.736642208,1368840,32768,0.004558362,0.004558362,0.004558362,37.63467331,37.66656512,0.000216277,0.000216277,0.000216277,645300.495,0.013769069
6825600,0.77105963,0.013237429,0.004412476,0.004412476,0.004412476,-0.001114115,0.001114115,6.60E-12,-6.73E-12,5.22E-14,-1.69E-13,-0.001126682,0.001126682,-0.001126682,0.001126682,-0.001126682,0.001126682,-0.001126682,0.001126682,-0.001099816,0.001099816,-0.001099816,0.001099816,-7.49E-13,-5.11E-13,-2.44E-13,3.15E-14,-0.001114115,0.001114115,-0.001126682,0.001126682,-0.001126682,0.001126682,-0.001126682,0.001126682,-0.001126682,0.001126682,-0.001099816,0.001099816,-0.001099816,0.001099816,-0.001099816,0.001099816,-0.001099816,0.001099816,-6.88E-12,6.93E-12,-0.001114115,0.001114115,6.08E-14,-2.19E-13,-0.001126682,0.001126682,-0.001126682,0.001126682,-0.001126682,0.001126682,-0.001126682,0.001126682,-0.001099816,0.001099816,-0.001099816,0.001099816,0.780344223,0.88014328,1368840,32768,0.004631391,0.004631391,0.004631391,38.10307491,38.13527069,0.000220025,0.000220025,0.000220025,604654.2712,0.013991197
6912000,0.78297629,0.013437221,0.004479074,0.004479074,0.004479074,-0.001131365,0.001131365,6.52E-12,-6.80E-12,-6.52E-15,-1.28E-13,-0.001144149,0.001144149,-0.001144149,0.001144149,-0.001144149,0.001144149,-0.001144149,0.001144149,-0.001116863,0.001116863,-0.001116863,0.001116863,-7.53E-13,-6.14E-13,-2.04E-13,2.07E-14,-0.001131365,0.001131365,-0.001144149,0.001144149,-0.001144149,0.001144149,-0.001144149,0.001144149,-0.001144149,0.001144149,-0.001116863,0.001116863,-0.001116863,0.001116863,-0.001116863,0.001116863,-0.001116863,0.001116863,-6.86E-12,6.95E-12,-0.001131365,0.001131365,9.99E-14,-1.27E-13,-0.001144149,0.001144149,-0.001144149,0.001144149,-0.001144149,0.001144149,-0.001144149,0.001144149,-0.001116863,0.001116863,-0.001116863,0.001116863,0.768128234,0.669279501,1368840,32768,0.004702933,0.004702933,0.004702933,38.57168159,38.60397626,0.000223773,0.000223773,0.000223773,565355.0199,0.014208852
6998400,0.794668504,0.013632306,0.004544102,0.004544102,0.004544102,-0.00114753,0.00114753,6.44E-12,-6.83E-12,-8.96E-14,-2.16E-13,-0.001160907,0.001160907,-0.001160907,0.001160907,-0.001160907,0.001160907,-0.001160907,0.001160907,-0.001132456,0.001132456,-0.001132456,0.001132456,-6.73E-13,-5.28E-13,-1.32E-13,5.51E-14,-0.00114753,0.00114753,-0.001160907,0.001160907,-0.001160907,0.001160907,-0.001160907,0.001160907,-0.001160907,0.001160907,-0.001132456,0.001132456,-0.001132456,0.001132456,-0.001132456,0.001132456,-0.001132456,0.001132456,-6.87E-12,6.89E-12,-0.00114753,0.00114753,8.70E-14,-1.04E-13,-0.001160907,0.001160907,-0.001160907,0.001160907,-0.001160907,0.001160907,-0.001160907,0.001160907,-0.001132456,0.001132456,-0.001132456,0.001132456,0.764002445,0.613900261,1368840,32768,0.004769965,0.004769965,0.004769965,39.04033285,39.07268183,0.000227523,0.000227523,0.000227523,590387.6895,0.014412828
7084800,0.806112014,0.013822642,0.004607547,0.004607547,0.004607547,-0.001163596,0.001163596,6.50E-12,-6.78E-12,-6.54E-14,-1.78E-13,-0.001177439,0.001177439,-0.001177439,0.001177439,-0.001177439,0.001177439,-0.001177439,0.001177439,-0.001148066,0.001148066,-0.001148066,0.001148066,-6.46E-13,-5.15E-13,-9.80E-14,5.10E-14,-0.001163596,0.001163596,-0.001177439,0.001177439,-0.001177439,0.001177439,-0.001177439,0.001177439,-0.001177439,0.001177439,-0.001148066,0.001148066,-0.001148066,0.001148066,-0.001148066,0.001148066,-0.001148066,0.001148066,-6.86E-12,6.91E-12,-0.001163596,0.001163596,6.71E-14,-8.58E-14,-0.001177439,0.001177439,-0.001177439,0.001177439,-0.001177439,0.001177439,-0.001177439,0.001177439,-0.001148066,0.001148066,-0.001148066,0.001148066,0.761876008,0.594198107,1368840,32768,0.004836588,0.004836588,0.004836588,39.50898949,39.5413874,0.000231272,0.000231272,0.000231272,591666.7624,0.014615601
7171200,0.81728441,0.014007248,0.004669083,0.004669083,0.004669083,-0.001179275,0.001179275,6.50E-12,-6.74E-12,-4.92E-14,-1.96E-13,-0.001193557,0.001193557,-0.001193557,0.001193557,-0.001193557,0.001193557,-0.001193557,0.001193557,-0.001163287,0.001163287,-0.001163287,0.001163287,-5.85E-13,-4.18E-13,-7.24E-15,1.45E-13,-0.001179275,0.001179275,-0.001193557,0.001193557,-0.001193557,0.001193557,-0.001193557,0.001193557,-0.001193557,0.001193557,-0.001163287,0.001163287,-0.001163287,0.001163287,-0.001163287,0.001163287,-0.001163287,0.001163287,-6.82E-12,6.92E-12,-0.001179275,0.001179275,2.90E-14,-1.28E-13,-0.001193557,0.001193557,-0.001193557,0.001193557,-0.001193557,0.001193557,-0.001193557,0.001193557,-0.001163287,0.001163287,-0.001163287,0.001163287,0.756900787,0.533322397,1368840,32768,0.004901595,0.004901595,0.004901595,39.97764584,40.01009297,0.000235021,0.000235021,0.000235021,589359.7056,0.014813498
7257600,0.828164574,0.014185709,0.00472857,0.00472857,0.00472857,-0.001194341,0.001194341,6.44E-12,-6.80E-12,-2.76E-14,-1.78E-13,-0.001209156,0.001209156,-0.001209156,0.001209156,-0.001209156,0.001209156,-0.001209156,0.001209156,-0.00117779,0.00117779,-0.00117779,0.00117779,-5.51E-13,-3.78E-13,-3.89E-14,9.94E-14,-0.001194341,0.001194341,-0.001209156,0.001209156,-0.001209156,0.001209156,-0.001209156,0.001209156,-0.001209156,0.001209156,-0.00117779,0.00117779,-0.00117779,0.00117779,-0.00117779,0.00117779,-0.00117779,0.00117779,-6.94E-12,6.80E-12,-0.001194341,0.001194341,-5.26E-14,-1.94E-13,-0.001209156,0.001209156,-0.001209156,0.001209156,-0.001209156,0.001209156,-0.001209156,0.001209156,-0.00117779,0.00117779,-0.00117779,0.00117779,0.751360271,0.468986383,1368840,32768,0.004964063,0.004964063,0.004964063,40.44630267,40.47879854,0.00023877,0.00023877,0.00023877,598892.6638,0.015003698
7344000,0.838634228,0.014356462,0.004785487,0.004785487,0.004785487,-0.001208409,0.001208409,6.48E-12,-6.73E-12,-1.04E-13,-1.82E-13,-0.001223805,0.001223805,-0.001223805,0.001223805,-0.001223805,0.001223805,-0.001223805,0.001223805,-0.001191243,0.001191243,-0.001191243,0.001191243,-5.95E-13,-4.95E-13,-7.90E-14,1.00E-13,-0.001208409,0.001208409,-0.001223805,0.001223805,-0.001223805,0.001223805,-0.001223805,0.001223805,-0.001223805,0.001223805,-0.001191243,0.001191243,-0.001191243,0.001191243,-0.001191243,0.001191243,-0.001191243,0.001191243,-6.85E-12,6.85E-12,-0.001208409,0.001208409,6.65E-14,-1.17E-13,-0.001223805,0.001223805,-0.001223805,0.001223805,-0.001223805,0.001223805,-0.001223805,0.001223805,-0.001191243,0.001191243,-0.001191243,0.001191243,0.747192976,0.42818194,1368840,32768,0.005022386,0.005022386,0.005022386,40.73773846,40.75839948,0.000241102,0.000241102,0.000241102,612358.6822,0.015181313
7430400,0.848560351,0.014517646,0.004839215,0.004839215,0.004839215,-0.001221282,0.001221282,6.47E-12,-6.73E-12,-8.47E-14,-1.81E-13,-0.001237231,0.001237231,-0.001237231,0.001237231,-0.001237231,0.001237231,-0.001237231,0.001237231,-0.001203522,0.001203522,-0.001203522,0.001203522,-5.74E-13,-4.56E-13,-4.56E-14,1.39E-13,-0.001221282,0.001221282,-0.001237231,0.001237231,-0.001237231,0.001237231,-0.001237231,0.001237231,-0.001237231,0.001237231,-0.001203522,0.001203522,-0.001203522,0.001203522,-0.001203522,0.001203522,-0.001203522,0.001203522,-6.83E-12,6.86E-12,-0.001221282,0.001221282,8.64E-14,-1.02E-13,-0.001237231,0.001237231,-0.001237231,0.001237231,-0.001237231,0.001237231,-0.001237231,0.001237231,-0.001203522,0.001203522,-0.001203522,0.001203522,0.744052311,0.4031842,1368840,32768,0.005075751,0.005075751,0.005075751,40.78453015,40.78840152,0.000241476,0.000241476,0.000241476,621633.4201,0.015343856
7516800,0.857953664,0.014669561,0.004889854,0.004889854,0.004889854,-0.001233418,0.001233418,6.45E-12,-6.74E-12,-6.97E-14,-2.02E-13,-0.001249886,0.001249886,-0.001249886,0.001249886,-0.001249886,0.001249886,-0.001249886,0.001249886,-0.001215093,0.001215093,-0.001215093,0.001215093,-5.67E-13,-4.12E-13,-1.67E-14,1.59E-13,-0.001233418,0.001233418,-0.001249886,0.001249886,-0.001249886,0.001249886,-0.001249886,0.001249886,-0.001249886,0.001249886,-0.001215093,0.001215093,-0.001215093,0.001215093,-0.001215093,0.001215093,-0.001215093,0.001215093,-6.84E-12,6.84E-12,-0.001233418,0.001233418,7.80E-14,-1.02E-13,-0.001249886,0.001249886,-0.001249886,0.001249886,-0.001249886,0.001249886,-0.001249886,0.001249886,-0.001215093,0.001215093,-0.001215093,0.001215093,0.741141806,0.381295825,1368840,32768,0.005126061,0.005126061,0.005126061,40.81613777,40.81840357,0.000241729,0.000241729,0.000241729,627125.5116,0.015497119
7603200,0.866833548,0.014812703,0.004937568,0.004937568,0.004937568,-0.00124485,0.00124485,6.45E-12,-6.74E-12,-6.17E-14,-2.21E-13,-0.001261823,0.001261823,-0.001261823,0.001261823,-0.001261823,0.001261823,-0.001261823,0.001261823,-0.001225974,0.001225974,-0.001225974,0.001225974,-5.64E-13,-3.81E-13,1.29E-14,1.81E-13,-0.00124485,0.00124485,-0.001261823,0.001261823,-0.001261823,0.001261823,-0.001261823,0.001261823,-0.001261823,0.001261823,-0.001225974,0.001225974,-0.001225974,0.001225974,-0.001225974,0.001225974,-0.001225974,0.001225974,-6.83E-12,6.85E-12,-0.00124485,0.00124485,7.68E-14,-9.47E-14,-0.001261823,0.001261823,-0.001261823,0.001261823,-0.001261823,0.001261823,-0.001261823,0.001261823,-0.001225974,0.001225974,-0.001225974,0.001225974,0.738781593,0.367167753,1368840,32768,0.005173447,0.005173447,0.005173447,40.84630334,40.84840561,0.00024197,0.00024197,0.00024197,631427.1881,0.015641497
7689600,0.875220352,0.014947618,0.004982539,0.004982539,0.004982539,-0.001255645,0.001255645,6.44E-12,-6.75E-12,-5.62E-14,-2.40E-13,-0.001273094,0.001273094,-0.001273094,0.001273094,-0.001273094,0.001273094,-0.001273094,0.001273094,-0.001236248,0.001236248,-0.001236248,0.001236248,-5.54E-13,-3.47E-13,3.01E-14,2.04E-13,-0.001255645,0.001255645,-0.001273094,0.001273094,-0.001273094,0.001273094,-0.001273094,0.001273094,-0.001273094,0.001273094,-0.001236248,0.001236248,-0.001236248,0.001236248,-0.001236248,0.001236248,-0.001236248,0.001236248,-6.83E-12,6.84E-12,-0.001255645,0.001255645,8.05E-14,-9.74E-14,-0.001273094,0.001273094,-0.001273094,0.001273094,-0.001273094,0.001273094,-0.001273094,0.001273094,-0.001236248,0.001236248,-0.001236248,0.001236248,0.737305245,0.365392034,1368840,32768,0.005218191,0.005218191,0.005218191,40.87632209,40.87840765,0.000242211,0.000242211,0.000242211,632888.9687,0.015777841
7776000,0.883134585,0.015074687,0.005024896,0.005024896,0.005024896,-0.001265856,0.001265856,6.42E-12,-6.75E-12,-5.01E-14,-2.62E-13,-0.00128374,0.00128374,-0.00128374,0.00128374,-0.00128374,0.00128374,-0.00128374,0.00128374,-0.001245983,0.001245983,-0.001245983,0.001245983,-5.46E-13,-3.11E-13,4.99E-14,2.26E-13,-0.001265856,0.001265856,-0.00128374,0.00128374,-0.00128374,0.00128374,-0.00128374,0.00128374,-0.00128374,0.00128374,-0.001245983,0.001245983,-0.001245983,0.001245983,-0.001245983,0.001245983,-0.001245983,0.001245983,-6.82E-12,6.84E-12,-0.001265856,0.001265856,8.20E-14,-9.81E-14,-0.00128374,0.00128374,-0.00128374,0.00128374,-0.00128374,0.00128374,-0.00128374,0.00128374,-0.001245983,0.001245983,-0.001245983,0.001245983,0.735906663,0.363616315,1368840,32768,0.005260512,0.005260512,0.005260512,40.90632564,40.90840969,0.000242451,0.000242451,0.000242451,630423.3488,0.015906823
7862400,0.890596721,0.015194284,0.005064761,0.005064761,0.005064761,-0.001275468,0.001275468,6.41E-12,-6.75E-12,-4.17E-14,-2.82E-13,-0.001293768,0.001293768,-0.001293768,0.001293768,-0.001293768,0.001293768,-0.001293768,0.001293768,-0.001255142,0.001255142,-0.001255142,0.001255142,-5.37E-13,-2.73E-13,6.90E-14,2.55E-13,-0.001275468,0.001275468,-0.001293768,0.001293768,-0.001293768,0.001293768,-0.001293768,0.001293768,-0.001293768,0.001293768,-0.001255142,0.001255142,-0.001255142,0.001255142,-0.001255142,0.001255142,-0.001255142,0.001255142,-6.81E-12,6.83E-12,-0.001275468,0.001275468,8.62E-14,-1.03E-13,-0.001293768,0.001293768,-0.001293768,0.001293768,-0.001293768,0.001293768,-0.001293768,0.001293768,-0.001255142,0.001255142,-0.001255142,0.001255142,0.734568266,0.361840595,1368840,32768,0.005300353,0.005300353,0.005300353,40.93632761,40.93841174,0.000242691,0.000242691,0.000242691,627088.2895,0.016028259
7948800,0.897627062,0.015306769,0.005102256,0.005102256,0.005102256,-0.001284511,0.001284511,6.39E-12,-6.74E-12,-3.11E-14,-3.06E-13,-0.001303207,0.001303207,-0.001303207,0.001303207,-0.001303207,0.001303207,-0.001303207,0.001303207,-0.001263754,0.001263754,-0.001263754,0.001263754,-5.30E-13,-2.32E-13,9.80E-14,2.76E-13,-0.001284511,0.001284511,-0.001303207,0.001303207,-0.001303207,0.001303207,-0.001303207,0.001303207,-0.001303207,0.001303207,-0.001263754,0.001263754,-0.001263754,0.001263754,-0.001263754,0.001263754,-0.001263754,0.001263754,-6.81E-12,6.82E-12,-0.001284511,0.001284511,8.35E-14,-9.83E-14,-0.001303207,0.001303207,-0.001303207,0.001303207,-0.001303207,0.001303207,-0.001303207,0.001303207,-0.001263754,0.001263754,-0.001263754,0.001263754,0.733277764,0.360064876,1368840,32768,0.005337832,0.005337832,0.005337832,40.96632943,40.96841378,0.000242931,0.000242931,0.000242931,623032.9457,0.016142508
8035200,0.90424565,0.015412492,0.005137497,0.005137497,0.005137497,-0.001293013,0.001293013,6.38E-12,-6.75E-12,-2.36E-14,-3.29E-13,-0.001312087,0.001312087,-0.001312087,0.001312087,-0.001312087,0.001312087,-0.001312087,0.001312087,-0.001271846,0.001271846,-0.001271846,0.001271846,-5.25E-13,-1.95E-13,1.28E-13,2.92E-13,-0.001293013,0.001293013,-0.001312087,0.001312087,-0.001312087,0.001312087,-0.001312087,0.001312087,-0.001312087,0.001312087,-0.001271846,0.001271846,-0.001271846,0.001271846,-0.001271846,0.001271846,-0.001271846,0.001271846,-6.80E-12,6.82E-12,-0.001293013,0.001293013,7.82E-14,-8.98E-14,-0.001312087,0.001312087,-0.001312087,0.001312087,-0.001312087,0.001312087,-0.001312087,0.001312087,-0.001271846,0.001271846,-0.001271846,0.001271846,0.732026324,0.358289156,1368840,32768,0.005373065,0.005373065,0.005373065,40.99633123,40.99841582,0.000243171,0.000243171,0.000243171,618386.9959,0.016249923
8121600,0.910482939,0.015511965,0.005170655,0.005170655,0.005170655,-0.001301078,0.001301078,6.37E-12,-6.76E-12,-6.34E-15,-3.69E-13,-0.001320511,0.001320511,-0.001320511,0.001320511,-0.001320511,0.001320511,-0.001320511,0.001320511,-0.001279522,0.001279522,-0.001279522,0.001279522,-5.27E-13,-1.39E-13,1.57E-13,3.10E-13,-0.001301078,0.001301078,-0.001320511,0.001320511,-0.001320511,0.001320511,-0.001320511,0.001320511,-0.001320511,0.001320511,-0.001279522,0.001279522,-0.001279522,0.001279522,-0.001279522,0.001279522,-0.001279522,0.001279522,-6.79E-12,6.82E-12,-0.001301078,0.001301078,7.49E-14,-8.18E-14,-0.001320511,0.001320511,-0.001320511,0.001320511,-0.001320511,0.001320511,-0.001320511,0.001320511,-0.001279522,0.001279522,-0.001279522,0.001279522,0.73080589,0.356513437,1368840,32768,0.005406488,0.005406488,0.005406488,41.05957648,41.0638902,0.000243677,0.000243677,0.000243677,613220.3673,0.016351831
8208000,0.916369085,0.01560569,0.005201897,0.005201897,0.005201897,-0.001308764,0.001308764,6.34E-12,-6.74E-12,7.31E-15,-3.94E-13,-0.001328539,0.001328539,-0.001328539,0.001328539,-0.001328539,0.001328539,-0.001328539,0.001328539,-0.001286839,0.001286839,-0.001286839,0.001286839,-5.19E-13,-9.33E-14,1.84E-13,3.39E-13,-0.001308764,0.001308764,-0.001328539,0.001328539,-0.001328539,0.001328539,-0.001328539,0.001328539,-0.001328539,0.001328539,-0.001286839,0.001286839,-0.001286839,0.001286839,-0.001286839,0.001286839,-0.001286839,0.001286839,-6.78E-12,6.80E-12,-0.001308764,0.001308764,7.51E-14,-8.37E-14,-0.001328539,0.001328539,-0.001328539,0.001328539,-0.001328539,0.001328539,-0.001328539,0.001328539,-0.001286839,0.001286839,-0.001286839,0.001286839,0.729609793,0.354737718,1368840,32768,0.005438339,0.005438339,0.005438339,41.16502866,41.17225159,0.00024452,0.00024452,0.00024452,607653.9651,0.016448957
8294400,0.92191951,0.015693986,0.005231329,0.005231329,0.005231329,-0.001316021,0.001316021,6.34E-12,-6.75E-12,1.36E-14,-4.15E-13,-0.001336122,0.001336122,-0.001336122,0.001336122,-0.001336122,0.001336122,-0.001336122,0.001336122,-0.001293747,0.001293747,-0.001293747,0.001293747,-5.12E-13,-5.72E-14,2.15E-13,3.46E-13,-0.001316021,0.001316021,-0.001336122,0.001336122,-0.001336122,0.001336122,-0.001336122,0.001336122,-0.001336122,0.001336122,-0.001293747,0.001293747,-0.001293747,0.001293747,-0.001293747,0.001293747,-0.001293747,0.001293747,-6.77E-12,6.80E-12,-0.001316021,0.001316021,6.79E-14,-6.81E-14,-0.001336122,0.001336122,-0.001336122,0.001336122,-0.001336122,0.001336122,-0.001336122,0.001336122,-0.001293747,0.001293747,-0.001293747,0.001293747,0.728845012,0.359074016,1368840,32768,0.00546841,0.00546841,0.00546841,41.27310893,41.28061299,0.000245385,0.000245385,0.000245385,601709.5967,0.016540661
8380800,0.927148704,0.015777109,0.005259036,0.005259036,0.005259036,-0.001322892,0.001322892,6.32E-12,-6.76E-12,3.04E-14,-4.66E-13,-0.001343287,0.001343287,-0.001343287,0.001343287,-0.001343287,0.001343287,-0.001343287,0.001343287,-0.001300303,0.001300303,-0.001300303,0.001300303,-5.21E-13,-2.52E-17,2.48E-13,3.63E-13,-0.001322892,0.001322892,-0.001343287,0.001343287,-0.001343287,0.001343287,-0.001343287,0.001343287,-0.001343287,0.001343287,-0.001300303,0.001300303,-0.001300303,0.001300303,-0.001300303,0.001300303,-0.001300303,0.001300303,-6.76E-12,6.81E-12,-0.001322892,0.001322892,6.04E-14,-5.94E-14,-0.001343287,0.001343287,-0.001343287,0.001343287,-0.001343287,0.001343287,-0.001343287,0.001343287,-0.001300303,0.001300303,-0.001300303,0.001300303,0.728227488,0.364945931,1368840,32768,0.005496882,0.005496882,0.005496882,41.38143922,41.38897438,0.000246252,0.000246252,0.000246252,594048.7347,0.016627499
8467200,0.93207093,0.015855301,0.0052851,0.0052851,0.0052851,-0.001329377,0.001329377,6.31E-12,-6.76E-12,3.44E-14,-4.79E-13,-0.001350044,0.001350044,-0.001350044,0.001350044,-0.001350044,0.001350044,-0.001350044,0.001350044,-0.001306497,0.001306497,-0.001306497,0.001306497,-5.13E-13,2.62E-14,2.63E-13,3.90E-13,-0.001329377,0.001329377,-0.001350044,0.001350044,-0.001350044,0.001350044,-0.001350044,0.001350044,-0.001350044,0.001350044,-0.001306497,0.001306497,-0.001306497,0.001306497,-0.001306497,0.001306497,-0.001306497,0.001306497,-6.76E-12,6.79E-12,-0.001329377,0.001329377,6.98E-14,-6.08E-14,-0.001350044,0.001350044,-0.001350044,0.001350044,-0.001350044,0.001350044,-0.001350044,0.001350044,-0.001306497,0.001306497,-0.001306497,0.001306497,0.727655868,0.370817845,1368840,32768,0.005523753,0.005523753,0.005523753,41.48979502,41.49733578,0.000247118,0.000247118,0.000247118,585810.3045,0.016709459
8553600,0.936700241,0.015928795,0.005309598,0.005309598,0.005309598,-0.001335487,0.001335487,6.30E-12,-6.76E-12,4.67E-14,-4.98E-13,-0.00135641,0.00135641,-0.00135641,0.00135641,-0.00135641,0.00135641,-0.00135641,0.00135641,-0.001312337,0.001312337,-0.001312337,0.001312337,-5.07E-13,6.36E-14,2.74E-13,4.15E-13,-0.001335487,0.001335487,-0.00135641,0.00135641,-0.00135641,0.00135641,-0.00135641,0.00135641,-0.00135641,0.00135641,-0.001312337,0.001312337,-0.001312337,0.001312337,-0.001312337,0.001312337,-0.001312337,0.001312337,-6.76E-12,6.79E-12,-0.001335487,0.001335487,7.03E-14,-7.47E-14,-0.00135641,0.00135641,-0.00135641,0.00135641,-0.00135641,0.00135641,-0.00135641,0.00135641,-0.001312337,0.001312337,-0.001312337,0.001312337,0.727125447,0.376689759,1368840,32768,0.005549072,0.005549072,0.005549072,41.59815347,41.60569717,0.000247985,0.000247985,0.000247985,577426.7841,0.01678669
8640000,0.941050435,0.015997821,0.005332607,0.005332607,0.005332607,-0.001341241,0.001341241,6.27E-12,-6.74E-12,4.97E-14,-5.08E-13,-0.001362403,0.001362403,-0.001362403,0.001362403,-0.001362403,0.001362403,-0.001362403,0.001362403,-0.001317839,0.001317839,-0.001317839,0.001317839,-4.98E-13,8.53E-14,2.82E-13,4.39E-13,-0.001341241,0.001341241,-0.001362403,0.001362403,-0.001362403,0.001362403,-0.001362403,0.001362403,-0.001362403,0.001362403,-0.001317839,0.001317839,-0.001317839,0.001317839,-0.001317839,0.001317839,-0.001317839,0.001317839,-6.74E-12,6.77E-12,-0.001341241,0.001341241,7.52E-14,-8.50E-14,-0.001362403,0.001362403,-0.001362403,0.001362403,-0.001362403,0.001362403,-0.001362403,0.001362403,-0.001317839,0.001317839,-0.001317839,0.001317839,0.726632638,0.382561673,1368840,32768,0.005572912,0.005572912,0.005572912,41.70651221,41.71405857,0.000248852,0.000248852,0.000248852,568976.1151,0.016859418
8726400,0.945135015,0.0160626,0.0053542,0.0053542,0.0053542,-0.001346656,0.001346656,6.24E-12,-6.73E-12,6.17E-14,-5.32E-13,-0.001368041,0.001368041,-0.001368041,0.001368041,-0.001368041,0.001368041,-0.001368041,0.001368041,-0.001323021,0.001323021,-0.001323021,0.001323021,-5.01E-13,1.19E-13,3.08E-13,4.50E-13,-0.001346656,0.001346656,-0.001368041,0.001368041,-0.001368041,0.001368041,-0.001368041,0.001368041,-0.001368041,0.001368041,-0.001323021,0.001323021,-0.001323021,0.001323021,-0.001323021,0.001323021,-0.001323021,0.001323021,-6.71E-12,6.75E-12,-0.001346656,0.001346656,7.44E-14,-7.19E-14,-0.001368041,0.001368041,-0.001368041,0.001368041,-0.001368041,0.001368041,-0.001368041,0.001368041,-0.001323021,0.001323021,-0.001323021,0.001323021,0.726174628,0.388433588,1368840,32768,0.005595348,0.005595348,0.005595348,41.81487099,41.82241997,0.000249719,0.000249719,0.000249719,560524.9458,0.016927866
8812800,0.948967157,0.016122833,0.005374278,0.005374278,0.005374278,-0.001351703,0.001351703,6.20E-12,-6.77E-12,5.08E-14,-5.90E-13,-0.00137331,0.00137331,-0.00137331,0.00137331,-0.00137331,0.00137331,-0.00137331,0.00137331,-0.001327827,0.001327827,-0.001327827,0.001327827,-5.04E-13,1.63E-13,3.26E-13,4.97E-13,-0.001351703,0.001351703,-0.00137331,0.00137331,-0.00137331,0.00137331,-0.00137331,0.00137331,-0.00137331,0.00137331,-0.001327827,0.001327827,-0.001327827,0.001327827,-0.001327827,0.001327827,-0.001327827,0.001327827,-6.74E-12,6.71E-12,-0.001351703,0.001351703,9.51E-14,-7.97E-14,-0.00137331,0.00137331,-0.00137331,0.00137331,-0.00137331,0.00137331,-0.00137331,0.00137331,-0.001327827,0.001327827,-0.001327827,0.001327827,0.719619288,0.303444395,1368840,32768,0.00561626,0.00561626,0.00561626,41.92322966,41.93078136,0.000250586,0.000250586,0.000250586,553250.6936,0.01699167
8899200,0.952540338,0.016178785,0.005392928,0.005392928,0.005392928,-0.001355755,0.001355755,6.21E-12,-6.73E-12,8.00E-14,-5.85E-13,-0.00137781,0.00137781,-0.00137781,0.00137781,-0.00137781,0.00137781,-0.00137781,0.00137781,-0.001331432,0.001331432,-0.001331432,0.001331432,-4.89E-13,2.03E-13,3.39E-13,5.12E-13,-0.001355755,0.001355755,-0.00137781,0.00137781,-0.00137781,0.00137781,-0.00137781,0.00137781,-0.00137781,0.00137781,-0.001331432,0.001331432,-0.001331432,0.001331432,-0.001331432,0.001331432,-0.001331432,0.001331432,-6.71E-12,6.72E-12,-0.001355755,0.001355755,8.42E-14,-9.24E-14,-0.00137781,0.00137781,-0.00137781,0.00137781,-0.00137781,0.00137781,-0.00137781,0.00137781,-0.001331432,0.001331432,-0.001331432,0.001331432,0.716806181,0.279582624,1368840,32768,0.005633048,0.005633048,0.005633048,41.92566026,41.92609128,0.000250605,0.000250605,0.000250605,565495.3462,0.017042895
8985600,0.955849934,0.016230677,0.005410226,0.005410226,0.005410226,-0.001359527,0.001359527,6.21E-12,-6.73E-12,7.73E-14,-5.75E-13,-0.001381866,0.001381866,-0.001381866,0.001381866,-0.001381866,0.001381866,-0.001381866,0.001381866,-0.001334915,0.001334915,-0.001334915,0.001334915,-1.02E-12,-3.47E-13,-2.13E-13,-2.62E-14,-0.001359527,0.001359527,-0.001381866,0.001381866,-0.001381866,0.001381866,-0.001381866,0.001381866,-0.001381866,0.001381866,-0.001334915,0.001334915,-0.001334915,0.001334915,-0.001334915,0.001334915,-0.001334915,0.001334915,-6.70E-12,6.72E-12,-0.001359527,0.001359527,8.40E-14,-1.07E-13,-0.001381866,0.001381866,-0.001381866,0.001381866,-0.001381866,0.001381866,-0.001381866,0.001381866,-0.001334915,0.001334915,-0.001334915,0.001334915,0.717841385,0.313729103,1368840,32768,0.005648674,0.005648674,0.005648674,41.80424852,41.79610964,0.000249634,0.000249634,0.000249634,565118.2478,0.017090576
9072000,0.958914607,0.016278663,0.005426221,0.005426221,0.005426221,-0.001363273,0.001363273,6.21E-12,-6.73E-12,7.27E-14,-5.96E-13,-0.001385727,0.001385727,-0.001385727,0.001385727,-0.001385727,0.001385727,-0.001385727,0.001385727,-0.001338531,0.001338531,-0.001338531,0.001338531,-8.39E-13,-1.49E-13,-2.16E-14,1.45E-13,-0.001363273,0.001363273,-0.001385727,0.001385727,-0.001385727,0.001385727,-0.001385727,0.001385727,-0.001385727,0.001385727,-0.001338531,0.001338531,-0.001338531,0.001338531,-0.001338531,0.001338531,-0.001338531,0.001338531,-6.71E-12,6.73E-12,-0.001363273,0.001363273,8.42E-14,-8.68E-14,-0.001385727,0.001385727,-0.001385727,0.001385727,-0.001385727,0.001385727,-0.001385727,0.001385727,-0.001338531,0.001338531,-0.001338531,0.001338531,0.71683842,0.31420981,1368840,32768,0.005664195,0.005664195,0.005664195,41.67508679,41.66612801,0.000248601,0.000248601,0.000248601,552288.2792,0.017137939
9158400,0.961752921,0.016323032,0.005441011,0.005441011,0.005441011,-0.001366558,0.001366558,6.20E-12,-6.71E-12,7.47E-14,-5.87E-13,-0.001389198,0.001389198,-0.001389198,0.001389198,-0.001389198,0.001389198,-0.001389198,0.001389198,-0.00134162,0.00134162,-0.00134162,0.00134162,-8.34E-13,-1.51E-13,-2.72E-14,1.61E-13,-0.001366558,0.001366558,-0.001389198,0.001389198,-0.001389198,0.001389198,-0.001389198,0.001389198,-0.001389198,0.001389198,-0.00134162,0.00134162,-0.00134162,0.00134162,-0.00134162,0.00134162,-0.00134162,0.00134162,-6.69E-12,6.71E-12,-0.001366558,0.001366558,8.49E-14,-1.07E-13,-0.001389198,0.001389198,-0.001389198,0.001389198,-0.001389198,0.001389198,-0.001389198,0.001389198,-0.00134162,0.00134162,-0.00134162,0.00134162,0.715540366,0.309772469,1368840,32768,0.005677802,0.005677802,0.005677802,41.54518586,41.53614638,0.000247561,0.000247561,0.000247561,546752.4852,0.017179462
9244800,0.96438215,0.016364063,0.005454688,0.005454688,0.005454688,-0.001369549,0.001369549,6.20E-12,-6.71E-12,6.86E-14,-5.69E-13,-0.001392378,0.001392378,-0.001392378,0.001392378,-0.001392378,0.001392378,-0.001392378,0.001392378,-0.001344417,0.001344417,-0.001344417,0.001344417,-8.31E-13,-1.71E-13,-3.19E-14,1.52E-13,-0.001369549,0.001369549,-0.001392378,0.001392378,-0.001392378,0.001392378,-0.001392378,0.001392378,-0.001392378,0.001392378,-0.001344417,0.001344417,-0.001344417,0.001344417,-0.001344417,0.001344417,-0.001344417,0.001344417,-6.69E-12,6.71E-12,-0.001369549,0.001369549,8.28E-14,-1.05E-13,-0.001392378,0.001392378,-0.001392378,0.001392378,-0.001392378,0.001392378,-0.001392378,0.001392378,-0.001344417,0.001344417,-0.001344417,0.001344417,0.714249666,0.305335127,1368840,32768,0.005690195,0.005690195,0.005690195,41.41520942,41.40616474,0.000246522,0.000246522,0.000246522,542438.8359,0.017217283
9331200,0.966818265,0.016402013,0.005467338,0.005467338,0.005467338,-0.001372293,0.001372293,6.19E-12,-6.70E-12,6.42E-14,-5.60E-13,-0.0013953,0.0013953,-0.0013953,0.0013953,-0.0013953,0.0013953,-0.0013953,0.0013953,-0.001346979,0.001346979,-0.001346979,0.001346979,-8.30E-13,-1.84E-13,-1.63E-14,1.28E-13,-0.001372293,0.001372293,-0.0013953,0.0013953,-0.0013953,0.0013953,-0.0013953,0.0013953,-0.0013953,0.0013953,-0.001346979,0.001346979,-0.001346979,0.001346979,-0.001346979,0.001346979,-0.001346979,0.001346979,-6.67E-12,6.70E-12,-0.001372293,0.001372293,7.40E-14,-7.45E-14,-0.0013953,0.0013953,-0.0013953,0.0013953,-0.0013953,0.0013953,-0.0013953,0.0013953,-0.001346979,0.001346979,-0.001346979,0.001346979,0.712965982,0.300897786,1368840,32768,0.005701564,0.005701564,0.005701564,41.28522515,41.27618311,0.000245482,0.000245482,0.000245482,538344.3513,0.017251981
9417600,0.969076018,0.016437124,0.005479041,0.005479041,0.005479041,-0.00137481,0.00137481,6.21E-12,-6.71E-12,5.80E-14,-5.39E-13,-0.001397985,0.001397985,-0.001397985,0.001397985,-0.001397985,0.001397985,-0.001397985,0.001397985,-0.001349323,0.001349323,-0.001349323,0.001349323,-8.16E-13,-1.97E-13,-1.82E-14,1.22E-13,-0.00137481,0.00137481,-0.001397985,0.001397985,-0.001397985,0.001397985,-0.001397985,0.001397985,-0.001397985,0.001397985,-0.001349323,0.001349323,-0.001349323,0.001349323,-0.001349323,0.001349323,-0.001349323,0.001349323,-6.69E-12,6.71E-12,-0.00137481,0.00137481,7.35E-14,-7.13E-14,-0.001397985,0.001397985,-0.001397985,0.001397985,-0.001397985,0.001397985,-0.001397985,0.001397985,-0.001349323,0.001349323,-0.001349323,0.001349323,0.711688895,0.296460445,1368840,32768,0.00571199,0.00571199,0.00571199,41.15524006,41.14620148,0.000244442,0.000244442,0.000244442,534468.2992,0.0172838
9504000,0.971169028,0.016469617,0.005489872,0.005489872,0.005489872,-0.001377117,0.001377117,6.23E-12,-6.71E-12,4.38E-14,-5.14E-13,-0.00140045,0.00140045,-0.00140045,0.00140045,-0.00140045,0.00140045,-0.00140045,0.00140045,-0.001351468,0.001351468,-0.001351468,0.001351468,-8.07E-13,-2.27E-13,-1.94E-14,1.09E-13,-0.001377117,0.001377117,-0.00140045,0.00140045,-0.00140045,0.00140045,-0.00140045,0.00140045,-0.00140045,0.00140045,-0.001351468,0.001351468,-0.001351468,0.001351468,-0.001351468,0.001351468,-0.001351468,0.001351468,-6.69E-12,6.73E-12,-0.001377117,0.001377117,6.92E-14,-6.37E-14,-0.00140045,0.00140045,-0.00140045,0.00140045,-0.00140045,0.00140045,-0.00140045,0.00140045,-0.001351468,0.001351468,-0.001351468,0.001351468,0.710417967,0.292023103,1368840,32768,0.005721545,0.005721545,0.005721545,41.02525487,41.01621984,0.000243402,0.000243402,0.000243402,530807.9552,0.017312964
9590400,0.973109862,0.016499696,0.005499899,0.005499899,0.005499899,-0.001379229,0.001379229,6.23E-12,-6.72E-12,4.76E-14,-5.22E-13,-0.001402713,0.001402713,-0.001402713,0.001402713,-0.001402713,0.001402713,-0.001402713,0.001402713,-0.001353428,0.001353428,-0.001353428,0.001353428,-8.16E-13,-2.24E-13,-1.79E-14,1.18E-13,-0.001379229,0.001379229,-0.001402713,0.001402713,-0.001402713,0.001402713,-0.001402713,0.001402713,-0.001402713,0.001402713,-0.001353428,0.001353428,-0.001353428,0.001353428,-0.001353428,0.001353428,-0.001353428,0.001353428,-6.70E-12,6.73E-12,-0.001379229,0.001379229,7.32E-14,-6.67E-14,-0.001402713,0.001402713,-0.001402713,0.001402713,-0.001402713,0.001402713,-0.001402713,0.001402713,-0.001353428,0.001353428,-0.001353428,0.001353428,0.709152763,0.287585762,1368840,32768,0.005730298,0.005730298,0.005730298,40.89526968,40.88623821,0.000242362,0.000242362,0.000242362,527359.045,0.017339679
9676800,0.974902622,0.016527433,0.005509144,0.005509144,0.005509144,-0.001380997,0.001380997,6.27E-12,-6.65E-12,8.82E-14,-5.47E-13,-0.001404617,0.001404617,-0.001404617,0.001404617,-0.001404617,0.001404617,-0.001404617,0.001404617,-0.001355055,0.001355055,-0.001355055,0.001355055,-8.14E-13,-1.61E-13,8.55E-15,1.19E-13,-0.001380997,0.001380997,-0.001404617,0.001404617,-0.001404617,0.001404617,-0.001404617,0.001404617,-0.001404617,0.001404617,-0.001355055,0.001355055,-0.001355055,0.001355055,-0.001355055,0.001355055,-0.001355055,0.001355055,-6.65E-12,6.77E-12,-0.001380997,0.001380997,1.09E-13,-1.32E-14,-0.001404617,0.001404617,-0.001404617,0.001404617,-0.001404617,0.001404617,-0.001404617,0.001404617,-0.001355055,0.001355055,-0.001355055,0.001355055,0.707896582,0.283148421,1368840,32768,0.00573762,0.00573762,0.00573762,40.68408916,40.66962474,0.000240673,0.000240673,0.000240673,524058.7768,0.01736203
9763200,0.976552134,0.016552973,0.005517658,0.005517658,0.005517658,-0.001382421,0.001382421,6.20E-12,-6.74E-12,6.67E-14,-5.71E-13,-0.001406183,0.001406183,-0.001406183,0.001406183,-0.001406183,0.001406183,-0.001406183,0.001406183,-0.001356342,0.001356342,-0.001356342,0.001356342,-8.24E-13,-1.64E-13,-4.98E-14,1.44E-13,-0.001382421,0.001382421,-0.001406183,0.001406183,-0.001406183,0.001406183,-0.001406183,0.001406183,-0.001406183,0.001406183,-0.001356342,0.001356342,-0.001356342,0.001356342,-0.001356342,0.001356342,-0.001356342,0.001356342,-6.71E-12,6.72E-12,-0.001382421,0.001382421,8.23E-14,-1.14E-13,-0.001406183,0.001406183,-0.001406183,0.001406183,-0.001406183,0.001406183,-0.001406183,0.001406183,-0.001356342,0.001356342,-0.001356342,0.001356342,0.708396187,0.305150939,1368840,32768,0.00574352,0.00574352,0.00574352,40.38545895,40.36496705,0.000238284,0.000238284,0.000238284,521141.0166,0.017380039
9849600,0.978070762,0.016576504,0.005525501,0.005525501,0.005525501,-0.00138382,0.00138382,6.24E-12,-6.73E-12,6.99E-14,-5.23E-13,-0.001407629,0.001407629,-0.001407629,0.001407629,-0.001407629,0.001407629,-0.001407629,0.001407629,-0.001357689,0.001357689,-0.001357689,0.001357689,-8.26E-13,-2.11E-13,-4.02E-14,1.58E-13,-0.00138382,0.00138382,-0.001407629,0.001407629,-0.001407629,0.001407629,-0.001407629,0.001407629,-0.001407629,0.001407629,-0.001357689,0.001357689,-0.001357689,0.001357689,-0.001357689,0.001357689,-0.001357689,0.001357689,-6.73E-12,6.72E-12,-0.00138382,0.00138382,8.89E-14,-1.14E-13,-0.001407629,0.001407629,-0.001407629,0.001407629,-0.001407629,0.001407629,-0.001407629,0.001407629,-0.001357689,0.001357689,-0.001357689,0.001357689,0.708887425,0.325147771,1368840,32768,0.005749317,0.005749317,0.005749317,40.08136017,40.06030937,0.000235851,0.000235851,0.000235851,512919.9661,0.017397732
9936000,0.979470123,0.016598197,0.005532732,0.005532732,0.005532732,-0.001385062,0.001385062,6.24E-12,-6.74E-12,6.12E-14,-5.58E-13,-0.001408915,0.001408915,-0.001408915,0.001408915,-0.001408915,0.001408915,-0.001408915,0.001408915,-0.001358884,0.001358884,-0.001358884,0.001358884,-8.16E-13,-1.75E-13,-4.43E-14,1.75E-13,-0.001385062,0.001385062,-0.001408915,0.001408915,-0.001408915,0.001408915,-0.001408915,0.001408915,-0.001408915,0.001408915,-0.001358884,0.001358884,-0.001358884,0.001358884,-0.001358884,0.001358884,-0.001358884,0.001358884,-6.73E-12,6.73E-12,-0.001385062,0.001385062,9.30E-14,-1.30E-13,-0.001408915,0.001408915,-0.001408915,0.001408915,-0.001408915,0.001408915,-0.001408915,0.001408915,-0.001358884,0.001358884,-0.001358884,0.001358884,0.709143855,0.339963928,1368840,32768,0.005754459,0.005754459,0.005754459,39.7767414,39.75565169,0.000233414,0.000233414,0.000233414,505273.2933,0.01741343
10022400,0.980760749,0.016618217,0.005539406,0.005539406,0.005539406,-0.001386143,0.001386143,6.39E-12,-6.59E-12,8.53E-14,-4.53E-13,-0.001410043,0.001410043,-0.001410043,0.001410043,-0.001410043,0.001410043,-0.001410043,0.001410043,-0.001359914,0.001359914,-0.001359914,0.001359914,-1.01E-12,-4.57E-13,-2.66E-13,5.42E-15,-0.001386143,0.001386143,-0.001410043,0.001410043,-0.001410043,0.001410043,-0.001410043,0.001410043,-0.001410043,0.001410043,-0.001359914,0.001359914,-0.001359914,0.001359914,-0.001359914,0.001359914,-0.001359914,0.001359914,-6.87E-12,6.60E-12,-0.001386143,0.001386143,-2.68E-14,-3.00E-13,-0.001410043,0.001410043,-0.001410043,0.001410043,-0.001410043,0.001410043,-0.001410043,0.001410043,-0.001359914,0.001359914,-0.001359914,0.001359914,0.709471603,0.354780085,1368840,32768,0.005758936,0.005758936,0.005758936,39.47206971,39.45099401,0.000230977,0.000230977,0.000230977,498734.4833,0.017427094
10108800,0.981952165,0.016636709,0.00554557,0.00554557,0.00554557,-0.001387102,0.001387102,6.20E-12,-6.73E-12,-1.12E-13,-5.76E-13,-0.001411044,0.001411044,-0.001411044,0.001411044,-0.001411044,0.001411044,-0.001411044,0.001411044,-0.00136083,0.00136083,-0.00136083,0.00136083,-9.23E-13,-4.39E-13,-7.12E-14,1.33E-13,-0.001387102,0.001387102,-0.001411044,0.001411044,-0.001411044,0.001411044,-0.001411044,0.001411044,-0.001411044,0.001411044,-0.00136083,0.00136083,-0.00136083,0.00136083,-0.00136083,0.00136083,-0.00136083,0.00136083,-6.52E-12,6.89E-12,-0.001387102,0.001387102,2.52E-13,3.15E-14,-0.001411044,0.001411044,-0.001411044,0.001411044,-0.001411044,0.001411044,-0.001411044,0.001411044,-0.00136083,0.00136083,-0.00136083,0.00136083,0.709865255,0.369596242,1368840,32768,0.00576291,0.00576291,0.00576291,39.16739253,39.14633632,0.000228539,0.000228539,0.000228539,492404.4784,0.017439225
10195200,0.983052989,0.016653808,0.005551269,0.005551269,0.005551269,-0.00138795,0.00138795,6.10E-12,-6.75E-12,-7.75E-14,-5.49E-13,-0.001411928,0.001411928,-0.001411928,0.001411928,-0.001411928,0.001411928,-0.001411928,0.001411928,-0.001361642,0.001361642,-0.001361642,0.001361642,-9.45E-13,-4.55E-13,-1.66E-13,1.28E-13,-0.00138795,0.00138795,-0.001411928,0.001411928,-0.001411928,0.001411928,-0.001411928,0.001411928,-0.001411928,0.001411928,-0.001361642,0.001361642,-0.001361642,0.001361642,-0.001361642,0.001361642,-0.001361642,0.001361642,-6.35E-12,6.98E-12,-0.00138795,0.00138795,3.10E-13,7.42E-15,-0.001411928,0.001411928,-0.001411928,0.001411928,-0.001411928,0.001411928,-0.001411928,0.001411928,-0.001361642,0.001361642,-0.001361642,0.001361642,0.710320176,0.384412399,1368840,32768,0.005766424,0.005766424,0.005766424,38.86271478,38.84167864,0.000226102,0.000226102,0.000226102,486247.9279,0.017449952
10281600,0.984071019,0.016669633,0.005556544,0.005556544,0.005556544,-0.001388697,0.001388697,6.31E-12,-6.67E-12,7.90E-14,-3.26E-13,-0.001412704,0.001412704,-0.001412704,0.001412704,-0.001412704,0.001412704,-0.001412704,0.001412704,-0.001362359,0.001362359,-0.001362359,0.001362359,-5.65E-13,-1.28E-13,1.09E-13,3.43E-13,-0.001388697,0.001388697,-0.001412704,0.001412704,-0.001412704,0.001412704,-0.001412704,0.001412704,-0.001412704,0.001412704,-0.001362359,0.001362359,-0.001362359,0.001362359,-0.001362359,0.001362359,-0.001362359,0.001362359,-6.48E-12,6.99E-12,-0.001388697,0.001388697,3.81E-13,1.41E-13,-0.001412704,0.001412704,-0.001412704,0.001412704,-0.001412704,0.001412704,-0.001412704,0.001412704,-0.001362359,0.001362359,-0.001362359,0.001362359,0.710832344,0.399228556,1368840,32768,0.005769517,0.005769517,0.005769517,38.55803695,38.53702096,0.000223664,0.000223664,0.000223664,480257.4721,0.017459394
10368000,0.985013321,0.016684294,0.005561431,0.005561431,0.005561431,-0.001389351,0.001389351,6.13E-12,-6.84E-12,-3.02E-14,-4.51E-13,-0.001413381,0.001413381,-0.001413381,0.001413381,-0.001413381,0.001413381,-0.001413381,0.001413381,-0.001362989,0.001362989,-0.001362989,0.001362989,-6.23E-13,-1.66E-13,-4.24E-14,2.31E-13,-0.001389351,0.001389351,-0.001413381,0.001413381,-0.001413381,0.001413381,-0.001413381,0.001413381,-0.001413381,0.001413381,-0.001362989,0.001362989,-0.001362989,0.001362989,-0.001362989,0.001362989,-0.001362989,0.001362989,-6.69E-12,6.77E-12,-0.001389351,0.001389351,1.86E-13,-9.95E-14,-0.001413381,0.001413381,-0.001413381,0.001413381,-0.001413381,0.001413381,-0.001413381,0.001413381,-0.001362989,0.001362989,-0.001362989,0.001362989,0.711398239,0.414044714,1368840,32768,0.005772225,0.005772225,0.005772225,38.25335911,38.23236328,0.000221227,0.000221227,0.000221227,474428.6342,0.01746766
10454400,0.985892583,0.016697987,0.005565996,0.005565996,0.005565996,-0.00139019,0.00139019,6.27E-12,-6.73E-12,1.37E-14,-4.46E-13,-0.001414237,0.001414237,-0.001414237,0.001414237,-0.001414237,0.001414237,-0.001414237,0.001414237,-0.001363812,0.001363812,-0.001363812,0.001363812,-7.53E-13,-2.71E-13,-1.24E-13,2.14E-13,-0.00139019,0.00139019,-0.001414237,0.001414237,-0.001414237,0.001414237,-0.001414237,0.001414237,-0.001414237,0.001414237,-0.001363812,0.001363812,-0.001363812,0.001363812,-0.001363812,0.001363812,-0.001363812,0.001363812,-6.77E-12,6.71E-12,-0.00139019,0.00139019,1.36E-13,-2.05E-13,-0.001414237,0.001414237,-0.001414237,0.001414237,-0.001414237,0.001414237,-0.001414237,0.001414237,-0.001363812,0.001363812,-0.001363812,0.001363812,0.712012737,0.428860871,1368840,32768,0.005775703,0.005775703,0.005775703,38.08496592,38.07303888,0.00021988,0.00021988,0.00021988,468647.8748,0.017478279
10540800,0.986719271,0.016710809,0.00557027,0.00557027,0.00557027,-0.001391221,0.001391221,6.28E-12,-6.72E-12,1.19E-14,-4.29E-13,-0.00141528,0.00141528,-0.00141528,0.00141528,-0.00141528,0.00141528,-0.00141528,0.00141528,-0.001364827,0.001364827,-0.001364827,0.001364827,-7.57E-13,-2.94E-13,-1.35E-13,1.96E-13,-0.001391221,0.001391221,-0.00141528,0.00141528,-0.00141528,0.00141528,-0.00141528,0.00141528,-0.00141528,0.00141528,-0.001364827,0.001364827,-0.001364827,0.001364827,-0.001364827,0.001364827,-0.001364827,0.001364827,-6.77E-12,6.72E-12,-0.001391221,0.001391221,1.32E-13,-2.03E-13,-0.00141528,0.00141528,-0.00141528,0.00141528,-0.00141528,0.00141528,-0.00141528,0.00141528,-0.001364827,0.001364827,-0.001364827,0.001364827,0.709130791,0.388226286,1368840,32768,0.005779973,0.005779973,0.005779973,38.05179732,38.04916887,0.000219614,0.000219614,0.000219614,463085.6639,0.017491312
10627200,0.987496904,0.016722853,0.005574284,0.005574284,0.005574284,-0.001391932,0.001391932,6.28E-12,-6.72E-12,4.60E-15,-4.31E-13,-0.001416143,0.001416143,-0.001416143,0.001416143,-0.001416143,0.001416143,-0.001416143,0.001416143,-0.001365397,0.001365397,-0.001365397,0.001365397,-7.66E-13,-3.08E-13,-1.36E-13,1.90E-13,-0.001391932,0.001391932,-0.001416143,0.001416143,-0.001416143,0.001416143,-0.001416143,0.001416143,-0.001416143,0.001416143,-0.001365397,0.001365397,-0.001365397,0.001365397,-0.001365397,0.001365397,-0.001365397,0.001365397,-6.76E-12,6.73E-12,-0.001391932,0.001391932,1.32E-13,-1.98E-13,-0.001416143,0.001416143,-0.001416143,0.001416143,-0.001416143,0.001416143,-0.001416143,0.001416143,-0.001365397,0.001365397,-0.001365397,0.001365397,0.7080556,0.378980766,1368840,32768,0.00578292,0.00578292,0.00578292,38.02704246,38.02529885,0.000219416,0.000219416,0.000219416,466679.3379,0.01750031
10713600,0.988228437,0.016734159,0.005578053,0.005578053,0.005578053,-0.001392737,0.001392737,6.28E-12,-6.73E-12,5.61E-15,-4.35E-13,-0.001417021,0.001417021,-0.001417021,0.001417021,-0.001417021,0.001417021,-0.001417021,0.001417021,-0.001366132,0.001366132,-0.001366132,0.001366132,-7.67E-13,-3.04E-13,-1.33E-13,1.89E-13,-0.001392737,0.001392737,-0.001417021,0.001417021,-0.001417021,0.001417021,-0.001417021,0.001417021,-0.001417021,0.001417021,-0.001366132,0.001366132,-0.001366132,0.001366132,-0.001366132,0.001366132,-0.001366132,0.001366132,-6.76E-12,6.73E-12,-0.001392737,0.001392737,1.31E-13,-1.95E-13,-0.001417021,0.001417021,-0.001417021,0.001417021,-0.001417021,0.001417021,-0.001417021,0.001417021,-0.001366132,0.001366132,-0.001366132,0.001366132,0.706576825,0.364165726,1368840,32768,0.005786252,0.005786252,0.005786252,38.00308269,38.00142884,0.000219225,0.000219225,0.000219225,465494.614,0.017510482
10800000,0.98891662,0.016744771,0.00558159,0.00558159,0.00558159,-0.001393456,0.001393456,6.29E-12,-6.73E-12,2.15E-15,-4.29E-13,-0.001417827,0.001417827,-0.001417827,0.001417827,-0.001417827,0.001417827,-0.001417827,0.001417827,-0.001366769,0.001366769,-0.001366769,0.001366769,-7.64E-13,-3.11E-13,-1.31E-13,1.82E-13,-0.001393456,0.001393456,-0.001417827,0.001417827,-0.001417827,0.001417827,-0.001417827,0.001417827,-0.001417827,0.001417827,-0.001366769,0.001366769,-0.001366769,0.001366769,-0.001366769,0.001366769,-0.001366769,0.001366769,-6.76E-12,6.74E-12,-0.001393456,0.001393456,1.27E-13,-1.89E-13,-0.001417827,0.001417827,-0.001417827,0.001417827,-0.001417827,0.001417827,-0.001417827,0.001417827,-0.001366769,0.001366769,-0.001366769,0.001366769,0.705032469,0.349350685,1368840,32768,0.005789231,0.005789231,0.005789231,37.97920334,37.97755882,0.000219034,0.000219034,0.000219034,465399.5728,0.017519577
10886400,0.989564035,0.016754733,0.005584911,0.005584911,0.005584911,-0.001394121,0.001394121,6.29E-12,-6.73E-12,-2.58E-15,-4.18E-13,-0.001418578,0.001418578,-0.001418578,0.001418578,-0.001418578,0.001418578,-0.001418578,0.001418578,-0.001367353,0.001367353,-0.001367353,0.001367353,-7.59E-13,-3.22E-13,-1.31E-13,1.75E-13,-0.001394121,0.001394121,-0.001418578,0.001418578,-0.001418578,0.001418578,-0.001418578,0.001418578,-0.001418578,0.001418578,-0.001367353,0.001367353,-0.001367353,0.001367353,-0.001367353,0.001367353,-0.001367353,0.001367353,-6.76E-12,6.74E-12,-0.001394121,0.001394121,1.26E-13,-1.84E-13,-0.001418578,0.001418578,-0.001418578,0.001418578,-0.001418578,0.001418578,-0.001418578,0.001418578,-0.001367353,0.001367353,-0.001367353,0.001367353,0.703428886,0.334535645,1368840,32768,0.005791985,0.005791985,0.005791985,37.95533226,37.95368881,0.000218843,0.000218843,0.000218843,465489.5745,0.017527982
10972800,0.990173114,0.016764082,0.005588027,0.005588027,0.005588027,-0.001394734,0.001394734,6.29E-12,-6.72E-12,-5.11E-15,-4.13E-13,-0.001419277,0.001419277,-0.001419277,0.001419277,-0.001419277,0.001419277,-0.001419277,0.001419277,-0.001367886,0.001367886,-0.001367886,0.001367886,-7.58E-13,-3.27E-13,-1.31E-13,1.72E-13,-0.001394734,0.001394734,-0.001419277,0.001419277,-0.001419277,0.001419277,-0.001419277,0.001419277,-0.001419277,0.001419277,-0.001367886,0.001367886,-0.001367886,0.001367886,-0.001367886,0.001367886,-0.001367886,0.001367886,-6.76E-12,6.74E-12,-0.001394734,0.001394734,1.25E-13,-1.82E-13,-0.001419277,0.001419277,-0.001419277,0.001419277,-0.001419277,0.001419277,-0.001419277,0.001419277,-0.001367886,0.001367886,-0.001367886,0.001367886,0.701771336,0.319720604,1368840,32768,0.005794526,0.005794526,0.005794526,37.93146204,37.92981879,0.000218652,0.000218652,0.000218652,465755.472,0.017535739
11059200,0.990746144,0.016772856,0.005590952,0.005590952,0.005590952,-0.001395299,0.001395299,6.30E-12,-6.72E-12,-7.41E-15,-4.08E-13,-0.001419927,0.001419927,-0.001419927,0.001419927,-0.001419927,0.001419927,-0.001419927,0.001419927,-0.001368372,0.001368372,-0.001368372,0.001368372,-7.56E-13,-3.34E-13,-1.29E-13,1.67E-13,-0.001395299,0.001395299,-0.001419927,0.001419927,-0.001419927,0.001419927,-0.001419927,0.001419927,-0.001419927,0.001419927,-0.001368372,0.001368372,-0.001368372,0.001368372,-0.001368372,0.001368372,-0.001368372,0.001368372,-6.76E-12,6.74E-12,-0.001395299,0.001395299,1.22E-13,-1.77E-13,-0.001419927,0.001419927,-0.001419927,0.001419927,-0.001419927,0.001419927,-0.001419927,0.001419927,-0.001368372,0.001368372,-0.001368372,0.001368372,0.700064215,0.304905563,1368840,32768,0.005796866,0.005796866,0.005796866,37.9075919,37.90594878,0.000218461,0.000218461,0.000218461,466189.3811,0.017542886
11145600,0.991285273,0.016781094,0.005593698,0.005593698,0.005593698,-0.001395819,0.001395819,6.30E-12,-6.73E-12,-9.54E-15,-4.07E-13,-0.001420531,0.001420531,-0.001420531,0.001420531,-0.001420531,0.001420531,-0.001420531,0.001420531,-0.001368814,0.001368814,-0.001368814,0.001368814,-7.54E-13,-3.35E-13,-1.28E-13,1.64E-13,-0.001395819,0.001395819,-0.001420531,0.001420531,-0.001420531,0.001420531,-0.001420531,0.001420531,-0.001420531,0.001420531,-0.001368814,0.001368814,-0.001368814,0.001368814,-0.001368814,0.001368814,-0.001368814,0.001368814,-6.77E-12,6.74E-12,-0.001395819,0.001395819,1.21E-13,-1.74E-13,-0.001420531,0.001420531,-0.001420531,0.001420531,-0.001420531,0.001420531,-0.001420531,0.001420531,-0.001368814,0.001368814,-0.001368814,0.001368814,0.698565877,0.293992285,1368840,32768,0.00579902,0.00579902,0.00579902,37.88372177,37.88207876,0.00021827,0.00021827,0.00021827,466779.1087,0.017549461
11232000,0.991791624,0.016788849,0.005596283,0.005596283,0.005596283,-0.001396255,0.001396255,6.30E-12,-6.72E-12,-1.57E-14,-4.02E-13,-0.00142104,0.00142104,-0.00142104,0.00142104,-0.00142104,0.00142104,-0.00142104,0.00142104,-0.001369184,0.001369184,-0.001369184,0.001369184,-7.49E-13,-3.41E-13,-1.22E-13,1.59E-13,-0.001396255,0.001396255,-0.00142104,0.00142104,-0.00142104,0.00142104,-0.00142104,0.00142104,-0.00142104,0.00142104,-0.001369184,0.001369184,-0.001369184,0.001369184,-0.001369184,0.001369184,-0.001369184,0.001369184,-6.77E-12,6.74E-12,-0.001396255,0.001396255,1.16E-13,-1.68E-13,-0.00142104,0.00142104,-0.00142104,0.00142104,-0.00142104,0.00142104,-0.00142104,0.00142104,-0.001369184,0.001369184,-0.001369184,0.001369184,0.700179458,0.331611802,1368840,32768,0.005800825,0.005800825,0.005800825,37.82600746,37.82211725,0.000217808,0.000217808,0.000217808,466793.6178,0.01755497
11318400,0.992266481,0.016796125,0.005598708,0.005598708,0.005598708,-0.001396854,0.001396854,6.30E-12,-6.74E-12,-1.95E-15,-4.24E-13,-0.001421577,0.001421577,-0.001421577,0.001421577,-0.001421577,0.001421577,-0.001421577,0.001421577,-0.00136984,0.00136984,-0.00136984,0.00136984,-7.60E-13,-3.15E-13,-1.23E-13,1.75E-13,-0.001396854,0.001396854,-0.001421577,0.001421577,-0.001421577,0.001421577,-0.001421577,0.001421577,-0.001421577,0.001421577,-0.00136984,0.00136984,-0.00136984,0.00136984,-0.00136984,0.00136984,-0.00136984,0.00136984,-6.77E-12,6.75E-12,-0.001396854,0.001396854,1.22E-13,-1.80E-13,-0.001421577,0.001421577,-0.001421577,0.001421577,-0.001421577,0.001421577,-0.001421577,0.001421577,-0.00136984,0.00136984,-0.00136984,0.00136984,0.700480215,0.34600423,1368840,32768,0.005803307,0.005803307,0.005803307,37.7373368,37.7313153,0.000217099,0.000217099,0.000217099,458530.4128,0.017562548
11404800,0.992711869,0.01680295,0.005600983,0.005600983,0.005600983,-0.00139729,0.00139729,6.30E-12,-6.75E-12,-5.96E-15,-4.38E-13,-0.001422011,0.001422011,-0.001422011,0.001422011,-0.001422011,0.001422011,-0.001422011,0.001422011,-0.001370279,0.001370279,-0.001370279,0.001370279,-7.30E-13,-2.76E-13,-8.85E-14,2.09E-13,-0.00139729,0.00139729,-0.001422011,0.001422011,-0.001422011,0.001422011,-0.001422011,0.001422011,-0.001422011,0.001422011,-0.001370279,0.001370279,-0.001370279,0.001370279,-0.001370279,0.001370279,-0.001370279,0.001370279,-6.77E-12,6.77E-12,-0.00139729,0.00139729,1.36E-13,-1.63E-13,-0.001422011,0.001422011,-0.001422011,0.001422011,-0.001422011,0.001422011,-0.001422011,0.001422011,-0.001370279,0.001370279,-0.001370279,0.001370279,0.700574358,0.356104103,1368840,32768,0.005805115,0.005805115,0.005805115,37.64673597,37.64051336,0.000216374,0.000216374,0.000216374,454240.3746,0.017568067
11491200,0.993129716,0.016809356,0.005603119,0.005603119,0.005603119,-0.001397671,0.001397671,6.28E-12,-6.78E-12,-1.72E-14,-4.45E-13,-0.001422397,0.001422397,-0.001422397,0.001422397,-0.001422397,0.001422397,-0.001422397,0.001422397,-0.001370655,0.001370655,-0.001370655,0.001370655,-6.73E-13,-2.24E-13,-3.05E-14,2.36E-13,-0.001397671,0.001397671,-0.001422397,0.001422397,-0.001422397,0.001422397,-0.001422397,0.001422397,-0.001422397,0.001422397,-0.001370655,0.001370655,-0.001370655,0.001370655,-0.001370655,0.001370655,-0.001370655,0.001370655,-6.85E-12,6.70E-12,-0.001397671,0.001397671,4.20E-14,-2.28E-13,-0.001422397,0.001422397,-0.001422397,0.001422397,-0.001422397,0.001422397,-0.001422397,0.001422397,-0.001370655,0.001370655,-0.001370655,0.001370655,0.700713485,0.366203976,1368840,32768,0.005806692,0.005806692,0.005806692,37.55595276,37.54971141,0.000215648,0.000215648,0.000215648,450694.0254,0.017572881
11577600,0.993521825,0.016815369,0.005605123,0.005605123,0.005605123,-0.001398021,0.001398021,6.26E-12,-6.82E-12,-4.02E-14,-4.81E-13,-0.00142275,0.00142275,-0.00142275,0.00142275,-0.00142275,0.00142275,-0.00142275,0.00142275,-0.001371001,0.001371001,-0.001371001,0.001371001,-6.71E-13,-2.08E-13,-3.79E-15,2.68E-13,-0.001398021,0.001398021,-0.00142275,0.00142275,-0.00142275,0.00142275,-0.00142275,0.00142275,-0.00142275,0.00142275,-0.001371001,0.001371001,-0.001371001,0.001371001,-0.001371001,0.001371001,-0.001371001,0.001371001,-6.78E-12,6.78E-12,-0.001398021,0.001398021,1.27E-13,-1.51E-13,-0.00142275,0.00142275,-0.00142275,0.00142275,-0.00142275,0.00142275,-0.00142275,0.00142275,-0.001371001,0.001371001,-0.001371001,0.001371001,0.70089481,0.376303849,1368840,32768,0.00580814,0.00580814,0.00580814,37.46515112,37.45890946,0.000214921,0.000214921,0.000214921,447210.9423,0.017577302
11664000,0.993889876,0.016821015,0.005607005,0.005607005,0.005607005,-0.001398341,0.001398341,6.30E-12,-6.78E-12,-7.61E-15,-4.72E-13,-0.001423072,0.001423072,-0.001423072,0.001423072,-0.001423072,0.001423072,-0.001423072,0.001423072,-0.00137132,0.00137132,-0.00137132,0.00137132,-7.40E-13,-2.53E-13,-7.22E-14,2.17E-13,-0.001398341,0.001398341,-0.001423072,0.001423072,-0.001423072,0.001423072,-0.001423072,0.001423072,-0.001423072,0.001423072,-0.00137132,0.00137132,-0.00137132,0.00137132,-0.00137132,0.00137132,-0.00137132,0.00137132,-6.77E-12,6.79E-12,-0.001398341,0.001398341,1.21E-13,-1.73E-13,-0.001423072,0.001423072,-0.001423072,0.001423072,-0.001423072,0.001423072,-0.001423072,0.001423072,-0.00137132,0.00137132,-0.00137132,0.00137132,0.701115914,0.386403722,1368840,32768,0.005809467,0.005809467,0.005809467,37.37434758,37.36810751,0.000214195,0.000214195,0.000214195,443783.774,0.017581355
11750400,0.994235434,0.016826318,0.005608773,0.005608773,0.005608773,-0.001398634,0.001398634,6.20E-12,-6.89E-12,-9.66E-14,-5.68E-13,-0.001423365,0.001423365,-0.001423365,0.001423365,-0.001423365,0.001423365,-0.001423365,0.001423365,-0.001371614,0.001371614,-0.001371614,0.001371614,-8.93E-13,-4.00E-13,-1.92E-13,9.04E-14,-0.001398634,0.001398634,-0.001423365,0.001423365,-0.001423365,0.001423365,-0.001423365,0.001423365,-0.001423365,0.001423365,-0.001371614,0.001371614,-0.001371614,0.001371614,-0.001371614,0.001371614,-0.001371614,0.001371614,-6.73E-12,6.85E-12,-0.001398634,0.001398634,1.69E-13,-1.17E-13,-0.001423365,0.001423365,-0.001423365,0.001423365,-0.001423365,0.001423365,-0.001423365,0.001423365,-0.001371614,0.001371614,-0.001371614,0.001371614,0.701374685,0.396503595,1368840,32768,0.005810682,0.005810682,0.005810682,37.28354385,37.27730556,0.000213468,0.000213468,0.000213468,440410.7467,0.017585063
11836800,0.994559955,0.016831304,0.005610435,0.005610435,0.005610435,-0.001398902,0.001398902,6.31E-12,-6.77E-12,-8.19E-15,-4.53E-13,-0.001423631,0.001423631,-0.001423631,0.001423631,-0.001423631,0.001423631,-0.001423631,0.001423631,-0.001371885,0.001371885,-0.001371885,0.001371885,-7.77E-13,-3.10E-13,-9.64E-14,1.52E-13,-0.001398902,0.001398902,-0.001423631,0.001423631,-0.001423631,0.001423631,-0.001423631,0.001423631,-0.001423631,0.001423631,-0.001371885,0.001371885,-0.001371885,0.001371885,-0.001371885,0.001371885,-0.001371885,0.001371885,-6.78E-12,6.79E-12,-0.001398902,0.001398902,1.04E-13,-1.48E-13,-0.001423631,0.001423631,-0.001423631,0.001423631,-0.001423631,0.001423631,-0.001423631,0.001423631,-0.001371885,0.001371885,-0.001371885,0.001371885,0.702157914,0.41440432,1368840,32768,0.005811793,0.005811793,0.005811793,37.19274008,37.18650361,0.000212742,0.000212742,0.000212742,437081.4781,0.017588453
11923200,0.9948648,0.016836001,0.005612,0.005612,0.005612,-0.001399185,0.001399185,6.34E-12,-6.77E-12,1.66E-14,-4.60E-13,-0.001423892,0.001423892,-0.001423892,0.001423892,-0.001423892,0.001423892,-0.001423892,0.001423892,-0.001372189,0.001372189,-0.001372189,0.001372189,-7.81E-13,-2.82E-13,-6.40E-14,1.71E-13,-0.001399185,0.001399185,-0.001423892,0.001423892,-0.001423892,0.001423892,-0.001423892,0.001423892,-0.001423892,0.001423892,-0.001372189,0.001372189,-0.001372189,0.001372189,-0.001372189,0.001372189,-0.001372189,0.001372189,-6.81E-12,6.78E-12,-0.001399185,0.001399185,9.05E-14,-1.48E-13,-0.001423892,0.001423892,-0.001423892,0.001423892,-0.001423892,0.001423892,-0.001423892,0.001423892,-0.001372189,0.001372189,-0.001372189,0.001372189,0.704193841,0.451574058,1368840,32768,0.005812965,0.005812965,0.005812965,37.10193624,37.09570167,0.000212015,0.000212015,0.000212015,432627.2707,0.017592033
12009600,0.995151575,0.016840434,0.005613478,0.005613478,0.005613478,-0.001399581,0.001399581,6.33E-12,-6.77E-12,7.81E-15,-4.60E-13,-0.001424218,0.001424218,-0.001424218,0.001424218,-0.001424218,0.001424218,-0.001424218,0.001424218,-0.001372648,0.001372648,-0.001372648,0.001372648,-7.62E-13,-2.72E-13,-7.63E-14,1.58E-13,-0.001399581,0.001399581,-0.001424218,0.001424218,-0.001424218,0.001424218,-0.001424218,0.001424218,-0.001424218,0.001424218,-0.001372648,0.001372648,-0.001372648,0.001372648,-0.001372648,0.001372648,-0.001372648,0.001372648,-6.80E-12,6.77E-12,-0.001399581,0.001399581,9.52E-14,-1.43E-13,-0.001424218,0.001424218,-0.001424218,0.001424218,-0.001424218,0.001424218,-0.001424218,0.001424218,-0.001372648,0.001372648,-0.001372648,0.001372648,0.706357388,0.488743795,1368840,32768,0.005814603,0.005814603,0.005814603,37.03345935,37.02870527,0.000211468,0.000211468,0.000211468,425443.5563,0.017597034
12096000,0.995421671,0.016844623,0.005614874,0.005614874,0.005614874,-0.001399989,0.001399989,6.31E-12,-6.77E-12,3.23E-16,-4.61E-13,-0.001424557,0.001424557,-0.001424557,0.001424557,-0.001424557,0.001424557,-0.001424557,0.001424557,-0.001373121,0.001373121,-0.001373121,0.001373121,-7.68E-13,-2.85E-13,-7.75E-14,1.52E-13,-0.001399989,0.001399989,-0.001424557,0.001424557,-0.001424557,0.001424557,-0.001424557,0.001424557,-0.001424557,0.001424557,-0.001373121,0.001373121,-0.001373121,0.001373121,-0.001373121,0.001373121,-0.001373121,0.001373121,-6.79E-12,6.77E-12,-0.001399989,0.001399989,8.81E-14,-1.46E-13,-0.001424557,0.001424557,-0.001424557,0.001424557,-0.001424557,0.001424557,-0.001424557,0.001424557,-0.001373121,0.001373121,-0.001373121,0.001373121,0.708643237,0.525913533,1368840,32768,0.005816295,0.005816295,0.005816295,36.9838039,36.98034796,0.00021107,0.00021107,0.00021107,418422.666,0.0176022
12182400,0.995676109,0.016848583,0.005616194,0.005616194,0.005616194,-0.001400378,0.001400378,6.31E-12,-6.77E-12,8.33E-15,-4.54E-13,-0.001424876,0.001424876,-0.001424876,0.001424876,-0.001424876,0.001424876,-0.001424876,0.001424876,-0.001373573,0.001373573,-0.001373573,0.001373573,-7.69E-13,-2.85E-13,-8.14E-14,1.45E-13,-0.001400378,0.001400378,-0.001424876,0.001424876,-0.001424876,0.001424876,-0.001424876,0.001424876,-0.001424876,0.001424876,-0.001373573,0.001373573,-0.001373573,0.001373573,-0.001373573,0.001373573,-0.001373573,0.001373573,-6.78E-12,6.79E-12,-0.001400378,0.001400378,1.05E-13,-1.26E-13,-0.001424876,0.001424876,-0.001424876,0.001424876,-0.001424876,0.001424876,-0.001424876,0.001424876,-0.001373573,0.001373573,-0.001373573,0.001373573,0.711052759,0.56308327,1368840,32768,0.005817905,0.005817905,0.005817905,36.93532276,36.93199065,0.000210683,0.000210683,0.000210683,411585.3175,0.017607113
12268800,0.99591583,0.016852326,0.005617442,0.005617442,0.005617442,-0.001400745,0.001400745,6.31E-12,-6.76E-12,1.25E-14,-4.45E-13,-0.001425174,0.001425174,-0.001425174,0.001425174,-0.001425174,0.001425174,-0.001425174,0.001425174,-0.001374004,0.001374004,-0.001374004,0.001374004,-7.69E-13,-2.89E-13,-7.79E-14,1.52E-13,-0.001400745,0.001400745,-0.001425174,0.001425174,-0.001425174,0.001425174,-0.001425174,0.001425174,-0.001425174,0.001425174,-0.001374004,0.001374004,-0.001374004,0.001374004,-0.001374004,0.001374004,-0.001374004,0.001374004,-6.78E-12,6.78E-12,-0.001400745,0.001400745,1.00E-13,-1.33E-13,-0.001425174,0.001425174,-0.001425174,0.001425174,-0.001425174,0.001425174,-0.001425174,0.001425174,-0.001374004,0.001374004,-0.001374004,0.001374004,0.713262688,0.594482943,1368840,32768,0.005819427,0.005819427,0.005819427,36.88695241,36.88363334,0.000210296,0.000210296,0.000210296,404900.3683,0.01761176
12355200,0.996141713,0.016855843,0.005618614,0.005618614,0.005618614,-0.001401068,0.001401068,6.30E-12,-6.76E-12,1.41E-14,-4.41E-13,-0.001425441,0.001425441,-0.001425441,0.001425441,-0.001425441,0.001425441,-0.001425441,0.001425441,-0.001374375,0.001374375,-0.001374375,0.001374375,-7.92E-13,-3.15E-13,-1.03E-13,1.39E-13,-0.001401068,0.001401068,-0.001425441,0.001425441,-0.001425441,0.001425441,-0.001425441,0.001425441,-0.001425441,0.001425441,-0.001374375,0.001374375,-0.001374375,0.001374375,-0.001374375,0.001374375,-0.001374375,0.001374375,-6.77E-12,6.77E-12,-0.001401068,0.001401068,1.12E-13,-1.34E-13,-0.001425441,0.001425441,-0.001425441,0.001425441,-0.001425441,0.001425441,-0.001425441,0.001425441,-0.001374375,0.001374375,-0.001374375,0.001374375,0.711223823,0.552861781,1368840,32768,0.005820762,0.005820762,0.005820762,36.83859337,36.83527603,0.000209909,0.000209909,0.000209909,399133.4387,0.017615835
12441600,0.996354586,0.016859109,0.005619703,0.005619703,0.005619703,-0.001401069,0.001401069,6.31E-12,-6.76E-12,1.45E-14,-4.46E-13,-0.001425535,0.001425535,-0.001425535,0.001425535,-0.001425535,0.001425535,-0.001425535,0.001425535,-0.001374288,0.001374288,-0.001374288,0.001374288,-7.69E-13,-2.87E-13,-8.84E-14,1.63E-13,-0.001401069,0.001401069,-0.001425535,0.001425535,-0.001425535,0.001425535,-0.001425535,0.001425535,-0.001425535,0.001425535,-0.001374288,0.001374288,-0.001374288,0.001374288,-0.001374288,0.001374288,-0.001374288,0.001374288,-6.78E-12,6.78E-12,-0.001401069,0.001401069,1.10E-13,-1.45E-13,-0.001425535,0.001425535,-0.001425535,0.001425535,-0.001425535,0.001425535,-0.001425535,0.001425535,-0.001374288,0.001374288,-0.001374288,0.001374288,0.700802907,0.387661216,1368840,32768,0.005820767,0.005820767,0.005820767,36.79023565,36.78691872,0.000209522,0.000209522,0.000209522,402384.8161,0.01761585
12528000,0.996555225,0.016862201,0.005620734,0.005620734,0.005620734,-0.001400476,0.001400476,6.31E-12,-6.76E-12,4.77E-15,-4.44E-13,-0.00142532,0.00142532,-0.00142532,0.00142532,-0.00142532,0.00142532,-0.00142532,0.00142532,-0.00137335,0.00137335,-0.00137335,0.00137335,-7.59E-13,-2.88E-13,-8.80E-14,1.81E-13,-0.001400476,0.001400476,-0.00142532,0.00142532,-0.00142532,0.00142532,-0.00142532,0.00142532,-0.00142532,0.00142532,-0.00137335,0.00137335,-0.00137335,0.00137335,-0.00137335,0.00137335,-0.00137335,0.00137335,-6.78E-12,6.77E-12,-0.001400476,0.001400476,1.19E-13,-1.53E-13,-0.00142532,0.00142532,-0.00142532,0.00142532,-0.00142532,0.00142532,-0.00142532,0.00142532,-0.00137335,0.00137335,-0.00137335,0.00137335,0.703721081,0.444165683,1368840,32768,0.00581831,0.00581831,0.00581831,36.74187778,36.73856142,0.000209135,0.000209135,0.000209135,423245.6923,0.017608353
12614400,0.996744359,0.016865085,0.005621695,0.005621695,0.005621695,-0.001400871,0.001400871,6.31E-12,-6.76E-12,5.20E-15,-4.48E-13,-0.001425608,0.001425608,-0.001425608,0.001425608,-0.001425608,0.001425608,-0.001425608,0.001425608,-0.001373845,0.001373845,-0.001373845,0.001373845,-7.63E-13,-2.88E-13,-8.26E-14,1.66E-13,-0.001400871,0.001400871,-0.001425608,0.001425608,-0.001425608,0.001425608,-0.001425608,0.001425608,-0.001425608,0.001425608,-0.001373845,0.001373845,-0.001373845,0.001373845,-0.001373845,0.001373845,-0.001373845,0.001373845,-6.77E-12,6.78E-12,-0.001400871,0.001400871,1.05E-13,-1.48E-13,-0.001425608,0.001425608,-0.001425608,0.001425608,-0.001425608,0.001425608,-0.001425608,0.001425608,-0.001373845,0.001373845,-0.001373845,0.001373845,0.696746565,0.341347423,1368840,32768,0.005819947,0.005819947,0.005819947,36.69352007,36.69020411,0.000208748,0.000208748,0.000208748,414131.7332,0.017613349
12700800,0.99692267,0.016867807,0.005622602,0.005622602,0.005622602,-0.001400493,0.001400493,6.31E-12,-6.76E-12,2.97E-15,-4.41E-13,-0.001425492,0.001425492,-0.001425492,0.001425492,-0.001425492,0.001425492,-0.001425492,0.001425492,-0.001373229,0.001373229,-0.001373229,0.001373229,-7.69E-13,-3.03E-13,-8.62E-14,1.50E-13,-0.001400493,0.001400493,-0.001425492,0.001425492,-0.001425492,0.001425492,-0.001425492,0.001425492,-0.001425492,0.001425492,-0.001373229,0.001373229,-0.001373229,0.001373229,-0.001373229,0.001373229,-0.001373229,0.001373229,-6.77E-12,6.78E-12,-0.001400493,0.001400493,1.03E-13,-1.37E-13,-0.001425492,0.001425492,-0.001425492,0.001425492,-0.001425492,0.001425492,-0.001425492,0.001425492,-0.001373229,0.001373229,-0.001373229,0.001373229,0.697574996,0.366327881,1368840,32768,0.005818381,0.005818381,0.005818381,36.64516225,36.6418468,0.000208361,0.000208361,0.000208361,427929.8073,0.01760857
12787200,0.997089901,0.01687036,0.005623453,0.005623453,0.005623453,-0.001400522,0.001400522,6.32E-12,-6.73E-12,-1.76E-14,-3.85E-13,-0.001425479,0.001425479,-0.001425479,0.001425479,-0.001425479,0.001425479,-0.001425479,0.001425479,-0.001373298,0.001373298,-0.001373298,0.001373298,-7.38E-13,-3.49E-13,-1.01E-13,1.31E-13,-0.001400522,0.001400522,-0.001425479,0.001425479,-0.001425479,0.001425479,-0.001425479,0.001425479,-0.001425479,0.001425479,-0.001373298,0.001373298,-0.001373298,0.001373298,-0.001373298,0.001373298,-0.001373298,0.001373298,-6.75E-12,6.78E-12,-0.001400522,0.001400522,1.03E-13,-1.34E-13,-0.001425479,0.001425479,-0.001425479,0.001425479,-0.001425479,0.001425479,-0.001425479,0.001425479,-0.001373298,0.001373298,-0.001373298,0.001373298,0.69747003,0.374491364,1368840,32768,0.0058185,0.0058185,0.0058185,36.49601576,36.48603599,0.000207168,0.000207168,0.000207168,423194.6561,0.017608931
12873600,0.997246154,0.016872745,0.005624248,0.005624248,0.005624248,-0.001400304,0.001400304,6.16E-12,-6.87E-12,-1.27E-13,-5.81E-13,-0.001425259,0.001425259,-0.001425259,0.001425259,-0.001425259,0.001425259,-0.001425259,0.001425259,-0.001373084,0.001373084,-0.001373084,0.001373084,-9.52E-13,-4.75E-13,-1.65E-13,2.60E-14,-0.001400304,0.001400304,-0.001425259,0.001425259,-0.001425259,0.001425259,-0.001425259,0.001425259,-0.001425259,0.001425259,-0.001373084,0.001373084,-0.001373084,0.001373084,-0.001373084,0.001373084,-0.001373084,0.001373084,-6.84E-12,6.66E-12,-0.001400304,0.001400304,5.46E-14,-1.41E-13,-0.001425259,0.001425259,-0.001425259,0.001425259,-0.001425259,0.001425259,-0.001425259,0.001425259,-0.001373084,0.001373084,-0.001373084,0.001373084,0.697424249,0.382654846,1368840,32768,0.005817597,0.005817597,0.005817597,36.26858261,36.25320769,0.000205349,0.000205349,0.000205349,420966.3169,0.017606176
12960000,0.997392207,0.016874975,0.005624992,0.005624992,0.005624992,-0.001400065,0.001400065,6.57E-12,-6.50E-12,2.97E-13,-2.69E-13,-0.001425014,0.001425014,-0.001425014,0.001425014,-0.001425014,0.001425014,-0.001425014,0.001425014,-0.001372851,0.001372851,-0.001372851,0.001372851,-5.88E-13,-1.44E-15,1.72E-13,3.40E-13,-0.001400065,0.001400065,-0.001425014,0.001425014,-0.001425014,0.001425014,-0.001425014,0.001425014,-0.001425014,0.001425014,-0.001372851,0.001372851,-0.001372851,0.001372851,-0.001372851,0.001372851,-0.001372851,0.001372851,-6.97E-12,6.60E-12,-0.001400065,0.001400065,-4.87E-14,-2.20E-13,-0.001425014,0.001425014,-0.001425014,0.001425014,-0.001425014,0.001425014,-0.001425014,0.001425014,-0.001372851,0.001372851,-0.001372851,0.001372851,0.697431399,0.390818328,1368840,32768,0.005816607,0.005816607,0.005816607,36.03625547,36.02037938,0.00020349,0.00020349,0.00020349,418683.127,0.017603153
13046400,0.997528812,0.01687706,0.005625687,0.005625687,0.005625687,-0.001399814,0.001399814,6.28E-12,-6.81E-12,4.30E-14,-5.35E-13,-0.001424756,0.001424756,-0.001424756,0.001424756,-0.001424756,0.001424756,-0.001424756,0.001424756,-0.001372608,0.001372608,-0.001372608,0.001372608,-9.12E-13,-3.11E-13,-1.30E-13,-4.71E-14,-0.001399814,0.001399814,-0.001424756,0.001424756,-0.001424756,0.001424756,-0.001424756,0.001424756,-0.001424756,0.001424756,-0.001372608,0.001372608,-0.001372608,0.001372608,-0.001372608,0.001372608,-0.001372608,0.001372608,-6.69E-12,6.89E-12,-0.001399814,0.001399814,1.61E-13,7.06E-14,-0.001424756,0.001424756,-0.001424756,0.001424756,-0.001424756,0.001424756,-0.001424756,0.001424756,-0.001372608,0.001372608,-0.001372608,0.001372608,0.697486313,0.398981811,1368840,32768,0.005815568,0.005815568,0.005815568,35.80346716,35.78755108,0.000201628,0.000201628,0.000201628,416398.2934,0.017599981
13132800,0.997656665,0.016879013,0.005626338,0.005626338,0.005626338,-0.001399553,0.001399553,6.36E-12,-6.75E-12,1.26E-13,-4.76E-13,-0.001424487,0.001424487,-0.001424487,0.001424487,-0.001424487,0.001424487,-0.001424487,0.001424487,-0.001372355,0.001372355,-0.001372355,0.001372355,-9.73E-13,-3.53E-13,-8.96E-14,5.37E-15,-0.001399553,0.001399553,-0.001424487,0.001424487,-0.001424487,0.001424487,-0.001424487,0.001424487,-0.001424487,0.001424487,-0.001372355,0.001372355,-0.001372355,0.001372355,-0.001372355,0.001372355,-0.001372355,0.001372355,-6.75E-12,6.84E-12,-0.001399553,0.001399553,1.44E-13,3.29E-14,-0.001424487,0.001424487,-0.001424487,0.001424487,-0.001424487,0.001424487,-0.001424487,0.001424487,-0.001372355,0.001372355,-0.001372355,0.001372355,0.697584692,0.407145293,1368840,32768,0.005814486,0.005814486,0.005814486,35.57063243,35.55472277,0.000199765,0.000199765,0.000199765,414120.9769,0.017596678
13219200,0.997776403,0.016880842,0.005626947,0.005626947,0.005626947,-0.001399282,0.001399282,6.25E-12,-6.83E-12,-6.60E-14,-6.19E-13,-0.001424208,0.001424208,-0.001424208,0.001424208,-0.001424208,0.001424208,-0.001424208,0.001424208,-0.001372093,0.001372093,-0.001372093,0.001372093,-8.95E-13,-3.20E-13,-1.09E-13,8.26E-14,-0.001399282,0.001399282,-0.001424208,0.001424208,-0.001424208,0.001424208,-0.001424208,0.001424208,-0.001424208,0.001424208,-0.001372093,0.001372093,-0.001372093,0.001372093,-0.001372093,0.001372093,-0.001372093,0.001372093,-6.83E-12,6.73E-12,-0.001399282,0.001399282,8.68E-14,-1.05E-13,-0.001424208,0.001424208,-0.001424208,0.001424208,-0.001424208,0.001424208,-0.001424208,0.001424208,-0.001372093,0.001372093,-0.001372093,0.001372093,0.697722918,0.415308775,1368840,32768,0.005813364,0.005813364,0.005813364,35.33779295,35.32189447,0.000197902,0.000197902,0.000197902,411854.4077,0.017593255
13305600,0.997888614,0.016882554,0.005627518,0.005627518,0.005627518,-0.001399002,0.001399002,6.23E-12,-6.81E-12,8.29E-16,-4.78E-13,-0.001423918,0.001423918,-0.001423918,0.001423918,-0.001423918,0.001423918,-0.001423918,0.001423918,-0.001371823,0.001371823,-0.001371823,0.001371823,-7.89E-13,-2.85E-13,-7.58E-14,1.17E-13,-0.001399002,0.001399002,-0.001423918,0.001423918,-0.001423918,0.001423918,-0.001423918,0.001423918,-0.001423918,0.001423918,-0.001371823,0.001371823,-0.001371823,0.001371823,-0.001371823,0.001371823,-0.001371823,0.001371823,-6.73E-12,6.79E-12,-0.001399002,0.001399002,1.15E-13,-8.38E-14,-0.001423918,0.001423918,-0.001423918,0.001423918,-0.001423918,0.001423918,-0.001423918,0.001423918,-0.001371823,0.001371823,-0.001371823,0.001371823,0.697046022,0.409833483,1368840,32768,0.005812205,0.005812205,0.005812205,35.10495305,35.08906617,0.00019604,0.00019604,0.00019604,409603.8493,0.017589717
13392000,0.997993838,0.016884155,0.005628052,0.005628052,0.005628052,-0.00139865,0.00139865,6.32E-12,-6.77E-12,-1.50E-14,-4.25E-13,-0.001423587,0.001423587,-0.001423587,0.001423587,-0.001423587,0.001423587,-0.001423587,0.001423587,-0.001371452,0.001371452,-0.001371452,0.001371452,-7.44E-13,-3.13E-13,-6.92E-14,9.68E-14,-0.00139865,0.00139865,-0.001423587,0.001423587,-0.001423587,0.001423587,-0.001423587,0.001423587,-0.001423587,0.001423587,-0.001371452,0.001371452,-0.001371452,0.001371452,-0.001371452,0.001371452,-0.001371452,0.001371452,-6.80E-12,6.78E-12,-0.00139865,0.00139865,6.45E-14,-1.05E-13,-0.001423587,0.001423587,-0.001423587,0.001423587,-0.001423587,0.001423587,-0.001423587,0.001423587,-0.001371452,0.001371452,-0.001371452,0.001371452,0.695338631,0.388371011,1368840,32768,0.005810747,0.005810747,0.005810747,34.8721132,34.85623786,0.000194177,0.000194177,0.000194177,409266.2418,0.017585264
13478400,0.998092572,0.016885654,0.005628551,0.005628551,0.005628551,-0.001398214,0.001398214,6.33E-12,-6.74E-12,-1.53E-14,-4.24E-13,-0.001423211,0.001423211,-0.001423211,0.001423211,-0.001423211,0.001423211,-0.001423211,0.001423211,-0.001370962,0.001370962,-0.001370962,0.001370962,-7.66E-13,-3.36E-13,-9.09E-14,1.08E-13,-0.001398214,0.001398214,-0.001423211,0.001423211,-0.001423211,0.001423211,-0.001423211,0.001423211,-0.001423211,0.001423211,-0.001370962,0.001370962,-0.001370962,0.001370962,-0.001370962,0.001370962,-0.001370962,0.001370962,-6.78E-12,6.78E-12,-0.001398214,0.001398214,9.60E-14,-1.07E-13,-0.001423211,0.001423211,-0.001423211,0.001423211,-0.001423211,0.001423211,-0.001423211,0.001423211,-0.001370962,0.001370962,-0.001370962,0.001370962,0.693541405,0.366908539,1368840,32768,0.005808939,0.005808939,0.005808939,34.63927336,34.62340956,0.000192314,0.000192314,0.000192314,411270.1248,0.017579744
13564800,0.998185507,0.016887063,0.005629021,0.005629021,0.005629021,-0.001397856,0.001397856,6.38E-12,-6.74E-12,3.73E-14,-4.07E-13,-0.001422909,0.001422909,-0.001422909,0.001422909,-0.001422909,0.001422909,-0.001422909,0.001422909,-0.001370553,0.001370554,-0.001370554,0.001370553,-8.61E-13,-3.89E-13,-1.03E-13,6.72E-14,-0.001397856,0.001397856,-0.001422909,0.001422909,-0.001422909,0.001422909,-0.001422909,0.001422909,-0.001422909,0.001422909,-0.001370553,0.001370553,-0.001370553,0.001370553,-0.001370553,0.001370553,-0.001370553,0.001370553,-6.82E-12,6.78E-12,-0.001397856,0.001397856,2.69E-14,-1.49E-13,-0.001422909,0.001422909,-0.001422909,0.001422909,-0.001422909,0.001422909,-0.001422909,0.001422909,-0.001370553,0.001370553,-0.001370553,0.001370553,0.692369845,0.356531663,1368840,32768,0.005807458,0.005807458,0.005807458,34.45270606,34.43989304,0.000190822,0.000190822,0.000190822,413334.4102,0.017575224
13651200,0.998273185,0.016888391,0.005629464,0.005629464,0.005629464,-0.001397608,0.001397608,6.39E-12,-6.69E-12,9.02E-14,-3.42E-13,-0.001422696,0.001422696,-0.001422696,0.001422696,-0.001422696,0.001422696,-0.001422696,0.001422696,-0.001370274,0.001370274,-0.001370274,0.001370274,-7.88E-13,-3.29E-13,-1.55E-13,7.17E-14,-0.001397608,0.001397608,-0.001422696,0.001422696,-0.001422696,0.001422696,-0.001422696,0.001422696,-0.001422696,0.001422696,-0.001370274,0.001370274,-0.001370274,0.001370274,-0.001370274,0.001370274,-0.001370274,0.001370274,-6.68E-12,6.88E-12,-0.001397608,0.001397608,1.67E-13,-6.17E-14,-0.001422696,0.001422696,-0.001422696,0.001422696,-0.001422696,0.001422696,-0.001422696,0.001422696,-0.001370274,0.001370274,-0.001370274,0.001370274,0.69209794,0.360765198,1368840,32768,0.005806428,0.005806428,0.005806428,34.29921906,34.28868908,0.000189594,0.000189594,0.000189594,413948.3726,0.01757208
13737600,0.998355947,0.016889645,0.005629882,0.005629882,0.005629882,-0.001397428,0.001397428,6.31E-12,-6.77E-12,-8.85E-15,-3.97E-13,-0.001422518,0.001422518,-0.001422518,0.001422518,-0.001422518,0.001422518,-0.001422518,0.001422518,-0.001370094,0.001370094,-0.001370094,0.001370094,-8.59E-13,-4.50E-13,-1.89E-13,2.12E-14,-0.001397428,0.001397428,-0.001422518,0.001422518,-0.001422518,0.001422518,-0.001422518,0.001422518,-0.001422518,0.001422518,-0.001370094,0.001370094,-0.001370094,0.001370094,-0.001370094,0.001370094,-0.001370094,0.001370094,-6.80E-12,6.75E-12,-0.001397428,0.001397428,9.83E-15,-2.04E-13,-0.001422518,0.001422518,-0.001422518,0.001422518,-0.001422518,0.001422518,-0.001422518,0.001422518,-0.001370094,0.001370094,-0.001370094,0.001370094,0.691858126,0.364998733,1368840,32768,0.005805683,0.005805683,0.005805683,34.14779516,34.13748513,0.000188382,0.000188382,0.000188382,412484.3574,0.017569806
13824000,0.998434099,0.016890828,0.005630276,0.005630276,0.005630276,-0.001397243,0.001397243,6.19E-12,-6.89E-12,-1.16E-13,-5.01E-13,-0.001422333,0.001422333,-0.001422333,0.001422333,-0.001422333,0.001422333,-0.001422333,0.001422333,-0.001369912,0.001369912,-0.001369912,0.001369912,-7.65E-13,-3.60E-13,-9.14E-14,1.05E-13,-0.001397243,0.001397243,-0.001422333,0.001422333,-0.001422333,0.001422333,-0.001422333,0.001422333,-0.001422333,0.001422333,-0.001369912,0.001369912,-0.001369912,0.001369912,-0.001369912,0.001369912,-0.001369912,0.001369912,-6.69E-12,6.86E-12,-0.001397243,0.001397243,1.15E-13,-8.76E-14,-0.001422333,0.001422333,-0.001422333,0.001422333,-0.001422333,0.001422333,-0.001422333,0.001422333,-0.001369912,0.001369912,-0.001369912,0.001369912,0.69164746,0.369232268,1368840,32768,0.005804918,0.005804918,0.005804918,33.99656471,33.98628117,0.000187173,0.000187173,0.000187173,410994.9372,0.01756747
13910400,0.998507928,0.016891945,0.005630648,0.005630648,0.005630648,-0.001397054,0.001397054,6.35E-12,-6.72E-12,1.17E-14,-3.79E-13,-0.001422142,0.001422142,-0.001422142,0.001422142,-0.001422142,0.001422142,-0.001422142,0.001422142,-0.001369725,0.001369725,-0.001369725,0.001369725,-7.74E-13,-3.55E-13,-1.49E-13,6.66E-14,-0.001397054,0.001397054,-0.001422142,0.001422142,-0.001422142,0.001422142,-0.001422142,0.001422142,-0.001422142,0.001422142,-0.001369725,0.001369725,-0.001369725,0.001369725,-0.001369725,0.001369725,-0.001369725,0.001369725,-6.80E-12,6.76E-12,-0.001397054,0.001397054,1.64E-14,-2.05E-13,-0.001422142,0.001422142,-0.001422142,0.001422142,-0.001422142,0.001422142,-0.001422142,0.001422142,-0.001369725,0.001369725,-0.001369725,0.001369725,0.691463485,0.373465803,1368840,32768,0.005804133,0.005804133,0.005804133,33.84535364,33.83507722,0.000185963,0.000185963,0.000185963,409502.9434,0.017565074
13996800,0.998577701,0.016893001,0.005631,0.005631,0.005631,-0.001396859,0.001396859,6.54E-12,-6.54E-12,2.03E-13,-2.14E-13,-0.001421946,0.001421946,-0.001421946,0.001421946,-0.001421946,0.001421946,-0.001421946,0.001421946,-0.001369534,0.001369534,-0.001369534,0.001369534,-6.85E-13,-2.44E-13,-7.24E-14,1.79E-13,-0.001396859,0.001396859,-0.001421946,0.001421946,-0.001421946,0.001421946,-0.001421946,0.001421946,-0.001421946,0.001421946,-0.001369534,0.001369534,-0.001369534,0.001369534,-0.001369534,0.001369534,-0.001369534,0.001369534,-6.67E-12,6.91E-12,-0.001396859,0.001396859,1.84E-13,-6.52E-14,-0.001421946,0.001421946,-0.001421946,0.001421946,-0.001421946,0.001421946,-0.001421946,0.001421946,-0.001369534,0.001369534,-0.001369534,0.001369534,0.69130412,0.377699338,1368840,32768,0.005803329,0.005803329,0.005803329,33.69414454,33.68387327,0.000184753,0.000184753,0.000184753,408013.0361,0.017562619
14083200,0.998643667,0.016893998,0.005631333,0.005631333,0.005631333,-0.001396661,0.001396661,6.37E-12,-6.73E-12,2.38E-15,-4.19E-13,-0.001421745,0.001421745,-0.001421745,0.001421745,-0.001421745,0.001421745,-0.001421745,0.001421745,-0.001369339,0.001369339,-0.001369339,0.001369339,-7.82E-13,-3.34E-13,-5.59E-14,2.01E-13,-0.001396661,0.001396661,-0.001421745,0.001421745,-0.001421745,0.001421745,-0.001421745,0.001421745,-0.001421745,0.001421745,-0.001369339,0.001369339,-0.001369339,0.001369339,-0.001369339,0.001369339,-0.001369339,0.001369339,-6.87E-12,6.72E-12,-0.001396661,0.001396661,7.27E-14,-1.91E-13,-0.001421745,0.001421745,-0.001421745,0.001421745,-0.001421745,0.001421745,-0.001421745,0.001421745,-0.001369339,0.001369339,-0.001369339,0.001369339,0.690333513,0.368641245,1368840,32768,0.005802506,0.005802506,0.005802506,33.54293568,33.53266931,0.000183543,0.000183543,0.000183543,406528.843,0.017560108
14169600,0.998706056,0.016894937,0.005631646,0.005631646,0.005631646,-0.001396394,0.001396394,6.31E-12,-6.77E-12,-2.50E-14,-4.38E-13,-0.001421506,0.001421506,-0.001421506,0.001421506,-0.001421506,0.001421506,-0.001421506,0.001421506,-0.001369047,0.001369047,-0.001369047,0.001369047,-7.65E-13,-3.30E-13,-7.23E-14,1.48E-13,-0.001396394,0.001396394,-0.001421506,0.001421506,-0.001421506,0.001421506,-0.001421506,0.001421506,-0.001421506,0.001421506,-0.001369047,0.001369047,-0.001369047,0.001369047,-0.001369047,0.001369047,-0.001369047,0.001369047,-6.80E-12,6.77E-12,-0.001396394,0.001396394,1.15E-13,-1.08E-13,-0.001421506,0.001421506,-0.001421506,0.001421506,-0.001421506,0.001421506,-0.001421506,0.001421506,-0.001369047,0.001369047,-0.001369047,0.001369047,0.687097287,0.324468446,1368840,32768,0.005801402,0.005801402,0.005801402,33.39172694,33.38146536,0.000182334,0.000182334,0.000182334,406947.8738,0.017556739
14256000,0.998765087,0.01689582,0.00563194,0.00563194,0.00563194,-0.001395951,0.00139595,6.32E-12,-6.77E-12,-7.56E-15,-4.28E-13,-0.001421179,0.001421179,-0.001421179,0.001421179,-0.001421179,0.001421179,-0.001421179,0.001421179,-0.001368499,0.001368499,-0.001368499,0.001368499,-7.67E-13,-3.24E-13,-1.10E-13,1.43E-13,-0.001395951,0.00139595,-0.001421179,0.001421179,-0.001421179,0.001421179,-0.001421179,0.001421179,-0.001421179,0.001421179,-0.001368499,0.001368499,-0.001368499,0.001368499,-0.001368499,0.001368499,-0.001368499,0.001368499,-6.79E-12,6.78E-12,-0.00139595,0.00139595,1.17E-13,-1.40E-13,-0.001421179,0.001421179,-0.001421179,0.001421179,-0.001421179,0.001421179,-0.001421179,0.001421179,-0.001368499,0.001368499,-0.001368499,0.001368499,0.683682234,0.280295647,1368840,32768,0.005799563,0.005799563,0.005799563,33.24051821,33.2302614,0.000181124,0.000181124,0.000181124,412643.2005,0.017551125
14342400,0.998820588,0.016896654,0.005632218,0.005632218,0.005632218,-0.001395256,0.001395256,6.38E-12,-6.81E-12,3.77E-15,-3.84E-13,-0.001420608,0.001420608,-0.001420608,0.001420608,-0.001420608,0.001420608,-0.001420608,0.001420608,-0.001367694,0.001367694,-0.001367694,0.001367694,-7.69E-13,-3.60E-13,-1.41E-13,9.63E-14,-0.001395256,0.001395256,-0.001420608,0.001420608,-0.001420608,0.001420608,-0.001420608,0.001420608,-0.001420608,0.001420608,-0.001367694,0.001367694,-0.001367694,0.001367694,-0.001367694,0.001367694,-0.001367694,0.001367694,-6.89E-12,6.79E-12,-0.001395256,0.001395256,6.26E-14,-1.78E-13,-0.001420608,0.001420608,-0.001420608,0.001420608,-0.001420608,0.001420608,-0.001420608,0.001420608,-0.001367694,0.001367694,-0.001367694,0.001367694,0.686098924,0.330165347,1368840,32768,0.005796686,0.005796686,0.005796686,32.96787088,32.94967694,0.000178943,0.000178943,0.000178943,418808.1048,0.017542343
14428800,0.998872577,0.016897434,0.005632478,0.005632478,0.005632478,-0.001394878,0.001394878,6.40E-12,-6.92E-12,-3.30E-14,-4.74E-13,-0.001420125,0.001420125,-0.001420125,0.001420125,-0.001420125,0.001420125,-0.001420125,0.001420125,-0.001367417,0.001367417,-0.001367417,0.001367417,-5.85E-13,-1.42E-13,7.29E-14,3.06E-13,-0.001394878,0.001394878,-0.001420125,0.001420125,-0.001420125,0.001420125,-0.001420125,0.001420125,-0.001420125,0.001420125,-0.001367417,0.001367417,-0.001367417,0.001367417,-0.001367417,0.001367417,-0.001367417,0.001367417,-6.91E-12,6.89E-12,-0.001394878,0.001394878,1.63E-13,-7.44E-14,-0.001420125,0.001420125,-0.001420125,0.001420125,-0.001420125,0.001420125,-0.001420125,0.001420125,-0.001367417,0.001367417,-0.001367417,0.001367417,0.686239435,0.34057045,1368840,32768,0.005795122,0.005795122,0.005795122,32.61537903,32.59171727,0.000176123,0.000176123,0.000176123,410737.6412,0.017537568
14515200,0.998921303,0.016898167,0.005632722,0.005632722,0.005632722,-0.00139429,0.00139429,6.67E-12,-6.64E-12,2.29E-13,-1.87E-13,-0.001419513,0.001419513,-0.001419513,0.001419513,-0.001419513,0.001419513,-0.001419513,0.001419513,-0.00136685,0.00136685,-0.00136685,0.00136685,-6.19E-13,-1.89E-13,5.76E-14,3.13E-13,-0.00139429,0.00139429,-0.001419513,0.001419513,-0.001419513,0.001419513,-0.001419513,0.001419513,-0.001419513,0.001419513,-0.00136685,0.00136685,-0.00136685,0.00136685,-0.00136685,0.00136685,-0.00136685,0.00136685,-7.09E-12,6.70E-12,-0.00139429,0.00139429,1.00E-14,-2.50E-13,-0.001419513,0.001419513,-0.001419513,0.001419513,-0.001419513,0.001419513,-0.001419513,0.001419513,-0.00136685,0.00136685,-0.00136685,0.00136685,0.686431861,0.350975554,1368840,32768,0.005792683,0.005792683,0.005792683,32.25790853,32.23375759,0.000173263,0.000173263,0.000173263,408395.7143,0.017530121
14601600,0.998967007,0.016898854,0.005632951,0.005632951,0.005632951,-0.001393697,0.001393697,6.30E-12,-7.00E-12,-1.27E-13,-6.05E-13,-0.001418901,0.001418901,-0.001418901,0.001418901,-0.001418901,0.001418901,-0.001418901,0.001418901,-0.001366275,0.001366275,-0.001366275,0.001366275,-8.80E-13,-3.80E-13,-2.63E-13,2.76E-14,-0.001393697,0.001393697,-0.001418901,0.001418901,-0.001418901,0.001418901,-0.001418901,0.001418901,-0.001418901,0.001418901,-0.001366275,0.001366275,-0.001366275,0.001366275,-0.001366275,0.001366275,-0.001366275,0.001366275,-7.17E-12,6.61E-12,-0.001393697,0.001393697,-9.97E-14,-3.95E-13,-0.001418901,0.001418901,-0.001418901,0.001418901,-0.001418901,0.001418901,-0.001418901,0.001418901,-0.001366275,0.001366275,-0.001366275,0.001366275,0.686671983,0.361380658,1368840,32768,0.005790226,0.005790226,0.005790226,31.89997292,31.87579791,0.0001704,0.0001704,0.0001704,406100.8709,0.017522622
14688000,0.999009913,0.016899499,0.005633166,0.005633166,0.005633166,-0.0013931,0.0013931,6.19E-12,-7.06E-12,-2.04E-13,-6.48E-13,-0.001418286,0.001418286,-0.001418286,0.001418286,-0.001418286,0.001418286,-0.001418286,0.001418286,-0.001365698,0.001365698,-0.001365698,0.001365698,-9.39E-13,-4.71E-13,-3.41E-13,-4.67E-14,-0.0013931,0.0013931,-0.001418286,0.001418286,-0.001418286,0.001418286,-0.001418286,0.001418286,-0.001418286,0.001418286,-0.001365698,0.001365698,-0.001365698,0.001365698,-0.001365698,0.001365698,-0.001365698,0.001365698,-7.05E-12,6.70E-12,-0.0013931,0.0013931,8.91E-14,-2.00E-13,-0.001418286,0.001418286,-0.001418286,0.001418286,-0.001418286,0.001418286,-0.001418286,0.001418286,-0.001365698,0.001365698,-0.001365698,0.001365698,0.686956133,0.371785762,1368840,32768,0.005787756,0.005787756,0.005787756,31.54199096,31.51783823,0.000167536,0.000167536,0.000167536,403814.3176,0.017515081
14774400,0.999050224,0.016900106,0.005633369,0.005633369,0.005633369,-0.001392501,0.001392501,6.56E-12,-6.64E-12,9.39E-14,-3.82E-13,-0.001417667,0.001417667,-0.001417667,0.001417667,-0.001417667,0.001417667,-0.001417667,0.001417667,-0.001365117,0.001365117,-0.001365117,0.001365117,-1.09E-12,-6.02E-13,-4.00E-13,-1.45E-13,-0.001392501,0.001392501,-0.001417667,0.001417667,-0.001417667,0.001417667,-0.001417667,0.001417667,-0.001417667,0.001417667,-0.001365117,0.001365117,-0.001365117,0.001365117,-0.001365117,0.001365117,-0.001365117,0.001365117,-6.97E-12,6.69E-12,-0.001392501,0.001392501,1.62E-14,-2.33E-13,-0.001417667,0.001417667,-0.001417667,0.001417667,-0.001417667,0.001417667,-0.001417667,0.001417667,-0.001365117,0.001365117,-0.001365117,0.001365117,0.687281094,0.382190866,1368840,32768,0.005785273,0.005785273,0.005785273,31.18400432,31.15987855,0.000164672,0.000164672,0.000164672,401532.659,0.017507503
14860800,0.999088127,0.016900676,0.005633559,0.005633559,0.005633559,-0.001391899,0.001391899,6.41E-12,-6.85E-12,2.11E-14,-4.78E-13,-0.001417045,0.001417045,-0.001417045,0.001417045,-0.001417045,0.001417045,-0.001417045,0.001417045,-0.001364534,0.001364534,-0.001364534,0.001364534,-8.22E-13,-2.99E-13,-1.07E-13,1.12E-13,-0.001391899,0.001391899,-0.001417045,0.001417045,-0.001417045,0.001417045,-0.001417045,0.001417045,-0.001417045,0.001417045,-0.001364534,0.001364534,-0.001364534,0.001364534,-0.001364534,0.001364534,-0.001364534,0.001364534,-6.85E-12,6.88E-12,-0.001391899,0.001391899,4.57E-14,-1.64E-13,-0.001417045,0.001417045,-0.001417045,0.001417045,-0.001417045,0.001417045,-0.001417045,0.001417045,-0.001364534,0.001364534,-0.001364534,0.001364534,0.687644027,0.39259597,1368840,32768,0.005782779,0.005782779,0.005782779,30.82601721,30.80191887,0.000161808,0.000161808,0.000161808,399257.0473,0.017499889
14947200,0.99912366,0.016901211,0.005633737,0.005633737,0.005633737,-0.001391166,0.001391166,5.95E-12,-7.28E-12,-4.53E-13,-1.02E-12,-0.001416294,0.001416294,-0.001416294,0.001416294,-0.001416294,0.001416294,-0.001416294,0.001416294,-0.001363819,0.001363819,-0.001363819,0.001363819,-8.77E-13,-2.96E-13,-2.05E-13,-8.09E-14,-0.001391166,0.001391166,-0.001416294,0.001416294,-0.001416294,0.001416294,-0.001416294,0.001416294,-0.001416294,0.001416294,-0.001363819,0.001363819,-0.001363819,0.001363819,-0.001363819,0.001363819,-0.001363819,0.001363819,-6.87E-12,6.84E-12,-0.001391166,0.001391166,-1.80E-14,-1.43E-13,-0.001416294,0.001416294,-0.001416294,0.001416294,-0.001416294,0.001416294,-0.001416294,0.001416294,-0.001363819,0.001363819,-0.001363819,0.001363819,0.688043127,0.403001074,1368840,32768,0.005779741,0.005779741,0.005779741,30.40166453,30.3732901,0.000158413,0.000158413,0.000158413,397033.9464,0.017490618
15033600,0.999156673,0.016901707,0.005633902,0.005633902,0.005633902,-0.001390091,0.001390091,6.42E-12,-6.80E-12,-5.87E-14,-3.47E-13,-0.001415203,0.001415203,-0.001415203,0.001415203,-0.001415203,0.001415203,-0.001415203,0.001415203,-0.001362761,0.001362761,-0.001362761,0.001362761,-6.95E-13,-3.86E-13,-1.13E-13,1.22E-13,-0.001390091,0.001390091,-0.001415203,0.001415203,-0.001415203,0.001415203,-0.001415203,0.001415203,-0.001415203,0.001415203,-0.001362761,0.001362761,-0.001362761,0.001362761,-0.001362761,0.001362761,-0.001362761,0.001362761,-6.83E-12,6.87E-12,-0.001390091,0.001390091,7.91E-14,-1.59E-13,-0.001415203,0.001415203,-0.001415203,0.001415203,-0.001415203,0.001415203,-0.001415203,0.001415203,-0.001362761,0.001362761,-0.001362761,0.001362761,0.686064506,0.374278769,1368840,32768,0.005775291,0.005775291,0.005775291,29.80257667,29.76278736,0.000153621,0.000153621,0.000153621,394868.1994,0.017477032
15120000,0.999187363,0.016902166,0.005634055,0.005634055,0.005634055,-0.001388815,0.001388815,6.28E-12,-6.87E-12,-1.54E-13,-2.18E-13,-0.001413995,0.001413995,-0.001413995,0.001413995,-0.001413995,0.001413995,-0.001413995,0.001413995,-0.001361422,0.001361422,-0.001361422,0.001361422,-4.71E-13,-3.78E-13,-8.00E-14,3.60E-13,-0.001388815,0.001388815,-0.001413995,0.001413995,-0.001413995,0.001413995,-0.001413995,0.001413995,-0.001413995,0.001413995,-0.001361422,0.001361422,-0.001361422,0.001361422,-0.001361422,0.001361422,-0.001361422,0.001361422,-6.80E-12,6.84E-12,-0.001388815,0.001388815,1.89E-13,-2.52E-13,-0.001413995,0.001413995,-0.001413995,0.001413995,-0.001413995,0.001413995,-0.001413995,0.001413995,-0.001361422,0.001361422,-0.001361422,0.001361422,0.68207975,0.315549133,1368840,32768,0.005770001,0.005770001,0.005770001,29.1930599,29.15228461,0.000148744,0.000148744,0.000148744,398001.3572,0.017460887
15206400,0.999215923,0.01690259,0.005634197,0.005634197,0.005634197,-0.001387382,0.001387382,6.36E-12,-6.73E-12,-1.25E-13,-3.61E-13,-0.00141271,0.00141271,-0.00141271,0.00141271,-0.00141271,0.00141271,-0.00141271,0.00141271,-0.001359856,0.001359856,-0.001359856,0.001359856,-7.32E-13,-4.72E-13,-1.42E-13,6.21E-14,-0.001387382,0.001387382,-0.00141271,0.00141271,-0.00141271,0.00141271,-0.00141271,0.00141271,-0.00141271,0.00141271,-0.001359856,0.001359856,-0.001359856,0.001359856,-0.001359856,0.001359856,-0.001359856,0.001359856,-6.75E-12,6.82E-12,-0.001387382,0.001387382,1.39E-13,-6.72E-14,-0.00141271,0.00141271,-0.00141271,0.00141271,-0.00141271,0.00141271,-0.00141271,0.00141271,-0.001359856,0.001359856,-0.001359856,0.001359856,0.677746943,0.25467942,1368840,32768,0.005764066,0.005764066,0.005764066,28.58258344,28.54178186,0.000143861,0.000143861,0.000143861,405761.9233,0.017442772
15292800,0.999242532,0.016902991,0.00563433,0.00563433,0.00563433,-0.001385917,0.001385917,6.31E-12,-6.65E-12,-6.37E-14,-3.53E-13,-0.001411405,0.001411405,-0.001411405,0.001411405,-0.001411405,0.001411405,-0.001411405,0.001411405,-0.001358248,0.001358248,-0.001358248,0.001358248,-7.08E-13,-3.90E-13,-2.90E-14,1.78E-13,-0.001385917,0.001385917,-0.001411405,0.001411405,-0.001411405,0.001411405,-0.001411405,0.001411405,-0.001411405,0.001411405,-0.001358248,0.001358248,-0.001358248,0.001358248,-0.001358248,0.001358248,-0.001358248,0.001358248,-6.80E-12,6.64E-12,-0.001385917,0.001385917,3.86E-15,-2.07E-13,-0.001411405,0.001411405,-0.001411405,0.001411405,-0.001411405,0.001411405,-0.001411405,0.001411405,-0.001358248,0.001358248,-0.001358248,0.001358248,0.689597598,0.465980602,1368840,32768,0.005757999,0.005757999,0.005757999,27.97201007,27.93127912,0.000138976,0.000138976,0.000138976,414480.1062,0.017424253
15379200,0.999267348,0.01690337,0.005634457,0.005634457,0.005634457,-0.001385753,0.001385753,6.38E-12,-6.48E-12,6.82E-14,-3.69E-13,-0.001410761,0.001410761,-0.001410761,0.001410761,-0.001410761,0.001410761,-0.001410761,0.001410761,-0.001358526,0.001358526,-0.001358526,0.001358526,-7.87E-13,-3.33E-13,6.06E-14,1.16E-13,-0.001385753,0.001385753,-0.001410761,0.001410761,-0.001410761,0.001410761,-0.001410761,0.001410761,-0.001410761,0.001410761,-0.001358526,0.001358526,-0.001358526,0.001358526,-0.001358526,0.001358526,-0.001358526,0.001358526,-6.86E-12,6.49E-12,-0.001385753,0.001385753,4.98E-14,-4.38E-15,-0.001410761,0.001410761,-0.001410761,0.001410761,-0.001410761,0.001410761,-0.001410761,0.001410761,-0.001358526,0.001358526,-0.001358526,0.001358526,0.696114907,0.581184023,1368840,32768,0.005757317,0.005757317,0.005757317,27.36142734,27.32077637,0.000134091,0.000134091,0.000134091,384338.3669,0.017422171
15465600,0.999290517,0.016903724,0.005634575,0.005634575,0.005634575,-0.001385069,0.001385069,6.10E-12,-6.74E-12,-2.23E-13,-4.72E-13,-0.001409841,0.001409841,-0.001409841,0.001409841,-0.001409841,0.001409841,-0.001409841,0.001409841,-0.001358058,0.001358058,-0.001358058,0.001358058,-7.24E-13,-4.50E-13,-8.17E-14,-7.42E-14,-0.001385069,0.001385069,-0.001409841,0.001409841,-0.001409841,0.001409841,-0.001409841,0.001409841,-0.001409841,0.001409841,-0.001358058,0.001358058,-0.001358058,0.001358058,-0.001358058,0.001358058,-0.001358058,0.001358058,-6.59E-12,6.73E-12,-0.001385069,0.001385069,7.56E-14,5.98E-14,-0.001409841,0.001409841,-0.001409841,0.001409841,-0.001409841,0.001409841,-0.001409841,0.001409841,-0.001358058,0.001358058,-0.001358058,0.001358058,0.699583308,0.634790255,1368840,32768,0.005754484,0.005754484,0.005754484,26.75084423,26.71027363,0.000129207,0.000129207,0.000129207,369691.9686,0.01741352
15552000,0.999312169,0.016904057,0.005634686,0.005634686,0.005634686,-0.001384122,0.001384122,6.26E-12,-6.72E-12,-3.20E-14,-2.28E-13,-0.001408788,0.001408788,-0.001408788,0.001408788,-0.001408788,0.001408788,-0.001408788,0.001408788,-0.001357208,0.001357208,-0.001357208,0.001357208,-6.51E-13,-4.35E-13,-4.59E-14,3.64E-14,-0.001384122,0.001384122,-0.001408788,0.001408788,-0.001408788,0.001408788,-0.001408788,0.001408788,-0.001408788,0.001408788,-0.001357208,0.001357208,-0.001357208,0.001357208,-0.001357208,0.001357208,-0.001357208,0.001357208,-6.70E-12,6.77E-12,-0.001384122,0.001384122,-1.00E-14,-9.59E-14,-0.001408788,0.001408788,-0.001408788,0.001408788,-0.001408788,0.001408788,-0.001408788,0.001408788,-0.001357208,0.001357208,-0.001357208,0.001357208,0.701329244,0.652710595,1368840,32768,0.005750564,0.005750564,0.005750564,26.14026171,26.09977088,0.000124322,0.000124322,0.000124322,362638.0218,0.017401556
15638400,0.999332884,0.016904376,0.005634792,0.005634792,0.005634792,-0.001383784,0.001383784,6.26E-12,-6.71E-12,-6.62E-14,-2.94E-13,-0.001408402,0.001408402,-0.001408402,0.001408402,-0.001408402,0.001408402,-0.001408402,0.001408402,-0.001356907,0.001356907,-0.001356907,0.001356907,-6.90E-13,-4.41E-13,-4.25E-14,1.65E-14,-0.001383784,0.001383784,-0.001408402,0.001408402,-0.001408402,0.001408402,-0.001408402,0.001408402,-0.001408402,0.001408402,-0.001356907,0.001356907,-0.001356907,0.001356907,-0.001356907,0.001356907,-0.001356907,0.001356907,-6.71E-12,6.74E-12,-0.001383784,0.001383784,3.22E-14,-3.12E-14,-0.001408402,0.001408402,-0.001408402,0.001408402,-0.001408402,0.001408402,-0.001408402,0.001408402,-0.001356907,0.001356907,-0.001356907,0.001356907,0.70313729,0.670630936,1368840,32768,0.005749162,0.005749162,0.005749162,25.91422555,25.89838543,0.000122514,0.000122514,0.000122514,359254.12,0.017397276
15724800,0.999352769,0.016904686,0.005634895,0.005634895,0.005634895,-0.001383539,0.001383539,6.31E-12,-6.67E-12,-2.52E-15,-2.28E-13,-0.001408119,0.001408119,-0.001408119,0.001408119,-0.001408119,0.001408119,-0.001408119,0.001408119,-0.001356694,0.001356694,-0.001356694,0.001356694,-6.23E-13,-3.76E-13,1.04E-14,1.02E-13,-0.001383539,0.001383539,-0.001408119,0.001408119,-0.001408119,0.001408119,-0.001408119,0.001408119,-0.001408119,0.001408119,-0.001356694,0.001356694,-0.001356694,0.001356694,-0.001356694,0.001356694,-0.001356694,0.001356694,-6.76E-12,6.71E-12,-0.001383539,0.001383539,3.11E-14,-6.45E-14,-0.001408119,0.001408119,-0.001408119,0.001408119,-0.001408119,0.001408119,-0.001408119,0.001408119,-0.001356694,0.001356694,-0.001356694,0.001356694,0.711376929,0.798049803,1368840,32768,0.005748148,0.005748148,0.005748148,25.73779638,25.72595916,0.000121102,0.000121102,0.000121102,356115.1607,0.017394181
15811200,0.999371867,0.016904986,0.005634995,0.005634995,0.005634995,-0.001383668,0.001383668,6.19E-12,-6.84E-12,-2.00E-13,-4.74E-13,-0.001408032,0.001408032,-0.001408032,0.001408032,-0.001408032,0.001408032,-0.001408032,0.001408032,-0.001357016,0.001357016,-0.001357016,0.001357016,-7.63E-13,-4.66E-13,-3.17E-14,-8.88E-14,-0.001383668,0.001383668,-0.001408032,0.001408032,-0.001408032,0.001408032,-0.001408032,0.001408032,-0.001408032,0.001408032,-0.001357016,0.001357016,-0.001357016,0.001357016,-0.001357016,0.001357016,-0.001357016,0.001357016,-6.73E-12,6.79E-12,-0.001383668,0.001383668,-4.00E-14,1.08E-14,-0.001408032,0.001408032,-0.001408032,0.001408032,-0.001408032,0.001408032,-0.001408032,0.001408032,-0.001357016,0.001357016,-0.001357016,0.001357016,0.717586999,0.842625324,1368840,32768,0.00574868,0.00574868,0.00574868,25.56498274,25.55353289,0.00011972,0.00011972,0.00011972,342518.7729,0.017395804
15897600,0.999390215,0.016905276,0.005635092,0.005635092,0.005635092,-0.00138352,0.00138352,6.26E-12,-6.69E-12,-2.96E-14,-3.53E-13,-0.001407796,0.001407796,-0.001407796,0.001407796,-0.001407796,0.001407796,-0.001407796,0.001407796,-0.001356935,0.001356935,-0.001356935,0.001356935,-7.35E-13,-3.90E-13,8.55E-14,-5.62E-14,-0.00138352,0.00138352,-0.001407796,0.001407796,-0.001407796,0.001407796,-0.001407796,0.001407796,-0.001407796,0.001407796,-0.001356935,0.001356935,-0.001356935,0.001356935,-0.001356935,0.001356935,-0.001356935,0.001356935,-6.66E-12,6.79E-12,-0.00138352,0.00138352,5.81E-15,1.42E-13,-0.001407796,0.001407796,-0.001407796,0.001407796,-0.001407796,0.001407796,-0.001407796,0.001407796,-0.001356935,0.001356935,-0.001356935,0.001356935,0.720507647,0.826280611,1368840,32768,0.00574807,0.00574807,0.00574807,25.3925129,25.38110662,0.00011834,0.00011834,0.00011834,336216.0956,0.017393943
15984000,0.999407847,0.016905555,0.005635185,0.005635185,0.005635185,-0.001383182,0.001383182,6.29E-12,-6.69E-12,-5.90E-14,-4.63E-13,-0.001407464,0.001407464,-0.001407464,0.001407464,-0.001407464,0.001407464,-0.001407464,0.001407464,-0.001356577,0.001356577,-0.001356577,0.001356577,-6.56E-13,-2.29E-13,1.51E-13,-5.77E-14,-0.001383182,0.001383182,-0.001407464,0.001407464,-0.001407464,0.001407464,-0.001407464,0.001407464,-0.001407464,0.001407464,-0.001356577,0.001356577,-0.001356577,0.001356577,-0.001356577,0.001356577,-0.001356577,0.001356577,-6.65E-12,6.82E-12,-0.001383182,0.001383182,1.06E-14,2.12E-13,-0.001407464,0.001407464,-0.001407464,0.001407464,-0.001407464,0.001407464,-0.001407464,0.001407464,-0.001356577,0.001356577,-0.001356577,0.001356577,0.72255834,0.809935899,1368840,32768,0.005746669,0.005746669,0.005746669,25.22007683,25.20868035,0.000116961,0.000116961,0.000116961,335348.9056,0.017389667
16070400,0.999424797,0.016905824,0.005635275,0.005635275,0.005635275,-0.001382838,0.001382838,6.26E-12,-6.70E-12,3.38E-15,-4.28E-13,-0.00140713,0.00140713,-0.00140713,0.00140713,-0.00140713,0.00140713,-0.00140713,0.00140713,-0.001356212,0.001356212,-0.001356212,0.001356212,-6.97E-13,-2.45E-13,1.74E-13,-2.45E-14,-0.001382838,0.001382838,-0.00140713,0.00140713,-0.00140713,0.00140713,-0.00140713,0.00140713,-0.00140713,0.00140713,-0.001356212,0.001356212,-0.001356212,0.001356212,-0.001356212,0.001356212,-0.001356212,0.001356212,-6.65E-12,6.80E-12,-0.001382838,0.001382838,2.72E-14,2.21E-13,-0.00140713,0.00140713,-0.00140713,0.00140713,-0.00140713,0.00140713,-0.00140713,0.00140713,-0.001356212,0.001356212,-0.001356212,0.001356212,0.723921969,0.793591187,1368840,32768,0.005745241,0.005745241,0.005745241,25.04764413,25.03625408,0.000115581,0.000115581,0.000115581,334858.2016,0.01738531
16156800,0.999441094,0.016906083,0.005635361,0.005635361,0.005635361,-0.001382488,0.001382488,6.27E-12,-6.68E-12,2.50E-14,-4.49E-13,-0.001406794,0.001406794,-0.001406794,0.001406794,-0.001406794,0.001406794,-0.001406794,0.001406794,-0.001355842,0.001355842,-0.001355842,0.001355842,-7.01E-13,-2.05E-13,1.97E-13,-6.37E-14,-0.001382488,0.001382488,-0.001406794,0.001406794,-0.001406794,0.001406794,-0.001406794,0.001406794,-0.001406794,0.001406794,-0.001355842,0.001355842,-0.001355842,0.001355842,-0.001355842,0.001355842,-0.001355842,0.001355842,-6.53E-12,6.91E-12,-0.001382488,0.001382488,9.04E-14,3.42E-13,-0.001406794,0.001406794,-0.001406794,0.001406794,-0.001406794,0.001406794,-0.001406794,0.001406794,-0.001355842,0.001355842,-0.001355842,0.001355842,0.724739672,0.777246474,1368840,32768,0.005743791,0.005743791,0.005743791,24.87521177,24.86382782,0.000114202,0.000114202,0.000114202,334662.4923,0.017380884
16243200,0.99945677,0.016906332,0.005635444,0.005635444,0.005635444,-0.001382133,0.001382133,6.25E-12,-6.72E-12,-1.84E-14,-4.71E-13,-0.001406456,0.001406456,-0.001406456,0.001406456,-0.001406456,0.001406456,-0.001406456,0.001406456,-0.001355466,0.001355466,-0.001355466,0.001355466,-7.04E-13,-2.30E-13,1.55E-13,-9.28E-14,-0.001382133,0.001382133,-0.001406456,0.001406456,-0.001406456,0.001406456,-0.001406456,0.001406456,-0.001406456,0.001406456,-0.001355466,0.001355466,-0.001355466,0.001355466,-0.001355466,0.001355466,-0.001355466,0.001355466,-6.64E-12,6.81E-12,-0.001382133,0.001382133,-2.25E-14,2.21E-13,-0.001406456,0.001406456,-0.001406456,0.001406456,-0.001406456,0.001406456,-0.001406456,0.001406456,-0.001355466,0.001355466,-0.001355466,0.001355466,0.725121961,0.760901762,1368840,32768,0.005742322,0.005742322,0.005742322,24.70277945,24.69140155,0.000112822,0.000112822,0.000112822,334705.2953,0.017376399
16329600,0.999471851,0.016906571,0.005635524,0.005635524,0.005635524,-0.001381774,0.001381774,6.27E-12,-6.71E-12,4.95E-14,-4.53E-13,-0.001406117,0.001406117,-0.001406117,0.001406117,-0.001406117,0.001406117,-0.001406117,0.001406117,-0.001355085,0.001355085,-0.001355085,0.001355085,-7.14E-13,-1.92E-13,1.99E-13,-2.51E-14,-0.001381774,0.001381774,-0.001406117,0.001406117,-0.001406117,0.001406117,-0.001406117,0.001406117,-0.001406117,0.001406117,-0.001355085,0.001355085,-0.001355085,0.001355085,-0.001355085,0.001355085,-0.001355085,0.001355085,-6.72E-12,6.74E-12,-0.001381774,0.001381774,-4.24E-14,1.76E-13,-0.001406117,0.001406117,-0.001406117,0.001406117,-0.001406117,0.001406117,-0.001406117,0.001406117,-0.001355085,0.001355085,-0.001355085,0.001355085,0.725156529,0.74455705,1368840,32768,0.005740836,0.005740836,0.005740836,24.53034713,24.51897528,0.000111443,0.000111443,0.000111443,334941.2816,0.017371864
16416000,0.999486414,0.016906798,0.005635599,0.005635599,0.005635599,-0.001381522,0.001381522,6.31E-12,-6.72E-12,4.12E-14,-5.31E-13,-0.001405886,0.001405886,-0.001405886,0.001405886,-0.001405886,0.001405886,-0.001405886,0.001405886,-0.00135481,0.00135481,-0.00135481,0.00135481,-8.10E-13,-2.16E-13,2.44E-13,-1.65E-14,-0.001381522,0.001381522,-0.001405886,0.001405886,-0.001405886,0.001405886,-0.001405886,0.001405886,-0.001405886,0.001405886,-0.00135481,0.00135481,-0.00135481,0.00135481,-0.00135481,0.00135481,-0.00135481,0.00135481,-6.68E-12,6.83E-12,-0.001381522,0.001381522,-6.58E-14,1.89E-13,-0.001405886,0.001405886,-0.001405886,0.001405886,-0.001405886,0.001405886,-0.001405886,0.001405886,-0.00135481,0.00135481,-0.00135481,0.00135481,0.711574519,0.523075395,1368840,32768,0.005739792,0.005739792,0.005739792,24.41511004,24.40738463,0.000110521,0.000110521,0.000110521,335314.9988,0.017368678
16502400,0.999500484,0.016907021,0.005635674,0.005635674,0.005635674,-0.001380544,0.001380544,6.22E-12,-6.76E-12,7.82E-14,-5.85E-13,-0.001405295,0.001405295,-0.001405295,0.001405295,-0.001405295,0.001405295,-0.001405295,0.001405295,-0.00135348,0.00135348,-0.00135348,0.00135348,-8.19E-13,-1.34E-13,2.30E-13,-2.25E-14,-0.001380544,0.001380544,-0.001405295,0.001405295,-0.001405295,0.001405295,-0.001405295,0.001405295,-0.001405295,0.001405295,-0.00135348,0.00135348,-0.00135348,0.00135348,-0.00135348,0.00135348,-0.00135348,0.00135348,-6.65E-12,6.81E-12,-0.001380544,0.001380544,-4.69E-14,2.00E-13,-0.001405295,0.001405295,-0.001405295,0.001405295,-0.001405295,0.001405295,-0.001405295,0.001405295,-0.00135348,0.00135348,-0.00135348,0.00135348,0.722475428,0.732485611,1368840,32768,0.005735737,0.005735737,0.005735737,24.30584614,24.29862531,0.000109647,0.000109647,0.000109647,357291.3703,0.017356305
16588800,0.999514081,0.016907239,0.005635746,0.005635746,0.005635746,-0.00138108,0.00138108,6.28E-12,-6.77E-12,5.06E-14,-5.30E-13,-0.001405477,0.001405477,-0.001405477,0.001405477,-0.001405477,0.001405477,-0.001405477,0.001405477,-0.001354342,0.001354342,-0.001354342,0.001354342,-8.05E-13,-2.02E-13,1.52E-13,-3.55E-14,-0.00138108,0.00138108,-0.001405477,0.001405477,-0.001405477,0.001405477,-0.001405477,0.001405477,-0.001405477,0.001405477,-0.001354342,0.001354342,-0.001354342,0.001354342,-0.001354342,0.001354342,-0.001354342,0.001354342,-6.69E-12,6.84E-12,-0.00138108,0.00138108,-3.77E-14,1.44E-13,-0.001405477,0.001405477,-0.001405477,0.001405477,-0.001405477,0.001405477,-0.001405477,0.001405477,-0.001354342,0.001354342,-0.001354342,0.001354342,0.733114933,0.905369568,1368840,32768,0.005737959,0.005737959,0.005737959,24.1970332,24.189866,0.000108776,0.000108776,0.000108776,335758.1619,0.017363084
16675200,0.999527222,0.016907452,0.005635817,0.005635817,0.005635817,-0.001381418,0.001381418,6.26E-12,-6.77E-12,3.34E-14,-5.17E-13,-0.001405555,0.001405555,-0.001405555,0.001405555,-0.001405555,0.001405555,-0.001405555,0.001405555,-0.001354914,0.001354914,-0.001354914,0.001354914,-7.93E-13,-2.21E-13,1.63E-13,-6.99E-14,-0.001381418,0.001381418,-0.001405555,0.001405555,-0.001405555,0.001405555,-0.001405555,0.001405555,-0.001405555,0.001405555,-0.001354914,0.001354914,-0.001354914,0.001354914,-0.001354914,0.001354914,-0.001354914,0.001354914,-6.68E-12,6.84E-12,-0.001381418,0.001381418,-5.17E-14,1.75E-13,-0.001405555,0.001405555,-0.001405555,0.001405555,-0.001405555,0.001405555,-0.001405555,0.001405555,-0.001354914,0.001354914,-0.001354914,0.001354914,0.738816322,0.930268659,1368840,32768,0.005739359,0.005739359,0.005739359,24.08826536,24.08110669,0.000107906,0.000107906,0.000107906,319855.3305,0.017367357
16761600,0.999539926,0.016907659,0.005635886,0.005635886,0.005635886,-0.001381318,0.001381318,6.30E-12,-6.77E-12,1.96E-14,-4.91E-13,-0.001405401,0.001405401,-0.001405401,0.001405401,-0.001405401,0.001405401,-0.001405401,0.001405401,-0.00135485,0.00135485,-0.00135485,0.00135485,-8.00E-13,-2.68E-13,1.58E-13,-1.31E-13,-0.001381318,0.001381318,-0.001405401,0.001405401,-0.001405401,0.001405401,-0.001405401,0.001405401,-0.001405401,0.001405401,-0.00135485,0.00135485,-0.00135485,0.00135485,-0.00135485,0.00135485,-0.00135485,0.00135485,-6.70E-12,6.85E-12,-0.001381318,0.001381318,-8.40E-14,1.99E-13,-0.001405401,0.001405401,-0.001405401,0.001405401,-0.001405401,0.001405401,-0.001405401,0.001405401,-0.00135485,0.00135485,-0.00135485,0.00135485,0.74227973,0.915092567,1368840,32768,0.005738944,0.005738944,0.005738944,23.9795026,23.97234737,0.000107036,0.000107036,0.000107036,315690.0082,0.017366089
16848000,0.999552208,0.016907859,0.005635953,0.005635953,0.005635953,-0.001381104,0.001381104,6.32E-12,-6.75E-12,4.81E-14,-4.98E-13,-0.001405189,0.001405189,-0.001405189,0.001405189,-0.001405189,0.001405189,-0.001405189,0.001405189,-0.001354624,0.001354624,-0.001354624,0.001354624,-8.38E-13,-2.71E-13,1.82E-13,-1.20E-13,-0.001381104,0.001381104,-0.001405189,0.001405189,-0.001405189,0.001405189,-0.001405189,0.001405189,-0.001405189,0.001405189,-0.001354624,0.001354624,-0.001354624,0.001354624,-0.001354624,0.001354624,-0.001354624,0.001354624,-6.69E-12,6.86E-12,-0.001381104,0.001381104,-8.12E-14,2.14E-13,-0.001405189,0.001405189,-0.001405189,0.001405189,-0.001405189,0.001405189,-0.001405189,0.001405189,-0.001354624,0.001354624,-0.001354624,0.001354624,0.744956014,0.899916476,1368840,32768,0.005738058,0.005738058,0.005738058,23.87074041,23.86358806,0.000106166,0.000106166,0.000106166,314710.6772,0.017363385
16934400,0.999564086,0.016908054,0.005636018,0.005636018,0.005636018,-0.001380884,0.001380884,6.26E-12,-6.79E-12,1.88E-14,-5.32E-13,-0.001404976,0.001404976,-0.001404976,0.001404976,-0.001404976,0.001404976,-0.001404976,0.001404976,-0.00135439,0.00135439,-0.00135439,0.00135439,-8.30E-13,-2.58E-13,1.82E-13,-1.00E-13,-0.001380884,0.001380884,-0.001404976,0.001404976,-0.001404976,0.001404976,-0.001404976,0.001404976,-0.001404976,0.001404976,-0.00135439,0.00135439,-0.00135439,0.00135439,-0.00135439,0.00135439,-0.00135439,0.00135439,-6.67E-12,6.86E-12,-0.001380884,0.001380884,-5.57E-14,2.20E-13,-0.001404976,0.001404976,-0.001404976,0.001404976,-0.001404976,0.001404976,-0.001404976,0.001404976,-0.00135439,0.00135439,-0.00135439,0.00135439,0.746976417,0.884740384,1368840,32768,0.005737148,0.005737148,0.005737148,23.76197841,23.75482874,0.000105296,0.000105296,0.000105296,314059.5307,0.017360609
17020800,0.999575573,0.016908241,0.00563608,0.00563608,0.00563608,-0.001380659,0.001380659,6.25E-12,-6.75E-12,5.65E-14,-5.12E-13,-0.001404761,0.001404761,-0.001404761,0.001404761,-0.001404761,0.001404761,-0.001404761,0.001404761,-0.001354149,0.001354149,-0.001354149,0.001354149,-7.78E-13,-1.88E-13,1.87E-13,-6.23E-14,-0.001380659,0.001380659,-0.001404761,0.001404761,-0.001404761,0.001404761,-0.001404761,0.001404761,-0.001404761,0.001404761,-0.001354149,0.001354149,-0.001354149,0.001354149,-0.001354149,0.001354149,-0.001354149,0.001354149,-6.64E-12,6.85E-12,-0.001380659,0.001380659,-3.40E-14,2.09E-13,-0.001404761,0.001404761,-0.001404761,0.001404761,-0.001404761,0.001404761,-0.001404761,0.001404761,-0.001354149,0.001354149,-0.001354149,0.001354149,0.744800639,0.816837359,1368840,32768,0.005736217,0.005736217,0.005736217,23.65321812,23.64606943,0.000104426,0.000104426,0.000104426,313681.8927,0.017357766
17107200,0.999586686,0.016908423,0.005636141,0.005636141,0.005636141,-0.001380273,0.001380273,6.28E-12,-6.70E-12,6.82E-14,-5.11E-13,-0.001404464,0.001404464,-0.001404464,0.001404464,-0.001404464,0.001404464,-0.001404464,0.001404464,-0.001353676,0.001353676,-0.001353676,0.001353676,-8.39E-13,-2.38E-13,1.36E-13,-8.38E-14,-0.001380273,0.001380273,-0.001404464,0.001404464,-0.001404464,0.001404464,-0.001404464,0.001404464,-0.001404464,0.001404464,-0.001353676,0.001353676,-0.001353676,0.001353676,-0.001353676,0.001353676,-0.001353676,0.001353676,-6.68E-12,6.79E-12,-0.001380273,0.001380273,-5.71E-14,1.57E-13,-0.001404464,0.001404464,-0.001404464,0.001404464,-0.001404464,0.001404464,-0.001404464,0.001404464,-0.001353676,0.001353676,-0.001353676,0.001353676,0.743707842,0.785181007,1368840,32768,0.005734616,0.005734616,0.005734616,23.54445709,23.53731012,0.000103556,0.000103556,0.000103556,318021.6589,0.017352881
17193600,0.999597246,0.016908594,0.005636198,0.005636198,0.005636198,-0.001379398,0.001379398,6.29E-12,-6.79E-12,1.34E-13,-4.06E-13,-0.001403645,0.001403645,-0.001403645,0.001403645,-0.001403645,0.001403645,-0.001403645,0.001403645,-0.001352751,0.001352751,-0.001352751,0.001352751,-1.00E-12,-4.37E-13,-9.34E-14,-2.93E-13,-0.001379398,0.001379398,-0.001403645,0.001403645,-0.001403645,0.001403645,-0.001403645,0.001403645,-0.001403645,0.001403645,-0.001352751,0.001352751,-0.001352751,0.001352751,-0.001352751,0.001352751,-0.001352751,0.001352751,-6.69E-12,6.88E-12,-0.001379398,0.001379398,-6.34E-14,1.29E-13,-0.001403645,0.001403645,-0.001403645,0.001403645,-0.001403645,0.001403645,-0.001403645,0.001403645,-0.001352751,0.001352751,-0.001352751,0.001352751,0.740968129,0.736535009,1368840,32768,0.005730992,0.005730992,0.005730992,23.13403302,23.10775806,0.000100272,0.000100272,0.000100272,320087.2808,0.017341822
17280000,0.99960727,0.016908756,0.005636252,0.005636252,0.005636252,-0.001378417,0.001378417,6.27E-12,-6.91E-12,1.24E-14,-5.97E-13,-0.001402741,0.001402741,-0.001402741,0.001402741,-0.001402741,0.001402741,-0.001402741,0.001402741,-0.001351696,0.001351696,-0.001351696,0.001351696,-8.92E-13,-2.59E-13,4.04E-14,-6.23E-14,-0.001378417,0.001378417,-0.001402741,0.001402741,-0.001402741,0.001402741,-0.001402741,0.001402741,-0.001402741,0.001402741,-0.001351696,0.001351696,-0.001351696,0.001351696,-0.001351696,0.001351696,-0.001351696,0.001351696,-6.65E-12,7.01E-12,-0.001378417,0.001378417,1.69E-13,2.63E-13,-0.001402741,0.001402741,-0.001402741,0.001402741,-0.001402741,0.001402741,-0.001402741,0.001402741,-0.001351696,0.001351696,-0.001351696,0.001351696,0.737183584,0.679314409,1368840,32768,0.005726925,0.005726925,0.005726925,22.69913127,22.67070892,9.68E-05,9.68E-05,9.68E-05,323776.7171,0.017329411
17366400,0.999616791,0.016908909,0.005636303,0.005636303,0.005636303,-0.001377393,0.001377393,6.31E-12,-6.82E-12,1.18E-13,-7.42E-13,-0.001401815,0.001401815,-0.001401815,0.001401815,-0.001401815,0.001401815,-0.001401815,0.001401815,-0.001350584,0.001350584,-0.001350584,0.001350584,-1.08E-12,-1.94E-13,1.21E-13,-1.23E-13,-0.001377393,0.001377393,-0.001401815,0.001401815,-0.001401815,0.001401815,-0.001401815,0.001401815,-0.001401815,0.001401815,-0.001350584,0.001350584,-0.001350584,0.001350584,-0.001350584,0.001350584,-0.001350584,0.001350584,-6.85E-12,6.76E-12,-0.001377393,0.001377393,-1.79E-13,5.82E-14,-0.001401815,0.001401815,-0.001401815,0.001401815,-0.001401815,0.001401815,-0.001401815,0.001401815,-0.001350584,0.001350584,-0.001350584,0.001350584,0.73302923,0.621918972,1368840,32768,0.005722686,0.005722686,0.005722686,22.26225297,22.23365977,9.33E-05,9.33E-05,9.33E-05,328622.5379,0.017316474
17452800,0.999625839,0.016909053,0.005636351,0.005636351,0.005636351,-0.001376358,0.001376358,6.27E-12,-6.72E-12,4.05E-13,-5.05E-13,-0.001400882,0.001400882,-0.001400882,0.001400882,-0.001400882,0.001400882,-0.001400882,0.001400882,-0.001349453,0.001349453,-0.001349453,0.001349453,-7.08E-13,2.23E-13,4.02E-13,3.59E-13,-0.001376358,0.001376358,-0.001400882,0.001400882,-0.001400882,0.001400882,-0.001400882,0.001400882,-0.001400882,0.001400882,-0.001349453,0.001349453,-0.001349453,0.001349453,-0.001349453,0.001349453,-0.001349453,0.001349453,-6.52E-12,6.95E-12,-0.001376358,0.001376358,2.78E-13,3.17E-13,-0.001400882,0.001400882,-0.001400882,0.001400882,-0.001400882,0.001400882,-0.001400882,0.001400882,-0.001349453,0.001349453,-0.001349453,0.001349453,0.728726902,0.566015479,1368840,32768,0.005718395,0.005718395,0.005718395,21.82518559,21.79661062,8.98E-05,8.98E-05,8.98E-05,333879.0106,0.017303378
17539200,0.999634442,0.01690919,0.005636397,0.005636397,0.005636397,-0.001375316,0.001375316,6.50E-12,-6.80E-12,3.27E-14,-6.68E-13,-0.001399947,0.001399947,-0.001399947,0.001399947,-0.001399947,0.001399947,-0.001399947,0.001399947,-0.001348314,0.001348314,-0.001348314,0.001348314,-1.12E-12,-3.94E-13,-2.67E-13,-1.17E-13,-0.001375316,0.001375316,-0.001399947,0.001399947,-0.001399947,0.001399947,-0.001399947,0.001399947,-0.001399947,0.001399947,-0.001348314,0.001348314,-0.001348314,0.001348314,-0.001348314,0.001348314,-0.001348314,0.001348314,-6.96E-12,6.83E-12,-0.001375316,0.001375316,2.87E-13,1.31E-13,-0.001399947,0.001399947,-0.001399947,0.001399947,-0.001399947,0.001399947,-0.001399947,0.001399947,-0.001348314,0.001348314,-0.001348314,0.001348314,0.724568794,0.514846231,1368840,32768,0.005714079,0.005714079,0.005714079,21.38809917,21.35956148,8.63E-05,8.63E-05,8.63E-05,339363.9147,0.017290205
17625600,0.999642626,0.016909319,0.00563644,0.00563644,0.00563644,-0.001374281,0.001374281,6.32E-12,-6.80E-12,1.15E-13,-5.75E-13,-0.001399015,0.001399015,-0.001399015,0.001399015,-0.001399015,0.001399015,-0.001399015,0.001399015,-0.001347185,0.001347185,-0.001347185,0.001347185,-6.98E-13,1.55E-14,1.87E-13,3.53E-13,-0.001374281,0.001374281,-0.001399015,0.001399015,-0.001399015,0.001399015,-0.001399015,0.001399015,-0.001399015,0.001399015,-0.001347185,0.001347185,-0.001347185,0.001347185,-0.001347185,0.001347185,-0.001347185,0.001347185,-6.85E-12,6.76E-12,-0.001374281,0.001374281,1.65E-13,-3.96E-15,-0.001399015,0.001399015,-0.001399015,0.001399015,-0.001399015,0.001399015,-0.001399015,0.001399015,-0.001347185,0.001347185,-0.001347185,0.001347185,0.721339671,0.479205021,1368840,32768,0.00570979,0.00570979,0.00570979,20.95101061,20.92251233,8.28E-05,8.28E-05,8.28E-05,344681.5977,0.017277116
17712000,0.999650416,0.016909442,0.005636481,0.005636481,0.005636481,-0.001373298,0.001373298,6.33E-12,-6.82E-12,-2.95E-15,-5.03E-13,-0.00139811,0.00139811,-0.00139811,0.00139811,-0.00139811,0.00139811,-0.00139811,0.00139811,-0.001346131,0.001346131,-0.001346131,0.001346131,-9.40E-13,-4.19E-13,-9.42E-15,1.14E-13,-0.001373298,0.001373298,-0.00139811,0.00139811,-0.00139811,0.00139811,-0.00139811,0.00139811,-0.00139811,0.00139811,-0.001346131,0.001346131,-0.001346131,0.001346131,-0.001346131,0.001346131,-0.001346131,0.001346131,-6.81E-12,6.82E-12,-0.001373298,0.001373298,3.85E-14,-8.92E-14,-0.00139811,0.00139811,-0.00139811,0.00139811,-0.00139811,0.00139811,-0.00139811,0.00139811,-0.001346131,0.001346131,-0.001346131,0.001346131,0.718092453,0.443563811,1368840,32768,0.005705718,0.005705718,0.005705718,20.51457328,20.4861557,7.93E-05,7.93E-05,7.93E-05,348529.502,0.01726469
17798400,0.999657843,0.016909558,0.005636519,0.005636519,0.005636519,-0.001372341,0.001372341,6.27E-12,-6.85E-12,-5.55E-14,-5.09E-13,-0.001397233,0.001397233,-0.001397233,0.001397233,-0.001397233,0.001397233,-0.001397233,0.001397233,-0.001345102,0.001345102,-0.001345102,0.001345102,-6.81E-13,-2.08E-13,8.22E-14,1.86E-13,-0.001372341,0.001372341,-0.001397233,0.001397233,-0.001397233,0.001397233,-0.001397233,0.001397233,-0.001397233,0.001397233,-0.001345102,0.001345102,-0.001345102,0.001345102,-0.001345102,0.001345102,-0.001345102,0.001345102,-6.70E-12,6.90E-12,-0.001372341,0.001372341,1.54E-13,4.65E-14,-0.001397233,0.001397233,-0.001397233,0.001397233,-0.001397233,0.001397233,-0.001397233,0.001397233,-0.001345102,0.001345102,-0.001345102,0.001345102,0.71483185,0.4079226,1368840,32768,0.005701755,0.005701755,0.005701755,20.09408701,20.06671178,7.60E-05,7.60E-05,7.60E-05,352501.3135,0.017252594
17884800,0.999664923,0.016909668,0.005636556,0.005636556,0.005636556,-0.001371365,0.001371365,6.60E-12,-6.64E-12,1.38E-13,-9.00E-14,-0.001396336,0.001396336,-0.001396336,0.001396336,-0.001396336,0.001396336,-0.001396336,0.001396336,-0.001344054,0.001344054,-0.001344054,0.001344054,-6.37E-13,-3.84E-13,1.25E-13,7.37E-14,-0.001371365,0.001371365,-0.001396336,0.001396336,-0.001396336,0.001396336,-0.001396336,0.001396336,-0.001396336,0.001396336,-0.001344054,0.001344054,-0.001344054,0.001344054,-0.001344054,0.001344054,-0.001344054,0.001344054,-6.60E-12,7.13E-12,-0.001371365,0.001371365,2.57E-13,3.03E-13,-0.001396336,0.001396336,-0.001396336,0.001396336,-0.001396336,0.001396336,-0.001396336,0.001396336,-0.001344054,0.001344054,-0.001344054,0.001344054,0.711561461,0.37228139,1368840,32768,0.005697712,0.005697712,0.005697712,19.66625403,19.64726786,7.25E-05,7.25E-05,7.25E-05,356552.5162,0.017240258
17971200,0.999671678,0.016909774,0.005636591,0.005636591,0.005636591,-0.001370399,0.001370399,6.52E-12,-6.81E-12,-6.78E-14,-2.91E-13,-0.001395455,0.001395455,-0.001395455,0.001395455,-0.001395455,0.001395455,-0.001395455,0.001395455,-0.001343012,0.001343012,-0.001343012,0.001343012,-9.08E-13,-6.66E-13,-7.83E-14,-1.34E-13,-0.001370399,0.001370399,-0.001395455,0.001395455,-0.001395455,0.001395455,-0.001395455,0.001395455,-0.001395455,0.001395455,-0.001343012,0.001343012,-0.001343012,0.001343012,-0.001343012,0.001343012,-0.001343012,0.001343012,-6.88E-12,6.94E-12,-0.001370399,0.001370399,1.11E-13,1.63E-13,-0.001395455,0.001395455,-0.001395455,0.001395455,-0.001395455,0.001395455,-0.001395455,0.001395455,-0.001343012,0.001343012,-0.001343012,0.001343012,0.711457685,0.384455158,1368840,32768,0.00569371,0.00569371,0.00569371,19.24628334,19.22782393,6.92E-05,6.92E-05,6.92E-05,360840.2801,0.017228044
18057600,0.999678128,0.016909875,0.005636625,0.005636625,0.005636625,-0.001369636,0.001369636,6.25E-12,-6.99E-12,-2.41E-13,-4.95E-13,-0.001394677,0.001394677,-0.001394677,0.001394677,-0.001394677,0.001394677,-0.001394677,0.001394677,-0.001342262,0.001342262,-0.001342262,0.001342262,-5.53E-13,-2.78E-13,1.39E-13,-6.26E-15,-0.001369636,0.001369636,-0.001394677,0.001394677,-0.001394677,0.001394677,-0.001394677,0.001394677,-0.001394677,0.001394677,-0.001342262,0.001342262,-0.001342262,0.001342262,-0.001342262,0.001342262,-0.001342262,0.001342262,-6.77E-12,6.96E-12,-0.001369636,0.001369636,-5.62E-14,7.86E-14,-0.001394677,0.001394677,-0.001394677,0.001394677,-0.001394677,0.001394677,-0.001394677,0.001394677,-0.001342262,0.001342262,-0.001342262,0.001342262,0.713811085,0.433433344,1368840,32768,0.005690545,0.005690545,0.005690545,18.82680412,18.80838001,6.58E-05,6.58E-05,6.58E-05,359159.3225,0.017218387
18144000,0.999684288,0.016909971,0.005636657,0.005636657,0.005636657,-0.001369024,0.001369024,6.13E-12,-7.11E-12,-2.75E-13,-4.59E-13,-0.001393976,0.001393976,-0.001393976,0.001393976,-0.001393976,0.001393976,-0.001393976,0.001393976,-0.001341735,0.001341735,-0.001341735,0.001341735,-5.04E-13,-2.89E-13,1.66E-13,1.57E-13,-0.001369024,0.001369024,-0.001393976,0.001393976,-0.001393976,0.001393976,-0.001393976,0.001393976,-0.001393976,0.001393976,-0.001341735,0.001341735,-0.001341735,0.001341735,-0.001341735,0.001341735,-0.001341735,0.001341735,-6.66E-12,7.05E-12,-0.001369024,0.001369024,2.65E-13,2.68E-13,-0.001393976,0.001393976,-0.001393976,0.001393976,-0.001393976,0.001393976,-0.001393976,0.001393976,-0.001341735,0.001341735,-0.001341735,0.001341735,0.715349824,0.467648764,1368840,32768,0.005688012,0.005688012,0.005688012,18.40735775,18.38893609,6.25E-05,6.25E-05,6.25E-05,352970.5774,0.017210656
18230400,0.999690174,0.016910063,0.005636688,0.005636688,0.005636688,-0.001368349,0.001368349,6.35E-12,-6.85E-12,-1.42E-13,-3.52E-13,-0.001393235,0.001393235,-0.001393235,0.001393235,-0.001393235,0.001393235,-0.001393235,0.001393235,-0.001341121,0.001341121,-0.001341121,0.001341121,-6.89E-13,-4.59E-13,6.55E-14,-6.66E-14,-0.001368349,0.001368349,-0.001393235,0.001393235,-0.001393235,0.001393235,-0.001393235,0.001393235,-0.001393235,0.001393235,-0.001341121,0.001341121,-0.001341121,0.001341121,-0.001341121,0.001341121,-0.001341121,0.001341121,-6.79E-12,6.90E-12,-0.001368349,0.001368349,1.29E-14,1.38E-13,-0.001393235,0.001393235,-0.001393235,0.001393235,-0.001393235,0.001393235,-0.001393235,0.001393235,-0.001341121,0.001341121,-0.001341121,0.001341121,0.715593118,0.479629166,1368840,32768,0.005685216,0.005685216,0.005685216,17.98791359,17.96949217,5.91E-05,5.91E-05,5.91E-05,348544.3963,0.017202123
18316800,0.999695812,0.016910152,0.005636717,0.005636717,0.005636717,-0.001367646,0.001367646,6.34E-12,-6.80E-12,-1.72E-13,-3.48E-13,-0.001392513,0.001392513,-0.001392513,0.001392513,-0.001392513,0.001392513,-0.001392513,0.001392513,-0.001340437,0.001340437,-0.001340437,0.001340437,-6.18E-13,-4.18E-13,7.82E-14,7.02E-15,-0.001367646,0.001367646,-0.001392513,0.001392513,-0.001392513,0.001392513,-0.001392513,0.001392513,-0.001392513,0.001392513,-0.001340437,0.001340437,-0.001340437,0.001340437,-0.001340437,0.001340437,-0.001340437,0.001340437,-6.70E-12,6.93E-12,-0.001367646,0.001367646,5.84E-14,1.24E-13,-0.001392513,0.001392513,-0.001392513,0.001392513,-0.001392513,0.001392513,-0.001392513,0.001392513,-0.001340437,0.001340437,-0.001340437,0.001340437,0.715885399,0.491609567,1368840,32768,0.005682304,0.005682304,0.005682304,17.5993444,17.58224809,5.60E-05,5.60E-05,5.60E-05,346729.1433,0.017193238
18403200,0.999701307,0.016910238,0.005636746,0.005636746,0.005636746,-0.001367474,0.001367474,6.38E-12,-6.75E-12,-8.70E-14,-2.92E-13,-0.001392316,0.001392316,-0.001392316,0.001392316,-0.001392316,0.001392316,-0.001392316,0.001392316,-0.001340287,0.001340287,-0.001340287,0.001340287,-6.77E-13,-4.51E-13,2.30E-14,-3.17E-14,-0.001367474,0.001367474,-0.001392316,0.001392316,-0.001392316,0.001392316,-0.001392316,0.001392316,-0.001392316,0.001392316,-0.001340287,0.001340287,-0.001340287,0.001340287,-0.001340287,0.001340287,-0.001340287,0.001340287,-6.74E-12,6.88E-12,-0.001367474,0.001367474,2.60E-14,7.53E-14,-0.001392316,0.001392316,-0.001392316,0.001392316,-0.001392316,0.001392316,-0.001392316,0.001392316,-0.001340287,0.001340287,-0.001340287,0.001340287,0.716217681,0.503589969,1368840,32768,0.00568159,0.00568159,0.00568159,17.48530348,17.48001874,5.51E-05,5.51E-05,5.51E-05,344794.4785,0.017191059
18489600,0.999706669,0.016910322,0.005636774,0.005636774,0.005636774,-0.001367323,0.001367323,6.37E-12,-6.73E-12,-6.43E-14,-3.11E-13,-0.001392145,0.001392145,-0.001392145,0.001392145,-0.001392145,0.001392145,-0.001392145,0.001392145,-0.001340155,0.001340155,-0.001340155,0.001340155,-6.93E-13,-4.24E-13,3.19E-14,-2.49E-14,-0.001367323,0.001367323,-0.001392145,0.001392145,-0.001392145,0.001392145,-0.001392145,0.001392145,-0.001392145,0.001392145,-0.001340155,0.001340155,-0.001340155,0.001340155,-0.001340155,0.001340155,-0.001340155,0.001340155,-6.75E-12,6.84E-12,-0.001367323,0.001367323,1.16E-14,6.28E-14,-0.001392145,0.001392145,-0.001392145,0.001392145,-0.001392145,0.001392145,-0.001392145,0.001392145,-0.001340155,0.001340155,-0.001340155,0.001340155,0.716586766,0.51557037,1368840,32768,0.005680964,0.005680964,0.005680964,17.38233256,17.37778939,5.43E-05,5.43E-05,5.43E-05,342969.4419,0.017189146
18576000,0.9997119,0.016910404,0.005636801,0.005636801,0.005636801,-0.001367173,0.001367173,6.41E-12,-6.71E-12,-3.38E-14,-2.92E-13,-0.001391976,0.001391976,-0.001391976,0.001391976,-0.001391976,0.001391976,-0.001391976,0.001391976,-0.001340023,0.001340023,-0.001340023,0.001340023,-6.79E-13,-3.99E-13,1.67E-14,-3.01E-14,-0.001367173,0.001367173,-0.001391976,0.001391976,-0.001391976,0.001391976,-0.001391976,0.001391976,-0.001391976,0.001391976,-0.001340023,0.001340023,-0.001340023,0.001340023,-0.001340023,0.001340023,-0.001340023,0.001340023,-6.79E-12,6.82E-12,-0.001367173,0.001367173,-2.37E-14,1.88E-14,-0.001391976,0.001391976,-0.001391976,0.001391976,-0.001391976,0.001391976,-0.001391976,0.001391976,-0.001340023,0.001340023,-0.001340023,0.001340023,0.711770781,0.444918185,1368840,32768,0.005680342,0.005680342,0.005680342,17.28005344,17.27556004,5.34E-05,5.34E-05,5.34E-05,341157.264,0.017187249
18662400,0.999717006,0.016910484,0.005636828,0.005636828,0.005636828,-0.001366706,0.001366706,6.37E-12,-6.75E-12,-5.00E-14,-3.17E-13,-0.001391647,0.001391647,-0.001391647,0.001391647,-0.001391647,0.001391647,-0.001391647,0.001391647,-0.001339432,0.001339432,-0.001339432,0.001339432,-7.14E-13,-4.24E-13,1.52E-14,-2.47E-14,-0.001366706,0.001366706,-0.001391647,0.001391647,-0.001391647,0.001391647,-0.001391647,0.001391647,-0.001391647,0.001391647,-0.001339432,0.001339432,-0.001339432,0.001339432,-0.001339432,0.001339432,-0.001339432,0.001339432,-6.76E-12,6.85E-12,-0.001366706,0.001366706,1.81E-14,5.28E-14,-0.001391647,0.001391647,-0.001391647,0.001391647,-0.001391647,0.001391647,-0.001391647,0.001391647,-0.001339432,0.001339432,-0.001339432,0.001339432,0.717343094,0.545345544,1368840,32768,0.005678409,0.005678409,0.005678409,17.17782067,17.17333069,5.26E-05,5.26E-05,5.26E-05,348626.0479,0.017181352
18748800,0.999721988,0.016910563,0.005636854,0.005636854,0.005636854,-0.001366889,0.001366889,6.36E-12,-6.75E-12,-4.90E-14,-3.27E-13,-0.001391645,0.001391645,-0.001391645,0.001391645,-0.001391645,0.001391645,-0.001391645,0.001391645,-0.001339786,0.001339786,-0.001339786,0.001339786,-7.15E-13,-4.15E-13,1.33E-14,-1.78E-14,-0.001366889,0.001366889,-0.001391645,0.001391645,-0.001391645,0.001391645,-0.001391645,0.001391645,-0.001391645,0.001391645,-0.001339786,0.001339786,-0.001339786,0.001339786,-0.001339786,0.001339786,-0.001339786,0.001339786,-6.75E-12,6.85E-12,-0.001366889,0.001366889,1.72E-14,4.32E-14,-0.001391645,0.001391645,-0.001391645,0.001391645,-0.001391645,0.001391645,-0.001391645,0.001391645,-0.001339786,0.001339786,-0.001339786,0.001339786,0.722793009,0.644896929,1368840,32768,0.005679166,0.005679166,0.005679166,17.07559101,17.07110134,5.18E-05,5.18E-05,5.18E-05,337114.43,0.017183661
18835200,0.999726852,0.01691064,0.00563688,0.00563688,0.00563688,-0.00136704,0.00136704,6.38E-12,-6.75E-12,-6.08E-14,-3.04E-13,-0.001391627,0.001391627,-0.001391627,0.001391627,-0.001391627,0.001391627,-0.001391627,0.001391627,-0.001340094,0.001340094,-0.001340094,0.001340094,-6.98E-13,-4.33E-13,2.32E-14,-1.31E-14,-0.00136704,0.00136704,-0.001391627,0.001391627,-0.001391627,0.001391627,-0.001391627,0.001391627,-0.001391627,0.001391627,-0.001340094,0.001340094,-0.001340094,0.001340094,-0.001340094,0.001340094,-0.001340094,0.001340094,-6.75E-12,6.87E-12,-0.00136704,0.00136704,1.87E-14,4.99E-14,-0.001391627,0.001391627,-0.001391627,0.001391627,-0.001391627,0.001391627,-0.001391627,0.001391627,-0.001340094,0.001340094,-0.001340094,0.001340094,0.724423923,0.671411213,1368840,32768,0.005679794,0.005679794,0.005679794,16.9733616,16.96887199,5.10E-05,5.10E-05,5.10E-05,326649.8359,0.017185576
18921600,0.9997316,0.016910716,0.005636905,0.005636905,0.005636905,-0.001366938,0.001366938,6.36E-12,-6.76E-12,-5.38E-14,-3.08E-13,-0.00139148,0.00139148,-0.00139148,0.00139148,-0.00139148,0.00139148,-0.00139148,0.00139148,-0.001340033,0.001340033,-0.001340033,0.001340033,-6.92E-13,-4.16E-13,2.97E-14,-1.47E-14,-0.001366938,0.001366938,-0.00139148,0.00139148,-0.00139148,0.00139148,-0.00139148,0.00139148,-0.00139148,0.00139148,-0.001340033,0.001340033,-0.001340033,0.001340033,-0.001340033,0.001340033,-0.001340033,0.001340033,-6.75E-12,6.86E-12,-0.001366938,0.001366938,1.97E-14,5.89E-14,-0.00139148,0.00139148,-0.00139148,0.00139148,-0.00139148,0.00139148,-0.00139148,0.00139148,-0.001340033,0.001340033,-0.001340033,0.001340033,0.72615956,0.697925496,1368840,32768,0.005679369,0.005679369,0.005679369,16.87113218,16.86664264,5.02E-05,5.02E-05,5.02E-05,323439.0814,0.01718428
19008000,0.999736235,0.01691079,0.00563693,0.00563693,0.00563693,-0.001366834,0.001366834,6.38E-12,-6.76E-12,-7.88E-14,-2.79E-13,-0.001391334,0.001391334,-0.001391334,0.001391334,-0.001391334,0.001391334,-0.001391334,0.001391334,-0.001339969,0.001339969,-0.001339969,0.001339969,-6.98E-13,-4.75E-13,1.16E-14,-1.70E-14,-0.001366834,0.001366834,-0.001391334,0.001391334,-0.001391334,0.001391334,-0.001391334,0.001391334,-0.001391334,0.001391334,-0.001339969,0.001339969,-0.001339969,0.001339969,-0.001339969,0.001339969,-0.001339969,0.001339969,-6.78E-12,6.85E-12,-0.001366834,0.001366834,9.65E-16,2.41E-14,-0.001391334,0.001391334,-0.001391334,0.001391334,-0.001391334,0.001391334,-0.001391334,0.001391334,-0.001339969,0.001339969,-0.001339969,0.001339969,0.730768366,0.772442473,1368840,32768,0.005678939,0.005678939,0.005678939,16.7689026,16.76441329,4.94E-05,4.94E-05,4.94E-05,320271.6138,0.017182967
19094400,0.999740772,0.016910863,0.005636954,0.005636954,0.005636954,-0.00136695,0.00136695,6.41E-12,-6.76E-12,-5.77E-14,-2.82E-13,-0.001391335,0.001391335,-0.001391335,0.001391335,-0.001391335,0.001391335,-0.001391335,0.001391335,-0.001340191,0.001340191,-0.001340191,0.001340191,-6.89E-13,-4.43E-13,7.92E-15,-1.73E-14,-0.00136695,0.00136695,-0.001391335,0.001391335,-0.001391335,0.001391335,-0.001391335,0.001391335,-0.001391335,0.001391335,-0.001340191,0.001340191,-0.001340191,0.001340191,-0.001340191,0.001340191,-0.001340191,0.001340191,-6.78E-12,6.87E-12,-0.00136695,0.00136695,3.25E-14,5.25E-14,-0.001391335,0.001391335,-0.001391335,0.001391335,-0.001391335,0.001391335,-0.001391335,0.001391335,-0.001340191,0.001340191,-0.001340191,0.001340191,0.731859699,0.772337238,1368840,32768,0.005679421,0.005679421,0.005679421,16.70541731,16.70259061,4.88E-05,4.88E-05,4.88E-05,312975.912,0.017184437
19180800,0.999745292,0.016910936,0.005636979,0.005636979,0.005636979,-0.001367377,0.001367377,6.51E-12,-6.66E-12,4.88E-14,-1.71E-13,-0.001391749,0.001391749,-0.001391749,0.001391749,-0.001391749,0.001391749,-0.001391749,0.001391749,-0.001340624,0.001340624,-0.001340624,0.001340624,-7.20E-13,-4.79E-13,-4.39E-14,-4.21E-14,-0.001367377,0.001367377,-0.001391749,0.001391749,-0.001391749,0.001391749,-0.001391749,0.001391749,-0.001391749,0.001391749,-0.001340624,0.001340624,-0.001340624,0.001340624,-0.001340625,0.001340624,-0.001340625,0.001340624,-6.87E-12,6.79E-12,-0.001367377,0.001367377,2.65E-14,2.07E-14,-0.001391749,0.001391749,-0.001391749,0.001391749,-0.001391749,0.001391749,-0.001391749,0.001391749,-0.001340624,0.001340625,-0.001340625,0.001340624,0.740438633,0.914250687,1368840,32768,0.005681188,0.005681188,0.005681188,16.91937638,16.92849102,5.06E-05,5.06E-05,5.06E-05,311798.5378,0.017189829
19267200,0.999749796,0.016911009,0.005637003,0.005637003,0.005637003,-0.001368223,0.001368223,6.41E-12,-6.76E-12,-7.42E-14,-2.82E-13,-0.001392395,0.001392395,-0.001392395,0.001392395,-0.001392395,0.001392395,-0.001392395,0.001392395,-0.001341653,0.001341653,-0.001341653,0.001341653,-6.96E-13,-4.67E-13,-1.54E-14,9.20E-15,-0.001368223,0.001368223,-0.001392395,0.001392395,-0.001392395,0.001392395,-0.001392395,0.001392395,-0.001392395,0.001392395,-0.001341653,0.001341653,-0.001341653,0.001341653,-0.001341653,0.001341653,-0.001341653,0.001341653,-6.81E-12,6.85E-12,-0.001368223,0.001368223,2.88E-14,-4.00E-16,-0.001392395,0.001392395,-0.001392395,0.001392395,-0.001392395,0.001392395,-0.001392395,0.001392395,-0.001341653,0.001341653,-0.001341653,0.001341653,0.741736903,0.875743105,1368840,32768,0.005684696,0.005684696,0.005684696,17.14452688,17.15439143,5.24E-05,5.24E-05,5.24E-05,299714.5751,0.017200532
19353600,0.999754284,0.016911082,0.005637027,0.005637027,0.005637027,-0.00136858,0.00136858,6.43E-12,-6.72E-12,-9.03E-14,-2.36E-13,-0.001392787,0.001392787,-0.001392787,0.001392787,-0.001392787,0.001392787,-0.001392787,0.001392787,-0.001341969,0.001341969,-0.001341969,0.001341969,-6.78E-13,-5.11E-13,-3.99E-14,7.25E-15,-0.00136858,0.00136858,-0.001392787,0.001392787,-0.001392787,0.001392787,-0.001392787,0.001392787,-0.001392787,0.001392787,-0.001341969,0.001341969,-0.001341969,0.001341969,-0.001341969,0.001341969,-0.001341969,0.001341969,-6.80E-12,6.84E-12,-0.00136858,0.00136858,6.41E-14,1.22E-14,-0.001392787,0.001392787,-0.001392787,0.001392787,-0.001392787,0.001392787,-0.001392787,0.001392787,-0.001341969,0.001341969,-0.001341969,0.001341969,0.741868598,0.837235523,1368840,32768,0.005686173,0.005686173,0.005686173,17.37037663,17.38029184,5.42E-05,5.42E-05,5.42E-05,300856.9118,0.017205041
19440000,0.999758754,0.016911155,0.005637052,0.005637052,0.005637052,-0.001368928,0.001368928,6.58E-12,-6.52E-12,3.80E-14,-1.10E-13,-0.001393175,0.001393175,-0.001393175,0.001393175,-0.001393175,0.001393175,-0.001393175,0.001393175,-0.001342274,0.001342274,-0.001342274,0.001342274,-8.05E-13,-6.39E-13,-1.61E-13,-1.72E-13,-0.001368928,0.001368928,-0.001393175,0.001393175,-0.001393175,0.001393175,-0.001393175,0.001393175,-0.001393175,0.001393175,-0.001342274,0.001342274,-0.001342274,0.001342274,-0.001342274,0.001342274,-0.001342274,0.001342274,-6.89E-12,6.69E-12,-0.001368928,0.001368928,-1.07E-13,-9.83E-14,-0.001393175,0.001393175,-0.001393175,0.001393175,-0.001393175,0.001393175,-0.001393175,0.001393175,-0.001342274,0.001342274,-0.001342274,0.001342274,0.741059427,0.798727942,1368840,32768,0.005687615,0.005687615,0.005687615,17.59627321,17.60619225,5.60E-05,5.60E-05,5.60E-05,302459.2436,0.017209442
19526400,0.999763206,0.016911227,0.005637076,0.005637076,0.005637076,-0.001369268,0.001369268,6.35E-12,-6.74E-12,-8.20E-14,-2.72E-13,-0.001393562,0.001393562,-0.001393562,0.001393562,-0.001393562,0.001393562,-0.001393562,0.001393562,-0.001342568,0.001342568,-0.001342568,0.001342568,-6.74E-13,-4.62E-13,-9.93E-14,-9.85E-14,-0.001369268,0.001369268,-0.001393562,0.001393562,-0.001393562,0.001393562,-0.001393562,0.001393562,-0.001393562,0.001393562,-0.001342568,0.001342568,-0.001342568,0.001342568,-0.001342568,0.001342568,-0.001342568,0.001342568,-6.76E-12,6.81E-12,-0.001369268,0.001369268,-7.98E-15,-1.45E-14,-0.001393562,0.001393562,-0.001393562,0.001393562,-0.001393562,0.001393562,-0.001393562,0.001393562,-0.001342568,0.001342568,-0.001342568,0.001342568,0.739538566,0.76022036,1368840,32768,0.005689024,0.005689024,0.005689024,17.82217299,17.83209266,5.78E-05,5.78E-05,5.78E-05,304483.5675,0.017213742
19612800,0.999767637,0.016911299,0.0056371,0.0056371,0.0056371,-0.001369601,0.001369601,6.37E-12,-6.73E-12,-4.57E-14,-2.80E-13,-0.001393948,0.001393948,-0.001393948,0.001393948,-0.001393948,0.001393948,-0.001393948,0.001393948,-0.00134285,0.00134285,-0.00134285,0.00134285,-7.38E-13,-4.81E-13,-1.14E-13,-1.03E-13,-0.001369601,0.001369601,-0.001393948,0.001393948,-0.001393948,0.001393948,-0.001393948,0.001393948,-0.001393948,0.001393948,-0.00134285,0.00134285,-0.00134285,0.00134285,-0.00134285,0.00134285,-0.00134285,0.00134285,-6.84E-12,6.75E-12,-0.001369601,0.001369601,2.58E-14,9.77E-15,-0.001393948,0.001393948,-0.001393948,0.001393948,-0.001393948,0.001393948,-0.001393948,0.001393948,-0.00134285,0.00134285,-0.00134285,0.00134285,0.737517016,0.721712778,1368840,32768,0.005690404,0.005690404,0.005690404,18.04807305,18.05799307,5.96E-05,5.96E-05,5.96E-05,306866.6895,0.017217952
19699200,0.999772048,0.01691137,0.005637123,0.005637123,0.005637123,-0.001369928,0.001369928,6.40E-12,-6.73E-12,-3.70E-14,-3.67E-13,-0.001394331,0.001394331,-0.001394331,0.001394331,-0.001394331,0.001394331,-0.001394331,0.001394331,-0.001343124,0.001343124,-0.001343124,0.001343124,-7.19E-13,-3.65E-13,1.31E-14,7.78E-14,-0.001369928,0.001369928,-0.001394331,0.001394331,-0.001394331,0.001394331,-0.001394331,0.001394331,-0.001394331,0.001394331,-0.001343124,0.001343124,-0.001343124,0.001343124,-0.001343124,0.001343124,-0.001343124,0.001343124,-6.86E-12,6.76E-12,-0.001369928,0.001369928,4.09E-14,-2.80E-14,-0.001394331,0.001394331,-0.001394331,0.001394331,-0.001394331,0.001394331,-0.001394331,0.001394331,-0.001343124,0.001343124,-0.001343124,0.001343124,0.735152123,0.683205196,1368840,32768,0.005691757,0.005691757,0.005691757,18.27397319,18.28389348,6.14E-05,6.14E-05,6.14E-05,309513.358,0.017222083
19785600,0.999776436,0.01691144,0.005637147,0.005637147,0.005637147,-0.001370249,0.001370249,6.43E-12,-6.81E-12,-4.36E-15,-4.13E-13,-0.001394712,0.001394712,-0.001394712,0.001394712,-0.001394712,0.001394712,-0.001394712,0.001394712,-0.00134339,0.00134339,-0.00134339,0.00134339,-7.04E-13,-2.74E-13,8.94E-14,1.13E-13,-0.001370249,0.001370249,-0.001394712,0.001394712,-0.001394712,0.001394712,-0.001394712,0.001394712,-0.001394712,0.001394712,-0.00134339,0.00134339,-0.00134339,0.00134339,-0.00134339,0.00134339,-0.00134339,0.00134339,-6.89E-12,6.83E-12,-0.001370249,0.001370249,2.42E-15,-2.57E-14,-0.001394712,0.001394712,-0.001394712,0.001394712,-0.001394712,0.001394712,-0.001394712,0.001394712,-0.00134339,0.00134339,-0.00134339,0.00134339,0.732543545,0.644697614,1368840,32768,0.005693087,0.005693087,0.005693087,18.49987339,18.50979389,6.32E-05,6.32E-05,6.32E-05,312390.9238,0.017226141
19872000,0.999780792,0.01691151,0.00563717,0.00563717,0.00563717,-0.0013705,0.0013705,6.28E-12,-6.93E-12,-9.34E-14,-5.39E-13,-0.001395026,0.001395026,-0.001395026,0.001395026,-0.001395026,0.001395026,-0.001395026,0.001395026,-0.001343583,0.001343583,-0.001343583,0.001343583,-8.45E-13,-3.79E-13,-3.47E-14,-1.93E-14,-0.0013705,0.0013705,-0.001395026,0.001395026,-0.001395026,0.001395026,-0.001395026,0.001395026,-0.001395026,0.001395026,-0.001343583,0.001343583,-0.001343583,0.001343583,-0.001343583,0.001343583,-0.001343583,0.001343583,-6.83E-12,6.87E-12,-0.0013705,0.0013705,4.85E-14,2.85E-14,-0.001395026,0.001395026,-0.001395026,0.001395026,-0.001395026,0.001395026,-0.001395026,0.001395026,-0.001343583,0.001343583,-0.001343583,0.001343583,0.728470242,0.586137538,1368840,32768,0.005694126,0.005694126,0.005694126,18.69223374,18.70071511,6.47E-05,6.47E-05,6.47E-05,315486.8694,0.017229312
19958400,0.999785061,0.016911578,0.005637193,0.005637193,0.005637193,-0.001370292,0.001370292,6.37E-12,-6.82E-12,2.30E-14,-4.48E-13,-0.001394923,0.001394923,-0.001394923,0.001394923,-0.001394923,0.001394923,-0.001394923,0.001394923,-0.001343281,0.001343281,-0.001343281,0.001343281,-7.69E-13,-2.76E-13,2.79E-14,2.97E-14,-0.001370292,0.001370292,-0.001394923,0.001394923,-0.001394923,0.001394923,-0.001394923,0.001394923,-0.001394923,0.001394923,-0.001343281,0.001343281,-0.001343281,0.001343281,-0.001343281,0.001343281,-0.001343281,0.001343281,-6.79E-12,6.89E-12,-0.001370292,0.001370292,3.94E-14,3.28E-14,-0.001394923,0.001394923,-0.001394923,0.001394923,-0.001394923,0.001394923,-0.001394923,0.001394923,-0.001343281,0.001343281,-0.001343281,0.001343281,0.734899631,0.706844128,1368840,32768,0.005693267,0.005693267,0.005693267,18.68511887,18.68500753,6.47E-05,6.47E-05,6.47E-05,320819.8959,0.017226692
20044800,0.999789242,0.016911646,0.005637215,0.005637215,0.005637215,-0.00137065,0.00137065,6.37E-12,-6.82E-12,1.75E-14,-4.52E-13,-0.001395096,0.001395096,-0.001395096,0.001395096,-0.001395096,0.001395096,-0.001395096,0.001395096,-0.00134381,0.00134381,-0.00134381,0.00134381,-7.76E-13,-2.84E-13,3.26E-14,3.61E-14,-0.00137065,0.00137065,-0.001395096,0.001395096,-0.001395096,0.001395096,-0.001395096,0.001395096,-0.001395096,0.001395096,-0.00134381,0.00134381,-0.00134381,0.00134381,-0.00134381,0.00134381,-0.00134381,0.00134381,-6.80E-12,6.88E-12,-0.00137065,0.00137065,3.52E-14,2.67E-14,-0.001395096,0.001395096,-0.001395096,0.001395096,-0.001395096,0.001395096,-0.001395096,0.001395096,-0.00134381,0.00134381,-0.00134381,0.00134381,0.737111715,0.742877861,1368840,32768,0.005694747,0.005694747,0.005694747,18.66995085,18.66929994,6.46E-05,6.46E-05,6.46E-05,309474.8391,0.017231206
20131200,0.999793339,0.016911712,0.005637237,0.005637237,0.005637237,-0.001370733,0.001370733,6.38E-12,-6.81E-12,1.64E-14,-4.46E-13,-0.001395126,0.001395126,-0.001395126,0.001395126,-0.001395126,0.001395126,-0.001395126,0.001395126,-0.001343942,0.001343942,-0.001343942,0.001343942,-7.71E-13,-2.86E-13,3.43E-14,3.36E-14,-0.001370733,0.001370733,-0.001395126,0.001395126,-0.001395126,0.001395126,-0.001395126,0.001395126,-0.001395126,0.001395126,-0.001343942,0.001343942,-0.001343942,0.001343942,-0.001343942,0.001343942,-0.001343942,0.001343942,-6.80E-12,6.88E-12,-0.001370733,0.001370733,2.57E-14,2.14E-14,-0.001395126,0.001395126,-0.001395126,0.001395126,-0.001395126,0.001395126,-0.001395126,0.001395126,-0.001343942,0.001343942,-0.001343942,0.001343942,0.739524358,0.776243901,1368840,32768,0.005695095,0.005695095,0.005695095,18.65427946,18.65359236,6.44E-05,6.44E-05,6.44E-05,305790.8169,0.017232267
20217600,0.999797352,0.016911778,0.005637259,0.005637259,0.005637259,-0.001370809,0.001370809,6.38E-12,-6.81E-12,2.26E-14,-4.41E-13,-0.001395152,0.001395152,-0.001395152,0.001395152,-0.001395152,0.001395152,-0.001395152,0.001395152,-0.001344062,0.001344062,-0.001344062,0.001344062,-7.61E-13,-2.75E-13,4.52E-14,4.22E-14,-0.001370809,0.001370809,-0.001395152,0.001395152,-0.001395152,0.001395152,-0.001395152,0.001395152,-0.001395152,0.001395152,-0.001344062,0.001344062,-0.001344062,0.001344062,-0.001344062,0.001344062,-0.001344062,0.001344062,-6.80E-12,6.87E-12,-0.001370809,0.001370809,3.19E-14,2.99E-14,-0.001395152,0.001395152,-0.001395152,0.001395152,-0.001395152,0.001395152,-0.001395152,0.001395152,-0.001344062,0.001344062,-0.001344062,0.001344062,0.742295248,0.808681781,1368840,32768,0.005695407,0.005695407,0.005695407,18.63857431,18.63788478,6.43E-05,6.43E-05,6.43E-05,302316.4931,0.017233219
20304000,0.999801283,0.016911842,0.005637281,0.005637281,0.005637281,-0.001370881,0.001370881,6.37E-12,-6.81E-12,2.30E-14,-4.33E-13,-0.001395175,0.001395175,-0.001395175,0.001395175,-0.001395175,0.001395175,-0.001395175,0.001395175,-0.001344177,0.001344177,-0.001344177,0.001344177,-7.74E-13,-2.95E-13,3.33E-14,1.83E-14,-0.001370881,0.001370881,-0.001395175,0.001395175,-0.001395175,0.001395175,-0.001395175,0.001395175,-0.001395175,0.001395175,-0.001344177,0.001344177,-0.001344177,0.001344177,-0.001344177,0.001344177,-0.001344177,0.001344177,-6.78E-12,6.88E-12,-0.001370881,0.001370881,3.22E-14,4.22E-14,-0.001395175,0.001395175,-0.001395175,0.001395175,-0.001395175,0.001395175,-0.001395175,0.001395175,-0.001344177,0.001344177,-0.001344177,0.001344177,0.745491573,0.841119662,1368840,32768,0.005695706,0.005695706,0.005695706,18.62286686,18.6221772,6.42E-05,6.42E-05,6.42E-05,298864.7587,0.017234132
20390400,0.999805134,0.016911905,0.005637302,0.005637302,0.005637302,-0.001370953,0.001370953,6.37E-12,-6.81E-12,1.80E-14,-4.37E-13,-0.001395198,0.001395198,-0.001395198,0.001395198,-0.001395198,0.001395198,-0.001395198,0.001395198,-0.001344291,0.001344291,-0.001344291,0.001344291,-7.66E-13,-2.89E-13,4.28E-14,3.08E-14,-0.001370953,0.001370953,-0.001395198,0.001395198,-0.001395198,0.001395198,-0.001395198,0.001395198,-0.001395198,0.001395198,-0.001344291,0.001344291,-0.001344291,0.001344291,-0.001344291,0.001344291,-0.001344291,0.001344291,-6.78E-12,6.88E-12,-0.001370953,0.001370953,2.69E-14,3.39E-14,-0.001395198,0.001395198,-0.001395198,0.001395198,-0.001395198,0.001395198,-0.001395198,0.001395198,-0.001344291,0.001344291,-0.001344291,0.001344291,0.745828254,0.821265984,1368840,32768,0.005696003,0.005696003,0.005696003,18.60715929,18.60646962,6.41E-05,6.41E-05,6.41E-05,295380.6467,0.01723504
20476800,0.999808907,0.016911966,0.005637322,0.005637322,0.005637322,-0.00137088,0.00137088,6.34E-12,-6.81E-12,1.22E-14,-4.70E-13,-0.001395144,0.001395144,-0.001395144,0.001395144,-0.001395144,0.001395144,-0.001395144,0.001395144,-0.001344197,0.001344197,-0.001344197,0.001344197,-7.56E-13,-2.52E-13,5.31E-14,3.24E-14,-0.00137088,0.00137088,-0.001395144,0.001395144,-0.001395144,0.001395144,-0.001395144,0.001395144,-0.001395144,0.001395144,-0.001344197,0.001344197,-0.001344197,0.001344197,-0.001344197,0.001344197,-0.001344197,0.001344197,-6.75E-12,6.88E-12,-0.00137088,0.00137088,4.97E-14,6.53E-14,-0.001395144,0.001395144,-0.001395144,0.001395144,-0.001395144,0.001395144,-0.001395144,0.001395144,-0.001344197,0.001344197,-0.001344197,0.001344197,0.739270565,0.705143588,1368840,32768,0.005695703,0.005695703,0.005695703,18.59145179,18.59076203,6.39E-05,6.39E-05,6.39E-05,295886.3661,0.017234123
20563200,0.999812603,0.016912025,0.005637342,0.005637342,0.005637342,-0.00137052,0.00137052,6.34E-12,-6.80E-12,2.06E-14,-4.60E-13,-0.001394948,0.001394948,-0.001394948,0.001394948,-0.001394948,0.001394948,-0.001394948,0.001394948,-0.001343686,0.001343686,-0.001343686,0.001343686,-7.81E-13,-2.78E-13,3.05E-14,4.11E-14,-0.00137052,0.00137052,-0.001394948,0.001394948,-0.001394948,0.001394948,-0.001394948,0.001394948,-0.001394948,0.001394948,-0.001343686,0.001343686,-0.001343686,0.001343686,-0.001343686,0.001343686,-0.001343686,0.001343686,-6.77E-12,6.85E-12,-0.00137052,0.00137052,3.65E-14,2.10E-14,-0.001394948,0.001394948,-0.001394948,0.001394948,-0.001394948,0.001394948,-0.001394948,0.001394948,-0.001343686,0.001343686,-0.001343686,0.001343686,0.729820411,0.562743911,1368840,32768,0.005694209,0.005694209,0.005694209,18.57574425,18.57505445,6.38E-05,6.38E-05,6.38E-05,304763.5661,0.017229565
20649600,0.999816211,0.016912082,0.005637361,0.005637361,0.005637361,-0.001369915,0.001369915,6.34E-12,-6.79E-12,2.66E-14,-4.72E-13,-0.001394574,0.001394574,-0.001394574,0.001394574,-0.001394574,0.001394574,-0.001394574,0.001394574,-0.00134287,0.00134287,-0.00134287,0.00134287,-7.78E-13,-2.58E-13,2.94E-14,7.24E-14,-0.001369915,0.001369915,-0.001394574,0.001394574,-0.001394574,0.001394574,-0.001394574,0.001394574,-0.001394574,0.001394574,-0.00134287,0.00134287,-0.00134287,0.00134287,-0.00134287,0.00134287,-0.00134287,0.00134287,-6.78E-12,6.84E-12,-0.001369915,0.001369915,3.33E-14,-1.46E-14,-0.001394574,0.001394574,-0.001394574,0.001394574,-0.001394574,0.001394574,-0.001394574,0.001394574,-0.00134287,0.00134287,-0.00134287,0.00134287,0.719518552,0.420344233,1368840,32768,0.005691702,0.005691702,0.005691702,18.49960368,18.49632049,6.32E-05,6.32E-05,6.32E-05,317658.2094,0.017221917
20736000,0.999819666,0.016912137,0.005637379,0.005637379,0.005637379,-0.001368656,0.001368656,6.27E-12,-6.82E-12,3.21E-14,-5.11E-13,-0.001393585,0.001393585,-0.001393585,0.001393585,-0.001393585,0.001393585,-0.001393585,0.001393585,-0.001341368,0.001341369,-0.001341369,0.001341368,-7.51E-13,-1.85E-13,1.46E-13,-7.30E-15,-0.001368656,0.001368656,-0.001393585,0.001393585,-0.001393585,0.001393585,-0.001393585,0.001393585,-0.001393585,0.001393585,-0.001341368,0.001341368,-0.001341368,0.001341368,-0.001341368,0.001341368,-0.001341368,0.001341368,-6.82E-12,6.76E-12,-0.001368656,0.001368656,-5.96E-14,8.74E-14,-0.001393585,0.001393585,-0.001393585,0.001393585,-0.001393585,0.001393585,-0.001393585,0.001393585,-0.001341368,0.001341369,-0.001341369,0.001341368,0.726686398,0.551314836,1368840,32768,0.005686489,0.005686489,0.005686489,18.1183128,18.10187602,6.01E-05,6.01E-05,6.01E-05,332828.5824,0.017206008
20822400,0.999822973,0.01691219,0.005637397,0.005637397,0.005637397,-0.001368361,0.001368361,6.28E-12,-6.79E-12,4.20E-14,-4.78E-13,-0.001393067,0.001393067,-0.001393067,0.001393067,-0.001393067,0.001393067,-0.001393067,0.001393067,-0.00134128,0.00134128,-0.00134128,0.00134128,-7.50E-13,-2.08E-13,1.02E-13,6.66E-14,-0.001368361,0.001368361,-0.001393067,0.001393067,-0.001393067,0.001393067,-0.001393067,0.001393067,-0.001393067,0.001393067,-0.00134128,0.00134128,-0.00134128,0.00134128,-0.00134128,0.00134128,-0.00134128,0.00134128,-6.72E-12,6.84E-12,-0.001368361,0.001368361,7.00E-14,1.00E-13,-0.001393067,0.001393067,-0.001393067,0.001393067,-0.001393067,0.001393067,-0.001393067,0.001393067,-0.00134128,0.00134128,-0.00134128,0.00134128,0.734244048,0.692380887,1368840,32768,0.005685266,0.005685266,0.005685266,17.72469382,17.70743156,5.70E-05,5.70E-05,5.70E-05,318997.0327,0.017202275
20908800,0.999826141,0.016912241,0.005637414,0.005637414,0.005637414,-0.001368052,0.001368052,6.34E-12,-6.79E-12,1.03E-13,-5.50E-13,-0.001392542,0.001392542,-0.001392542,0.001392542,-0.001392542,0.001392542,-0.001392542,0.001392542,-0.001341172,0.001341172,-0.001341172,0.001341172,-9.60E-13,-2.86E-13,-1.29E-14,-5.75E-14,-0.001368052,0.001368052,-0.001392542,0.001392542,-0.001392542,0.001392542,-0.001392542,0.001392542,-0.001392542,0.001392542,-0.001341172,0.001341172,-0.001341172,0.001341172,-0.001341172,0.001341172,-0.001341172,0.001341172,-6.82E-12,6.79E-12,-0.001368052,0.001368052,-7.59E-14,-3.49E-14,-0.001392542,0.001392542,-0.001392542,0.001392542,-0.001392542,0.001392542,-0.001392542,0.001392542,-0.001341172,0.001341172,-0.001341172,0.001341172,0.730624611,0.63314123,1368840,32768,0.005683985,0.005683985,0.005683985,17.33030508,17.31298709,5.38E-05,5.38E-05,5.38E-05,305767.2385,0.017198366
20995200,0.999829175,0.016912289,0.00563743,0.00563743,0.00563743,-0.001367109,0.001367109,6.24E-12,-6.99E-12,7.64E-15,-5.72E-13,-0.001391683,0.001391683,-0.001391683,0.001391683,-0.001391683,0.001391683,-0.001391683,0.001391683,-0.00134015,0.00134015,-0.00134015,0.00134015,-6.87E-13,-8.85E-14,2.99E-13,2.16E-13,-0.001367109,0.001367109,-0.001391683,0.001391683,-0.001391683,0.001391683,-0.001391683,0.001391683,-0.001391683,0.001391683,-0.00134015,0.00134015,-0.00134015,0.00134015,-0.00134015,0.00134015,-0.00134015,0.00134015,-6.93E-12,6.80E-12,-0.001367109,0.001367109,-6.77E-14,1.26E-14,-0.001391683,0.001391683,-0.001391683,0.001391683,-0.001391683,0.001391683,-0.001391683,0.001391683,-0.00134015,0.00134015,-0.00134015,0.00134015,0.727988797,0.594715856,1368840,32768,0.005680078,0.005680078,0.005680078,16.9358645,16.91854262,5.07E-05,5.07E-05,5.07E-05,310431.6634,0.017186444
21081600,0.999832084,0.016912336,0.005637445,0.005637445,0.005637445,-0.001366224,0.001366224,6.39E-12,-6.91E-12,4.88E-14,-6.47E-13,-0.001390863,0.001390863,-0.001390863,0.001390863,-0.001390863,0.001390863,-0.001390863,0.001390863,-0.001339206,0.001339206,-0.001339206,0.001339206,-9.05E-13,-1.87E-13,5.02E-14,3.01E-14,-0.001366224,0.001366224,-0.001390863,0.001390863,-0.001390863,0.001390863,-0.001390863,0.001390863,-0.001390863,0.001390863,-0.001339206,0.001339206,-0.001339206,0.001339206,-0.001339206,0.001339206,-0.001339206,0.001339206,-6.83E-12,6.96E-12,-0.001366224,0.001366224,4.13E-14,5.74E-14,-0.001390863,0.001390863,-0.001390863,0.001390863,-0.001390863,0.001390863,-0.001390863,0.001390863,-0.001339206,0.001339206,-0.001339206,0.001339206,0.728161186,0.603895524,1368840,32768,0.005676411,0.005676411,0.005676411,16.54142022,16.52409815,4.75E-05,4.75E-05,4.75E-05,313621.8457,0.017175255
21168000,0.999834872,0.01691238,0.00563746,0.00563746,0.00563746,-0.001365492,0.001365492,6.38E-12,-6.91E-12,7.58E-14,-6.07E-13,-0.00139012,0.00139012,-0.00139012,0.00139012,-0.00139012,0.00139012,-0.00139012,0.00139012,-0.001338486,0.001338486,-0.001338486,0.001338486,-8.54E-13,-1.50E-13,7.19E-14,5.56E-14,-0.001365492,0.001365492,-0.00139012,0.00139012,-0.00139012,0.00139012,-0.00139012,0.00139012,-0.00139012,0.00139012,-0.001338486,0.001338486,-0.001338486,0.001338486,-0.001338486,0.001338486,-0.001338486,0.001338486,-6.85E-12,6.94E-12,-0.001365492,0.001365492,2.33E-14,3.45E-14,-0.00139012,0.00139012,-0.00139012,0.00139012,-0.00139012,0.00139012,-0.00139012,0.00139012,-0.001338486,0.001338486,-0.001338486,0.001338486,0.728384098,0.613075192,1368840,32768,0.005673381,0.005673381,0.005673381,16.14697568,16.12965368,4.44E-05,4.44E-05,4.44E-05,312377.5526,0.017166006
21254400,0.99983755,0.016912423,0.005637474,0.005637474,0.005637474,-0.001364807,0.001364807,6.39E-12,-6.91E-12,7.77E-14,-5.92E-13,-0.001389421,0.001389421,-0.001389421,0.001389421,-0.001389421,0.001389421,-0.001389421,0.001389421,-0.001337813,0.001337813,-0.001337813,0.001337813,-8.41E-13,-1.50E-13,7.35E-14,6.12E-14,-0.001364807,0.001364807,-0.001389421,0.001389421,-0.001389421,0.001389421,-0.001389421,0.001389421,-0.001389421,0.001389421,-0.001337813,0.001337813,-0.001337813,0.001337813,-0.001337813,0.001337813,-0.001337813,0.001337813,-6.85E-12,6.93E-12,-0.001364807,0.001364807,2.47E-14,3.20E-14,-0.001389421,0.001389421,-0.001389421,0.001389421,-0.001389421,0.001389421,-0.001389421,0.001389421,-0.001337813,0.001337813,-0.001337813,0.001337813,0.728652762,0.62225486,1368840,32768,0.005670539,0.005670539,0.005670539,15.77614638,15.75983786,4.14E-05,4.14E-05,4.14E-05,311105.9465,0.017157336
21340800,0.999840136,0.016912464,0.005637488,0.005637488,0.005637488,-0.001364277,0.001364277,6.37E-12,-6.95E-12,9.46E-14,-5.64E-13,-0.001388877,0.001388877,-0.001388877,0.001388877,-0.001388877,0.001388877,-0.001388877,0.001388877,-0.001337296,0.001337296,-0.001337296,0.001337296,-8.52E-13,-1.71E-13,1.35E-13,3.87E-14,-0.001364277,0.001364277,-0.001388877,0.001388877,-0.001388877,0.001388877,-0.001388877,0.001388877,-0.001388877,0.001388877,-0.001337296,0.001337296,-0.001337296,0.001337296,-0.001337296,0.001337296,-0.001337296,0.001337296,-6.88E-12,6.93E-12,-0.001364277,0.001364277,-4.98E-14,4.15E-14,-0.001388877,0.001388877,-0.001388877,0.001388877,-0.001388877,0.001388877,-0.001388877,0.001388877,-0.001337296,0.001337296,-0.001337296,0.001337296,0.728963236,0.631434528,1368840,32768,0.005668344,0.005668344,0.005668344,15.4859625,15.47313757,3.91E-05,3.91E-05,3.91E-05,309798.1272,0.017150637
21427200,0.999842635,0.016912504,0.005637501,0.005637501,0.005637501,-0.001363753,0.001363753,6.38E-12,-6.96E-12,1.14E-13,-6.26E-13,-0.00138834,0.00138834,-0.00138834,0.00138834,-0.00138834,0.00138834,-0.00138834,0.00138834,-0.001336786,0.001336786,-0.001336786,0.001336786,-8.45E-13,-8.19E-14,1.28E-13,3.34E-14,-0.001363753,0.001363753,-0.00138834,0.00138834,-0.00138834,0.00138834,-0.00138834,0.00138834,-0.00138834,0.00138834,-0.001336786,0.001336786,-0.001336786,0.001336786,-0.001336786,0.001336786,-0.001336786,0.001336786,-6.84E-12,6.98E-12,-0.001363753,0.001363753,4.39E-15,9.25E-14,-0.00138834,0.00138834,-0.00138834,0.00138834,-0.00138834,0.00138834,-0.00138834,0.00138834,-0.001336786,0.001336786,-0.001336786,0.001336786,0.729313309,0.640614196,1368840,32768,0.005666175,0.005666175,0.005666175,15.19904328,15.18643728,3.68E-05,3.68E-05,3.68E-05,308513.9014,0.01714402
21513600,0.999845051,0.016912543,0.005637514,0.005637514,0.005637514,-0.00136323,0.00136323,6.45E-12,-6.91E-12,1.16E-13,-5.67E-13,-0.001387804,0.001387804,-0.001387804,0.001387804,-0.001387804,0.001387804,-0.001387804,0.001387804,-0.001336275,0.001336275,-0.001336275,0.001336275,-8.42E-13,-1.37E-13,1.47E-13,8.99E-14,-0.00136323,0.00136323,-0.001387804,0.001387804,-0.001387804,0.001387804,-0.001387804,0.001387804,-0.001387804,0.001387804,-0.001336275,0.001336275,-0.001336275,0.001336275,-0.001336275,0.001336275,-0.001336275,0.001336275,-6.89E-12,6.95E-12,-0.00136323,0.00136323,1.71E-14,6.90E-14,-0.001387804,0.001387804,-0.001387804,0.001387804,-0.001387804,0.001387804,-0.001387804,0.001387804,-0.001336275,0.001336275,-0.001336275,0.001336275,0.736407802,0.77112383,1368840,32768,0.005664009,0.005664009,0.005664009,14.91232746,14.89973699,3.45E-05,3.45E-05,3.45E-05,307225.4164,0.017137408
21600000,0.999847385,0.016912581,0.005637527,0.005637527,0.005637527,-0.001363067,0.001363067,6.47E-12,-7.03E-12,-2.57E-15,-5.76E-13,-0.001387453,0.001387453,-0.001387453,0.001387453,-0.001387453,0.001387453,-0.001387453,0.001387453,-0.001336287,0.001336287,-0.001336287,0.001336287,-6.65E-13,-6.83E-14,1.71E-13,1.06E-13,-0.001363067,0.001363067,-0.001387453,0.001387453,-0.001387453,0.001387453,-0.001387453,0.001387453,-0.001387453,0.001387453,-0.001336287,0.001336287,-0.001336287,0.001336287,-0.001336287,0.001336287,-0.001336287,0.001336287,-6.92E-12,7.07E-12,-0.001363067,0.001363067,1.27E-13,1.85E-13,-0.001387453,0.001387453,-0.001387453,0.001387453,-0.001387453,0.001387453,-0.001387453,0.001387453,-0.001336287,0.001336287,-0.001336287,0.001336287,0.730899089,0.66996006,1368840,32768,0.005663332,0.005663332,0.005663332,14.62562678,14.6130367,3.22E-05,3.22E-05,3.22E-05,295826.9042,0.017135343
21686400,0.999849643,0.016912617,0.005637539,0.005637539,0.005637539,-0.001362222,0.001362222,6.52E-12,-7.05E-12,6.30E-14,-5.65E-13,-0.001386749,0.001386749,-0.001386749,0.001386749,-0.001386749,0.001386749,-0.001386749,0.001386749,-0.00133531,0.00133531,-0.00133531,0.00133531,-8.42E-13,-1.93E-13,1.44E-13,4.94E-14,-0.001362222,0.001362222,-0.001386749,0.001386749,-0.001386749,0.001386749,-0.001386749,0.001386749,-0.001386749,0.001386749,-0.00133531,0.00133531,-0.00133531,0.00133531,-0.00133531,0.00133531,-0.00133531,0.00133531,-6.96E-12,7.09E-12,-0.001362222,0.001362222,3.53E-15,9.30E-14,-0.001386749,0.001386749,-0.001386749,0.001386749,-0.001386749,0.001386749,-0.001386749,0.001386749,-0.00133531,0.00133531,-0.00133531,0.00133531,0.729717341,0.650846789,1368840,32768,0.00565983,0.00565983,0.00565983,14.33892648,14.32633641,2.99E-05,2.99E-05,2.99E-05,303555.6301,0.017124657
21772800,0.999851826,0.016912652,0.005637551,0.005637551,0.005637551,-0.001361612,0.001361612,6.47E-12,-7.00E-12,1.15E-13,-5.56E-13,-0.001386168,0.001386168,-0.001386168,0.001386168,-0.001386168,0.001386168,-0.001386168,0.001386168,-0.001334674,0.001334674,-0.001334674,0.001334674,-8.72E-13,-1.79E-13,1.30E-13,2.34E-14,-0.001361612,0.001361612,-0.001386168,0.001386168,-0.001386168,0.001386168,-0.001386168,0.001386168,-0.001386168,0.001386168,-0.001334674,0.001334674,-0.001334674,0.001334674,-0.001334674,0.001334674,-0.001334674,0.001334674,-6.98E-12,6.99E-12,-0.001361612,0.001361612,-4.40E-14,5.87E-14,-0.001386168,0.001386168,-0.001386168,0.001386168,-0.001386168,0.001386168,-0.001386168,0.001386168,-0.001334674,0.001334674,-0.001334674,0.001334674,0.728447564,0.631733518,1368840,32768,0.005657303,0.005657303,0.005657303,14.05222622,14.03963612,2.76E-05,2.76E-05,2.76E-05,304736.3667,0.017116945
21859200,0.999853956,0.016912686,0.005637562,0.005637562,0.005637562,-0.001361236,0.001361236,6.43E-12,-6.99E-12,9.41E-14,-6.16E-13,-0.00138582,0.00138582,-0.00138582,0.00138582,-0.00138582,0.00138582,-0.00138582,0.00138582,-0.001334272,0.001334272,-0.001334272,0.001334272,-8.43E-13,-1.11E-13,1.22E-13,-6.30E-15,-0.001361236,0.001361236,-0.00138582,0.00138582,-0.00138582,0.00138582,-0.00138582,0.00138582,-0.00138582,0.00138582,-0.001334272,0.001334272,-0.001334272,0.001334272,-0.001334272,0.001334272,-0.001334272,0.001334272,-6.90E-12,7.01E-12,-0.001361236,0.001361236,-2.61E-14,9.66E-14,-0.00138582,0.00138582,-0.00138582,0.00138582,-0.00138582,0.00138582,-0.00138582,0.00138582,-0.001334272,0.001334272,-0.001334272,0.001334272,0.727103868,0.612620247,1368840,32768,0.005655745,0.005655745,0.005655745,13.88749936,13.88014333,2.63E-05,2.63E-05,2.63E-05,305933.4734,0.017112191
21945600,0.999856073,0.016912719,0.005637573,0.005637573,0.005637573,-0.001361442,0.001361442,6.50E-12,-6.94E-12,9.93E-14,-5.99E-13,-0.001386052,0.001386052,-0.001386052,0.001386052,-0.001386052,0.001386052,-0.001386052,0.001386052,-0.001334454,0.001334454,-0.001334454,0.001334454,-8.85E-13,-1.65E-13,1.15E-13,-2.47E-14,-0.001361442,0.001361442,-0.001386052,0.001386052,-0.001386052,0.001386052,-0.001386052,0.001386052,-0.001386052,0.001386052,-0.001334454,0.001334454,-0.001334454,0.001334454,-0.001334454,0.001334454,-0.001334454,0.001334454,-6.88E-12,7.05E-12,-0.001361442,0.001361442,-2.71E-14,1.08E-13,-0.001386052,0.001386052,-0.001386052,0.001386052,-0.001386052,0.001386052,-0.001386052,0.001386052,-0.001334454,0.001334454,-0.001334454,0.001334454,0.725694388,0.593506976,1368840,32768,0.0056566,0.0056566,0.0056566,14.02520934,14.03094938,2.74E-05,2.74E-05,2.74E-05,307112.1106,0.017114802
22032000,0.99985818,0.016912753,0.005637584,0.005637584,0.005637584,-0.001361671,0.001361671,6.50E-12,-6.97E-12,1.02E-13,-5.66E-13,-0.001386312,0.001386312,-0.001386312,0.001386312,-0.001386312,0.001386312,-0.001386312,0.001386312,-0.001334654,0.001334654,-0.001334654,0.001334654,-8.16E-13,-1.25E-13,1.26E-13,1.62E-14,-0.001361671,0.001361671,-0.001386312,0.001386312,-0.001386312,0.001386312,-0.001386312,0.001386312,-0.001386312,0.001386312,-0.001334654,0.001334654,-0.001334654,0.001334654,-0.001334654,0.001334654,-0.001334654,0.001334654,-6.92E-12,7.05E-12,-0.001361671,0.001361671,-1.42E-14,9.02E-14,-0.001386312,0.001386312,-0.001386312,0.001386312,-0.001386312,0.001386312,-0.001386312,0.001386312,-0.001334654,0.001334654,-0.001334654,0.001334654,0.724227274,0.574393706,1368840,32768,0.005657547,0.005657547,0.005657547,14.17519218,14.18175543,2.86E-05,2.86E-05,2.86E-05,308467.883,0.017117692
22118400,0.999860276,0.016912786,0.005637595,0.005637595,0.005637595,-0.001361899,0.001361899,6.49E-12,-7.01E-12,5.22E-14,-5.73E-13,-0.001386573,0.001386573,-0.001386573,0.001386573,-0.001386573,0.001386573,-0.001386573,0.001386573,-0.001334853,0.001334853,-0.001334853,0.001334853,-7.99E-13,-1.51E-13,9.68E-14,-7.14E-15,-0.001361899,0.001361899,-0.001386573,0.001386573,-0.001386573,0.001386573,-0.001386573,0.001386573,-0.001386573,0.001386573,-0.001334853,0.001334853,-0.001334853,0.001334853,-0.001334853,0.001334853,-0.001334853,0.001334853,-6.96E-12,7.03E-12,-0.001361899,0.001361899,-1.82E-14,8.05E-14,-0.001386573,0.001386573,-0.001386573,0.001386573,-0.001386573,0.001386573,-0.001386573,0.001386573,-0.001334853,0.001334853,-0.001334853,0.001334853,0.722709224,0.555280435,1368840,32768,0.005658494,0.005658494,0.005658494,14.32594293,14.33256148,2.98E-05,2.98E-05,2.98E-05,309887.6488,0.017120582
22204800,0.999862361,0.016912819,0.005637606,0.005637606,0.005637606,-0.001362127,0.001362127,6.49E-12,-6.99E-12,3.99E-14,-5.43E-13,-0.001386834,0.001386834,-0.001386834,0.001386834,-0.001386834,0.001386834,-0.001386834,0.001386834,-0.00133505,0.00133505,-0.00133505,0.00133505,-8.28E-13,-2.24E-13,8.10E-14,-5.23E-15,-0.001362127,0.001362127,-0.001386834,0.001386834,-0.001386834,0.001386834,-0.001386834,0.001386834,-0.001386834,0.001386834,-0.00133505,0.00133505,-0.00133505,0.00133505,-0.00133505,0.00133505,-0.00133505,0.00133505,-6.92E-12,7.04E-12,-0.001362127,0.001362127,-1.58E-15,7.95E-14,-0.001386834,0.001386834,-0.001386834,0.001386834,-0.001386834,0.001386834,-0.001386834,0.001386834,-0.00133505,0.00133505,-0.00133505,0.00133505,0.72174631,0.545814346,1368840,32768,0.005659436,0.005659436,0.005659436,14.47674519,14.48336753,3.10E-05,3.10E-05,3.10E-05,311363.0388,0.017123455
22291200,0.999864435,0.016912852,0.005637617,0.005637617,0.005637617,-0.001362385,0.001362385,6.53E-12,-7.01E-12,4.73E-14,-5.11E-13,-0.001387111,0.001387111,-0.001387111,0.001387111,-0.001387111,0.001387111,-0.001387111,0.001387111,-0.001335292,0.001335292,-0.001335292,0.001335292,-8.03E-13,-2.22E-13,9.14E-14,1.76E-14,-0.001362385,0.001362385,-0.001387111,0.001387111,-0.001387111,0.001387111,-0.001387111,0.001387111,-0.001387111,0.001387111,-0.001335292,0.001335292,-0.001335292,0.001335292,-0.001335292,0.001335292,-0.001335292,0.001335292,-6.97E-12,7.06E-12,-0.001362385,0.001362385,3.76E-15,7.23E-14,-0.001387111,0.001387111,-0.001387111,0.001387111,-0.001387111,0.001387111,-0.001387111,0.001387111,-0.001335292,0.001335292,-0.001335292,0.001335292,0.726926623,0.641581964,1368840,32768,0.005660507,0.005660507,0.005660507,14.62755106,14.63417358,3.22E-05,3.22E-05,3.22E-05,311941.2595,0.017126722
22377600,0.999866498,0.016912885,0.005637628,0.005637628,0.005637628,-0.001362983,0.001362983,6.49E-12,-7.04E-12,-1.74E-14,-5.36E-13,-0.00138756,0.00138756,-0.00138756,0.00138756,-0.00138756,0.00138756,-0.00138756,0.00138756,-0.001336029,0.001336029,-0.001336029,0.001336029,-7.97E-13,-2.56E-13,1.07E-13,1.34E-14,-0.001362983,0.001362983,-0.00138756,0.00138756,-0.00138756,0.00138756,-0.00138756,0.00138756,-0.00138756,0.00138756,-0.001336029,0.001336029,-0.001336029,0.001336029,-0.001336029,0.001336029,-0.001336029,0.001336029,-6.94E-12,7.07E-12,-0.001362983,0.001362983,1.10E-15,8.96E-14,-0.00138756,0.00138756,-0.00138756,0.00138756,-0.00138756,0.00138756,-0.00138756,0.00138756,-0.001336029,0.001336029,-0.001336029,0.001336029,0.72868181,0.673194709,1368840,32768,0.005662985,0.005662985,0.005662985,14.77835714,14.78497963,3.34E-05,3.34E-05,3.34E-05,302755.776,0.017134285
22464000,0.999868549,0.016912918,0.005637639,0.005637639,0.005637639,-0.001363374,0.001363374,6.54E-12,-7.01E-12,2.43E-14,-4.67E-13,-0.001387902,0.001387902,-0.001387902,0.001387902,-0.001387902,0.001387902,-0.001387902,0.001387902,-0.001336463,0.001336463,-0.001336463,0.001336463,-7.74E-13,-2.61E-13,8.72E-14,4.34E-14,-0.001363374,0.001363374,-0.001387902,0.001387902,-0.001387902,0.001387902,-0.001387902,0.001387902,-0.001387902,0.001387902,-0.001336463,0.001336463,-0.001336463,0.001336463,-0.001336463,0.001336463,-0.001336463,0.001336463,-6.98E-12,7.05E-12,-0.001363374,0.001363374,1.07E-14,4.94E-14,-0.001387902,0.001387902,-0.001387902,0.001387902,-0.001387902,0.001387902,-0.001387902,0.001387902,-0.001336463,0.001336463,-0.001336463,0.001336463,0.730032398,0.695488111,1368840,32768,0.005664602,0.005664602,0.005664602,14.92916325,14.93578568,3.46E-05,3.46E-05,3.46E-05,299515.863,0.017139217
22550400,0.999870589,0.01691295,0.00563765,0.00563765,0.00563765,-0.001363735,0.001363735,6.53E-12,-7.00E-12,1.95E-14,-4.66E-13,-0.00138823,0.00138823,-0.00138823,0.00138823,-0.00138823,0.00138823,-0.00138823,0.00138823,-0.001336856,0.001336856,-0.001336856,0.001336856,-7.76E-13,-2.69E-13,6.09E-14,1.66E-14,-0.001363735,0.001363735,-0.00138823,0.00138823,-0.00138823,0.00138823,-0.00138823,0.00138823,-0.00138823,0.00138823,-0.001336856,0.001336856,-0.001336856,0.001336856,-0.001336856,0.001336856,-0.001336856,0.001336856,-6.97E-12,7.04E-12,-0.001363735,0.001363735,2.50E-14,6.41E-14,-0.00138823,0.00138823,-0.00138823,0.00138823,-0.00138823,0.00138823,-0.00138823,0.00138823,-0.001336856,0.001336856,-0.001336856,0.001336856,0.730955417,0.708368334,1368840,32768,0.005666099,0.005666099,0.005666099,15.07996934,15.08659173,3.58E-05,3.58E-05,3.58E-05,297091.3496,0.017143784
22636800,0.999872612,0.016912983,0.005637661,0.005637661,0.005637661,-0.001364009,0.001364009,6.55E-12,-6.98E-12,6.07E-16,-4.33E-13,-0.001388484,0.001388484,-0.001388484,0.001388484,-0.001388484,0.001388484,-0.001388484,0.001388484,-0.001337147,0.001337147,-0.001337147,0.001337147,-7.79E-13,-3.23E-13,4.35E-14,1.55E-14,-0.001364009,0.001364009,-0.001388484,0.001388484,-0.001388484,0.001388484,-0.001388484,0.001388484,-0.001388484,0.001388484,-0.001337147,0.001337147,-0.001337147,0.001337147,-0.001337147,0.001337147,-0.001337147,0.001337147,-6.97E-12,7.05E-12,-0.001364009,0.001364009,2.19E-14,4.48E-14,-0.001388484,0.001388484,-0.001388484,0.001388484,-0.001388484,0.001388484,-0.001388484,0.001388484,-0.001337147,0.001337147,-0.001337147,0.001337147,0.731950714,0.721248557,1368840,32768,0.005667233,0.005667233,0.005667233,15.19996898,15.20526939,3.68E-05,3.68E-05,3.68E-05,295461.7141,0.017147246
22723200,0.99987461,0.016913015,0.005637672,0.005637672,0.005637672,-0.001364149,0.001364149,6.54E-12,-6.98E-12,7.66E-15,-4.39E-13,-0.001388606,0.001388606,-0.001388606,0.001388606,-0.001388606,0.001388606,-0.001388606,0.001388606,-0.001337305,0.001337305,-0.001337305,0.001337305,-7.71E-13,-3.02E-13,3.70E-14,1.66E-14,-0.001364149,0.001364149,-0.001388606,0.001388606,-0.001388606,0.001388606,-0.001388606,0.001388606,-0.001388606,0.001388606,-0.001337305,0.001337305,-0.001337305,0.001337305,-0.001337305,0.001337305,-0.001337305,0.001337305,-6.97E-12,7.03E-12,-0.001364149,0.001364149,1.93E-14,3.47E-14,-0.001388606,0.001388606,-0.001388606,0.001388606,-0.001388606,0.001388606,-0.001388606,0.001388606,-0.001337305,0.001337305,-0.001337305,0.001337305,0.733028287,0.734128781,1368840,32768,0.005667815,0.005667815,0.005667815,15.25092106,15.25322878,3.72E-05,3.72E-05,3.72E-05,293843.9487,0.017149021
22809600,0.999876583,0.016913047,0.005637682,0.005637682,0.005637682,-0.001364284,0.001364284,6.55E-12,-6.98E-12,2.62E-15,-4.31E-13,-0.001388721,0.001388721,-0.001388721,0.001388721,-0.001388721,0.001388721,-0.001388721,0.001388721,-0.001337458,0.001337458,-0.001337458,0.001337458,-7.62E-13,-3.07E-13,3.19E-14,2.08E-14,-0.001364284,0.001364284,-0.001388721,0.001388721,-0.001388721,0.001388721,-0.001388721,0.001388721,-0.001388721,0.001388721,-0.001337458,0.001337458,-0.001337458,0.001337458,-0.001337458,0.001337458,-0.001337458,0.001337458,-6.97E-12,7.05E-12,-0.001364284,0.001364284,2.55E-14,3.15E-14,-0.001388721,0.001388721,-0.001388721,0.001388721,-0.001388721,0.001388721,-0.001388721,0.001388721,-0.001337458,0.001337458,-0.001337458,0.001337458,0.734199542,0.747009004,1368840,32768,0.005668374,0.005668374,0.005668374,15.29906861,15.30118816,3.76E-05,3.76E-05,3.76E-05,292192.2769,0.017150727
22896000,0.99987853,0.016913077,0.005637692,0.005637692,0.005637692,-0.001364419,0.001364419,6.58E-12,-6.92E-12,1.32E-14,-3.89E-13,-0.001388835,0.001388835,-0.001388835,0.001388835,-0.001388835,0.001388835,-0.001388835,0.001388835,-0.00133761,0.00133761,-0.00133761,0.00133761,-7.95E-13,-3.71E-13,1.16E-14,-1.66E-14,-0.001364419,0.001364419,-0.001388835,0.001388835,-0.001388835,0.001388835,-0.001388835,0.001388835,-0.001388835,0.001388835,-0.00133761,0.00133761,-0.00133761,0.00133761,-0.00133761,0.00133761,-0.00133761,0.00133761,-6.93E-12,7.06E-12,-0.001364419,0.001364419,4.78E-14,7.08E-14,-0.001388835,0.001388835,-0.001388835,0.001388835,-0.001388835,0.001388835,-0.001388835,0.001388835,-0.00133761,0.00133761,-0.00133761,0.00133761,0.717100822,0.478088034,1368840,32768,0.005668931,0.005668931,0.005668931,15.34704048,15.34914755,3.80E-05,3.80E-05,3.80E-05,290530.9562,0.017152428
22982400,0.999880453,0.016913108,0.005637703,0.005637703,0.005637703,-0.001363664,0.001363664,6.53E-12,-6.95E-12,-1.23E-14,-4.00E-13,-0.001388502,0.001388502,-0.001388502,0.001388502,-0.001388502,0.001388502,-0.001388502,0.001388502,-0.001336472,0.001336472,-0.001336472,0.001336472,-7.50E-13,-3.41E-13,3.07E-14,5.80E-15,-0.001363664,0.001363664,-0.001388502,0.001388502,-0.001388502,0.001388502,-0.001388502,0.001388502,-0.001388502,0.001388502,-0.001336472,0.001336472,-0.001336472,0.001336472,-0.001336472,0.001336472,-0.001336472,0.001336472,-6.94E-12,7.03E-12,-0.001363664,0.001363664,2.30E-14,4.28E-14,-0.001388502,0.001388502,-0.001388502,0.001388502,-0.001388502,0.001388502,-0.001388502,0.001388502,-0.001336472,0.001336472,-0.001336472,0.001336472,0.721959273,0.567987748,1368840,32768,0.005665806,0.005665806,0.005665806,15.39500072,15.39710693,3.84E-05,3.84E-05,3.84E-05,314673.5264,0.017142894
23068800,0.999882351,0.016913138,0.005637713,0.005637713,0.005637713,-0.001364056,0.001364056,6.53E-12,-6.95E-12,-1.88E-14,-3.87E-13,-0.001388747,0.001388747,-0.001388747,0.001388747,-0.001388747,0.001388747,-0.001388747,0.001388747,-0.001336998,0.001336998,-0.001336998,0.001336998,-7.44E-13,-3.54E-13,2.96E-14,4.36E-15,-0.001364056,0.001364056,-0.001388747,0.001388747,-0.001388747,0.001388747,-0.001388747,0.001388747,-0.001388747,0.001388747,-0.001336998,0.001336998,-0.001336998,0.001336998,-0.001336998,0.001336998,-0.001336998,0.001336998,-6.94E-12,7.03E-12,-0.001364056,0.001364056,2.15E-14,4.16E-14,-0.001388747,0.001388747,-0.001388747,0.001388747,-0.001388747,0.001388747,-0.001388747,0.001388747,-0.001336998,0.001336998,-0.001336998,0.001336998,0.721951491,0.57343655,1368840,32768,0.005667429,0.005667429,0.005667429,15.44296016,15.44506632,3.87E-05,3.87E-05,3.87E-05,305655.2546,0.017147844
23155200,0.999884225,0.016913167,0.005637722,0.005637722,0.005637722,-0.001364165,0.001364165,6.55E-12,-6.94E-12,-1.20E-14,-3.75E-13,-0.00138885,0.00138885,-0.00138885,0.00138885,-0.00138885,0.00138885,-0.00138885,0.00138885,-0.001337115,0.001337115,-0.001337115,0.001337115,-7.37E-13,-3.53E-13,3.39E-14,1.01E-14,-0.001364165,0.001364165,-0.00138885,0.00138885,-0.00138885,0.00138885,-0.00138885,0.00138885,-0.00138885,0.00138885,-0.001337115,0.001337115,-0.001337115,0.001337115,-0.001337115,0.001337115,-0.001337115,0.001337115,-6.94E-12,7.03E-12,-0.001364165,0.001364165,8.70E-15,2.74E-14,-0.00138885,0.00138885,-0.00138885,0.00138885,-0.00138885,0.00138885,-0.00138885,0.00138885,-0.001337115,0.001337115,-0.001337115,0.001337115,0.722174366,0.582247889,1368840,32768,0.005667883,0.005667883,0.005667883,15.49091955,15.4930257,3.91E-05,3.91E-05,3.91E-05,304807.5125,0.017149229
23241600,0.999886075,0.016913197,0.005637732,0.005637732,0.005637732,-0.001364286,0.001364286,6.53E-12,-6.95E-12,-2.96E-14,-4.09E-13,-0.001388959,0.001388959,-0.001388959,0.001388959,-0.001388959,0.001388959,-0.001388959,0.001388959,-0.001337247,0.001337247,-0.001337247,0.001337247,-7.36E-13,-3.34E-13,4.48E-14,2.71E-14,-0.001364286,0.001364286,-0.001388959,0.001388959,-0.001388959,0.001388959,-0.001388959,0.001388959,-0.001388959,0.001388959,-0.001337247,0.001337247,-0.001337247,0.001337247,-0.001337247,0.001337247,-0.001337247,0.001337247,-6.93E-12,7.03E-12,-0.001364286,0.001364286,1.89E-14,3.14E-14,-0.001388959,0.001388959,-0.001388959,0.001388959,-0.001388959,0.001388959,-0.001388959,0.001388959,-0.001337247,0.001337247,-0.001337247,0.001337247,0.725566532,0.645334733,1368840,32768,0.005668382,0.005668382,0.005668382,15.53887896,15.54098509,3.95E-05,3.95E-05,3.95E-05,303640.2018,0.017150754
23328000,0.9998879,0.016913226,0.005637742,0.005637742,0.005637742,-0.001364575,0.001364575,6.55E-12,-6.94E-12,-9.77E-15,-3.90E-13,-0.001389154,0.001389154,-0.001389154,0.001389154,-0.001389154,0.001389154,-0.001389154,0.001389154,-0.001337623,0.001337623,-0.001337623,0.001337623,-7.38E-13,-3.36E-13,2.88E-14,2.53E-14,-0.001364575,0.001364575,-0.001389154,0.001389154,-0.001389154,0.001389154,-0.001389154,0.001389154,-0.001389154,0.001389154,-0.001337623,0.001337623,-0.001337623,0.001337623,-0.001337623,0.001337623,-0.001337623,0.001337623,-6.96E-12,7.02E-12,-0.001364575,0.001364575,3.54E-15,2.04E-15,-0.001389154,0.001389154,-0.001389154,0.001389154,-0.001389154,0.001389154,-0.001389154,0.001389154,-0.001337623,0.001337623,-0.001337623,0.001337623,0.728137959,0.691020814,1368840,32768,0.005669581,0.005669581,0.005669581,15.58683838,15.58894447,3.99E-05,3.99E-05,3.99E-05,297657.3073,0.01715441
23414400,0.999889709,0.016913255,0.005637752,0.005637752,0.005637752,-0.001364916,0.001364916,6.53E-12,-6.90E-12,-4.57E-15,-4.11E-13,-0.001389427,0.001389427,-0.001389427,0.001389427,-0.001389427,0.001389427,-0.001389427,0.001389427,-0.001338027,0.001338027,-0.001338027,0.001338027,-7.67E-13,-3.39E-13,5.27E-15,1.23E-14,-0.001364916,0.001364916,-0.001389427,0.001389427,-0.001389427,0.001389427,-0.001389427,0.001389427,-0.001389427,0.001389427,-0.001338027,0.001338027,-0.001338027,0.001338027,-0.001338027,0.001338027,-0.001338027,0.001338027,-6.89E-12,7.02E-12,-0.001364916,0.001364916,5.02E-14,3.76E-14,-0.001389427,0.001389427,-0.001389427,0.001389427,-0.001389427,0.001389427,-0.001389427,0.001389427,-0.001338027,0.001338027,-0.001338027,0.001338027,0.723095708,0.60514741,1368840,32768,0.005670993,0.005670993,0.005670993,15.69178888,15.69634069,4.07E-05,4.07E-05,4.07E-05,293294.4615,0.01715872
23500800,0.999891513,0.016913283,0.005637761,0.005637761,0.005637761,-0.001365086,0.001365086,6.37E-12,-7.04E-12,-1.13E-13,-5.04E-13,-0.001389718,0.001389718,-0.001389718,0.001389718,-0.001389718,0.001389718,-0.001389718,0.001389718,-0.001338085,0.001338085,-0.001338085,0.001338085,-8.24E-13,-4.09E-13,-6.91E-14,5.01E-14,-0.001365086,0.001365086,-0.001389718,0.001389718,-0.001389718,0.001389718,-0.001389718,0.001389718,-0.001389718,0.001389718,-0.001338085,0.001338085,-0.001338085,0.001338085,-0.001338085,0.001338085,-0.001338085,0.001338085,-6.94E-12,6.96E-12,-0.001365086,0.001365086,8.74E-14,-3.53E-14,-0.001389718,0.001389718,-0.001389718,0.001389718,-0.001389718,0.001389718,-0.001389718,0.001389718,-0.001338085,0.001338085,-0.001338085,0.001338085,0.717538992,0.519274007,1368840,32768,0.005671697,0.005671697,0.005671697,15.91265956,15.9222411,4.25E-05,4.25E-05,4.25E-05,300132.9403,0.017160869
23587200,0.999893314,0.016913311,0.00563777,0.00563777,0.00563777,-0.001365243,0.001365243,6.52E-12,-6.93E-12,-2.71E-14,-3.98E-13,-0.001390017,0.001390017,-0.001390017,0.001390017,-0.001390017,0.001390017,-0.001390017,0.001390017,-0.001338112,0.001338112,-0.001338112,0.001338112,-7.52E-13,-3.59E-13,-5.28E-14,7.45E-14,-0.001365243,0.001365243,-0.001390017,0.001390017,-0.001390017,0.001390017,-0.001390017,0.001390017,-0.001390017,0.001390017,-0.001338112,0.001338112,-0.001338112,0.001338112,-0.001338112,0.001338112,-0.001338112,0.001338112,-6.96E-12,6.98E-12,-0.001365243,0.001365243,7.60E-14,-5.57E-14,-0.001390017,0.001390017,-0.001390017,0.001390017,-0.001390017,0.001390017,-0.001390017,0.001390017,-0.001338112,0.001338112,-0.001338112,0.001338112,0.723516462,0.629484551,1368840,32768,0.005672348,0.005672348,0.005672348,16.1382438,16.14814151,4.43E-05,4.43E-05,4.43E-05,307892.7257,0.017162856
23673600,0.99989511,0.01691334,0.00563778,0.00563778,0.00563778,-0.00136603,0.00136603,6.60E-12,-6.95E-12,9.70E-14,-3.81E-13,-0.001390635,0.001390635,-0.001390635,0.001390635,-0.001390635,0.001390635,-0.001390635,0.001390635,-0.001339056,0.001339056,-0.001339056,0.001339056,-6.79E-13,-1.79E-13,8.01E-14,1.87E-13,-0.00136603,0.00136603,-0.001390635,0.001390635,-0.001390635,0.001390635,-0.001390635,0.001390635,-0.001390635,0.001390635,-0.001339056,0.001339056,-0.001339056,0.001339056,-0.001339056,0.001339056,-0.001339056,0.001339056,-6.88E-12,7.16E-12,-0.00136603,0.00136603,1.79E-13,6.70E-14,-0.001390635,0.001390635,-0.001390635,0.001390635,-0.001390635,0.001390635,-0.001390635,0.001390635,-0.001339056,0.001339056,-0.001339056,0.001339056,0.729320853,0.735282056,1368840,32768,0.005675608,0.005675608,0.005675608,16.36412336,16.37404192,4.61E-05,4.61E-05,4.61E-05,297493.1533,0.017172803
23760000,0.999896901,0.016913369,0.00563779,0.00563779,0.00563779,-0.001366778,0.001366778,6.49E-12,-6.97E-12,1.90E-15,-4.67E-13,-0.001391229,0.001391229,-0.001391229,0.001391229,-0.001391229,0.001391229,-0.001391229,0.001391229,-0.001339947,0.001339947,-0.001339947,0.001339947,-7.88E-13,-2.97E-13,-2.02E-14,6.25E-14,-0.001366778,0.001366778,-0.001391229,0.001391229,-0.001391229,0.001391229,-0.001391229,0.001391229,-0.001391229,0.001391229,-0.001339947,0.001339947,-0.001339947,0.001339947,-0.001339947,0.001339947,-0.001339947,0.001339947,-6.93E-12,7.02E-12,-0.001366778,0.001366778,5.04E-14,-3.73E-14,-0.001391229,0.001391229,-0.001391229,0.001391229,-0.001391229,0.001391229,-0.001391229,0.001391229,-0.001339947,0.001339947,-0.001339947,0.001339947,0.733087032,0.789165615,1368840,32768,0.005678706,0.005678706,0.005678706,16.5900228,16.59994233,4.79E-05,4.79E-05,4.79E-05,288243.3069,0.017182254
23846400,0.999898687,0.016913398,0.005637799,0.005637799,0.005637799,-0.001367369,0.001367369,6.46E-12,-7.08E-12,-7.28E-14,-6.87E-13,-0.001391744,0.001391744,-0.001391744,0.001391744,-0.001391744,0.001391744,-0.001391744,0.001391744,-0.001340607,0.001340607,-0.001340607,0.001340607,-8.29E-13,-1.94E-13,2.74E-14,9.81E-14,-0.001367369,0.001367369,-0.001391744,0.001391744,-0.001391744,0.001391744,-0.001391744,0.001391744,-0.001391744,0.001391744,-0.001340607,0.001340607,-0.001340607,0.001340607,-0.001340607,0.001340607,-0.001340607,0.001340607,-7.05E-12,6.98E-12,-0.001367369,0.001367369,-1.15E-13,-1.89E-13,-0.001391744,0.001391744,-0.001391744,0.001391744,-0.001391744,0.001391744,-0.001391744,0.001391744,-0.001340607,0.001340607,-0.001340607,0.001340607,0.737218938,0.83677737,1368840,32768,0.005681156,0.005681156,0.005681156,16.81592377,16.82584274,4.97E-05,4.97E-05,4.97E-05,283368.1633,0.017189732
23932800,0.999900467,0.016913427,0.005637809,0.005637809,0.005637809,-0.001367942,0.001367942,6.55E-12,-6.98E-12,3.41E-14,-5.06E-13,-0.001392248,0.001392248,-0.001392248,0.001392248,-0.001392248,0.001392248,-0.001392248,0.001392248,-0.001341239,0.001341239,-0.001341239,0.001341239,-7.99E-13,-2.37E-13,-5.28E-14,5.18E-14,-0.001367942,0.001367942,-0.001392248,0.001392248,-0.001392248,0.001392248,-0.001392248,0.001392248,-0.001392248,0.001392248,-0.001341239,0.001341239,-0.001341239,0.001341239,-0.001341239,0.001341239,-0.001341239,0.001341239,-6.96E-12,7.05E-12,-0.001367942,0.001367942,6.58E-14,-4.35E-14,-0.001392248,0.001392248,-0.001392248,0.001392248,-0.001392248,0.001392248,-0.001392248,0.001392248,-0.001341239,0.001341239,-0.001341239,0.001341239,0.741945982,0.884389124,1368840,32768,0.005683528,0.005683528,0.005683528,17.04182499,17.05174315,5.15E-05,5.15E-05,5.15E-05,278914.2089,0.017196969
24019200,0.999902241,0.016913456,0.005637819,0.005637819,0.005637819,-0.001368512,0.001368512,6.56E-12,-7.02E-12,1.19E-14,-4.75E-13,-0.00139275,0.00139275,-0.00139275,0.00139275,-0.00139275,0.00139275,-0.00139275,0.00139275,-0.001341867,0.001341867,-0.001341867,0.001341867,-7.87E-13,-2.78E-13,-2.81E-14,7.15E-14,-0.001368512,0.001368512,-0.00139275,0.00139275,-0.00139275,0.00139275,-0.00139275,0.00139275,-0.00139275,0.00139275,-0.001341867,0.001341867,-0.001341867,0.001341867,-0.001341867,0.001341867,-0.001341867,0.001341867,-7.01E-12,7.06E-12,-0.001368512,0.001368512,6.07E-14,-4.34E-14,-0.00139275,0.00139275,-0.00139275,0.00139275,-0.00139275,0.00139275,-0.00139275,0.00139275,-0.001341867,0.001341867,-0.001341867,0.001341867,0.741967473,0.842081963,1368840,32768,0.00568589,0.00568589,0.00568589,17.26772508,17.27764356,5.33E-05,5.33E-05,5.33E-05,274467.8321,0.017204178
24105600,0.999904009,0.016913484,0.005637828,0.005637828,0.005637828,-0.001368856,0.001368856,6.67E-12,-7.07E-12,6.70E-14,-4.33E-13,-0.001393136,0.001393136,-0.001393136,0.001393136,-0.001393136,0.001393136,-0.001393136,0.001393136,-0.001342167,0.001342167,-0.001342167,0.001342167,-7.81E-13,-2.60E-13,5.48E-14,2.14E-13,-0.001368856,0.001368856,-0.001393136,0.001393136,-0.001393136,0.001393136,-0.001393136,0.001393136,-0.001393136,0.001393136,-0.001342167,0.001342167,-0.001342167,0.001342167,-0.001342167,0.001342167,-0.001342167,0.001342167,-6.99E-12,7.23E-12,-0.001368856,0.001368856,1.34E-13,-3.02E-14,-0.001393136,0.001393136,-0.001393136,0.001393136,-0.001393136,0.001393136,-0.001393136,0.001393136,-0.001342167,0.001342167,-0.001342167,0.001342167,0.731983033,0.666814761,1368840,32768,0.005687315,0.005687315,0.005687315,17.49362392,17.50354397,5.51E-05,5.51E-05,5.51E-05,276282.596,0.017208525
24192000,0.999905764,0.016913512,0.005637837,0.005637837,0.005637837,-0.001368721,0.001368721,6.63E-12,-7.07E-12,3.15E-14,-4.69E-13,-0.001393235,0.001393235,-0.001393235,0.001393235,-0.001393235,0.001393235,-0.001393235,0.001393235,-0.001341817,0.001341817,-0.001341817,0.001341817,-8.01E-13,-2.79E-13,-1.23E-14,1.14E-13,-0.001368721,0.001368721,-0.001393235,0.001393235,-0.001393235,0.001393235,-0.001393235,0.001393235,-0.001393235,0.001393235,-0.001341817,0.001341817,-0.001341817,0.001341817,-0.001341817,0.001341817,-0.001341817,0.001341817,-7.08E-12,7.11E-12,-0.001368721,0.001368721,7.51E-14,-5.56E-14,-0.001393235,0.001393235,-0.001393235,0.001393235,-0.001393235,0.001393235,-0.001393235,0.001393235,-0.001341817,0.001341817,-0.001341817,0.001341817,0.733053734,0.689060961,1368840,32768,0.005686756,0.005686756,0.005686756,17.66997624,17.67777012,5.66E-05,5.66E-05,5.66E-05,289336.0383,0.017206821
24278400,0.999907495,0.01691354,0.005637847,0.005637847,0.005637847,-0.001368948,0.001368948,6.62E-12,-7.09E-12,3.14E-15,-5.02E-13,-0.001393435,0.001393435,-0.001393435,0.001393435,-0.001393435,0.001393435,-0.001393435,0.001393435,-0.001342069,0.001342069,-0.001342069,0.001342069,-7.79E-13,-2.52E-13,-2.56E-14,1.10E-13,-0.001368948,0.001368948,-0.001393435,0.001393435,-0.001393435,0.001393435,-0.001393435,0.001393435,-0.001393435,0.001393435,-0.001342069,0.001342069,-0.001342069,0.001342069,-0.001342069,0.001342069,-0.001342069,0.001342069,-7.11E-12,7.10E-12,-0.001368948,0.001368948,6.55E-14,-7.51E-14,-0.001393435,0.001393435,-0.001393435,0.001393435,-0.001393435,0.001393435,-0.001393435,0.001393435,-0.001342069,0.001342069,-0.001342069,0.001342069,0.734266917,0.711307162,1368840,32768,0.005687697,0.005687697,0.005687697,17.75457076,17.75837926,5.72E-05,5.72E-05,5.72E-05,287244.8021,0.017209692
24364800,0.999909204,0.016913568,0.005637856,0.005637856,0.005637856,-0.001369168,0.001369168,6.63E-12,-7.10E-12,2.85E-14,-4.84E-13,-0.001393625,0.001393625,-0.001393625,0.001393625,-0.001393625,0.001393625,-0.001393625,0.001393625,-0.001342317,0.001342317,-0.001342317,0.001342317,-7.86E-13,-2.51E-13,-3.04E-14,1.04E-13,-0.001369168,0.001369168,-0.001393625,0.001393625,-0.001393625,0.001393625,-0.001393625,0.001393625,-0.001393625,0.001393625,-0.001342317,0.001342317,-0.001342317,0.001342317,-0.001342317,0.001342317,-0.001342317,0.001342317,-7.10E-12,7.12E-12,-0.001369168,0.001369168,7.15E-14,-6.74E-14,-0.001393625,0.001393625,-0.001393625,0.001393625,-0.001393625,0.001393625,-0.001393625,0.001393625,-0.001342317,0.001342317,-0.001342317,0.001342317,0.735644562,0.733476173,1368840,32768,0.005688608,0.005688608,0.005688608,17.8354306,17.83898839,5.79E-05,5.79E-05,5.79E-05,285073.6403,0.017212474
24451200,0.999910889,0.016913595,0.005637865,0.005637865,0.005637865,-0.001369387,0.001369387,6.65E-12,-7.10E-12,4.98E-14,-4.79E-13,-0.001393815,0.001393815,-0.001393815,0.001393815,-0.001393815,0.001393815,-0.001393815,0.001393815,-0.001342563,0.001342563,-0.001342563,0.001342563,-7.69E-13,-2.17E-13,-2.94E-14,1.07E-13,-0.001369387,0.001369387,-0.001393815,0.001393815,-0.001393815,0.001393815,-0.001393815,0.001393815,-0.001393815,0.001393815,-0.001342563,0.001342563,-0.001342563,0.001342563,-0.001342563,0.001342563,-0.001342563,0.001342563,-7.10E-12,7.14E-12,-0.001369387,0.001369387,6.61E-14,-7.48E-14,-0.001393815,0.001393815,-0.001393815,0.001393815,-0.001393815,0.001393815,-0.001393815,0.001393815,-0.001342563,0.001342563,-0.001342563,0.001342563,0.733858285,0.700889061,1368840,32768,0.005689518,0.005689518,0.005689518,17.9160565,17.91959753,5.85E-05,5.85E-05,5.85E-05,282895.7941,0.01721525
24537600,0.999912552,0.016913622,0.005637874,0.005637874,0.005637874,-0.001369454,0.001369454,6.63E-12,-7.12E-12,4.10E-14,-5.14E-13,-0.001393925,0.001393925,-0.001393925,0.001393925,-0.001393925,0.001393925,-0.001393925,0.001393925,-0.00134259,0.00134259,-0.00134259,0.00134259,-8.10E-13,-2.33E-13,-1.62E-14,1.13E-13,-0.001369454,0.001369454,-0.001393925,0.001393925,-0.001393925,0.001393925,-0.001393925,0.001393925,-0.001393925,0.001393925,-0.00134259,0.00134259,-0.00134259,0.00134259,-0.00134259,0.00134259,-0.00134259,0.00134259,-7.10E-12,7.14E-12,-0.001369454,0.001369454,6.54E-14,-6.73E-14,-0.001393925,0.001393925,-0.001393925,0.001393925,-0.001393925,0.001393925,-0.001393925,0.001393925,-0.00134259,0.00134259,-0.00134259,0.00134259,0.737632892,0.764974823,1368840,32768,0.005689795,0.005689795,0.005689795,17.99666695,18.00020666,5.92E-05,5.92E-05,5.92E-05,285010.9438,0.017216096
24624000,0.999914192,0.016913648,0.005637883,0.005637883,0.005637883,-0.001369789,0.001369789,6.62E-12,-7.15E-12,1.15E-14,-5.56E-13,-0.001394174,0.001394174,-0.001394174,0.001394174,-0.001394174,0.001394174,-0.001394174,0.001394174,-0.001343002,0.001343002,-0.001343002,0.001343002,-8.84E-13,-2.95E-13,-6.31E-14,1.37E-14,-0.001369789,0.001369789,-0.001394174,0.001394174,-0.001394174,0.001394174,-0.001394174,0.001394174,-0.001394174,0.001394174,-0.001343002,0.001343002,-0.001343002,0.001343002,-0.001343002,0.001343002,-0.001343002,0.001343002,-7.09E-12,7.17E-12,-0.001369789,0.001369789,9.35E-14,1.21E-14,-0.001394174,0.001394174,-0.001394174,0.001394174,-0.001394174,0.001394174,-0.001394174,0.001394174,-0.001343002,0.001343002,-0.001343002,0.001343002,0.742121394,0.829060584,1368840,32768,0.00569118,0.00569118,0.00569118,18.07727647,18.0808158,5.98E-05,5.98E-05,5.98E-05,279608.459,0.017220322
24710400,0.999915809,0.016913675,0.005637892,0.005637892,0.005637892,-0.001370118,0.001370118,6.65E-12,-7.12E-12,5.31E-14,-5.14E-13,-0.001394422,0.001394422,-0.001394422,0.001394422,-0.001394422,0.001394422,-0.001394422,0.001394422,-0.001343407,0.001343407,-0.001343407,0.001343407,-7.93E-13,-2.05E-13,8.90E-16,1.17E-13,-0.001370118,0.001370118,-0.001394422,0.001394422,-0.001394422,0.001394422,-0.001394422,0.001394422,-0.001394422,0.001394422,-0.001343407,0.001343407,-0.001343407,0.001343407,-0.001343407,0.001343407,-0.001343407,0.001343407,-7.17E-12,7.10E-12,-0.001370118,0.001370118,3.77E-14,-8.22E-14,-0.001394422,0.001394422,-0.001394422,0.001394422,-0.001394422,0.001394422,-0.001394422,0.001394422,-0.001343407,0.001343407,-0.001343407,0.001343407,0.741948526,0.803380461,1368840,32768,0.005692547,0.005692547,0.005692547,18.15788555,18.16142493,6.05E-05,6.05E-05,6.05E-05,274265.6479,0.017224492
24796800,0.999917404,0.0169137,0.0056379,0.0056379,0.0056379,-0.001370216,0.001370216,6.64E-12,-7.14E-12,-2.44E-14,-5.02E-13,-0.001394543,0.001394543,-0.001394543,0.001394543,-0.001394543,0.001394543,-0.001394543,0.001394543,-0.00134348,0.00134348,-0.00134348,0.00134348,-7.42E-13,-2.42E-13,1.45E-14,1.79E-13,-0.001370216,0.001370216,-0.001394543,0.001394543,-0.001394543,0.001394543,-0.001394543,0.001394543,-0.001394543,0.001394543,-0.00134348,0.00134348,-0.00134348,0.00134348,-0.00134348,0.00134348,-0.00134348,0.00134348,-7.12E-12,7.15E-12,-0.001370216,0.001370216,1.15E-13,-5.38E-14,-0.001394543,0.001394543,-0.001394543,0.001394543,-0.001394543,0.001394543,-0.001394543,0.001394543,-0.00134348,0.00134348,-0.00134348,0.00134348,0.717822074,0.439276197,1368840,32768,0.005692952,0.005692952,0.005692952,18.23849414,18.24203407,6.11E-05,6.11E-05,6.11E-05,275274.672,0.01722573
24883200,0.999918976,0.016913725,0.005637908,0.005637908,0.005637908,-0.001369266,0.001369266,6.65E-12,-7.10E-12,-1.25E-15,-4.27E-13,-0.001394143,0.001394143,-0.001394143,0.001394143,-0.001394143,0.001394143,-0.001394143,0.001394143,-0.00134203,0.00134203,-0.00134203,0.00134203,-7.61E-13,-3.14E-13,-4.71E-14,8.77E-14,-0.001369266,0.001369266,-0.001394143,0.001394143,-0.001394143,0.001394143,-0.001394143,0.001394143,-0.001394143,0.001394143,-0.00134203,0.00134203,-0.00134203,0.00134203,-0.00134203,0.00134203,-0.00134203,0.00134203,-7.10E-12,7.13E-12,-0.001369266,0.001369266,7.07E-14,-6.86E-14,-0.001394143,0.001394143,-0.001394143,0.001394143,-0.001394143,0.001394143,-0.001394143,0.001394143,-0.00134203,0.00134203,-0.00134203,0.00134203,0.720171139,0.491071449,1368840,32768,0.005689016,0.005689016,0.005689016,18.31910321,18.3226432,6.18E-05,6.18E-05,6.18E-05,307090.2964,0.017213721
24969600,0.999920533,0.016913749,0.005637916,0.005637916,0.005637916,-0.001369729,0.001369729,6.70E-12,-7.08E-12,-5.55E-14,-4.62E-13,-0.001394526,0.001394526,-0.001394526,0.001394526,-0.001394526,0.001394526,-0.001394526,0.001394526,-0.001342566,0.001342566,-0.001342566,0.001342566,-7.60E-13,-3.32E-13,-4.94E-14,9.10E-14,-0.001369729,0.001369729,-0.001394526,0.001394526,-0.001394526,0.001394526,-0.001394526,0.001394526,-0.001394526,0.001394526,-0.001342566,0.001342566,-0.001342566,0.001342566,-0.001342566,0.001342566,-0.001342566,0.001342566,-7.09E-12,7.18E-12,-0.001369729,0.001369729,7.70E-14,-6.82E-14,-0.001394526,0.001394526,-0.001394526,0.001394526,-0.001394526,0.001394526,-0.001394526,0.001394526,-0.001342566,0.001342566,-0.001342566,0.001342566,0.722246526,0.536358532,1368840,32768,0.005690933,0.005690933,0.005690933,18.4717637,18.47839569,6.30E-05,6.30E-05,6.30E-05,301922.5949,0.017219569
25056000,0.999922087,0.016913774,0.005637925,0.005637925,0.005637925,-0.001370402,0.001370402,6.66E-12,-7.14E-12,3.10E-14,-4.35E-13,-0.00139513,0.00139513,-0.00139513,0.00139513,-0.00139513,0.00139513,-0.00139513,0.00139513,-0.001343303,0.001343303,-0.001343303,0.001343303,-7.32E-13,-2.41E-13,7.83E-14,2.52E-13,-0.001370402,0.001370402,-0.00139513,0.00139513,-0.00139513,0.00139513,-0.00139513,0.00139513,-0.00139513,0.00139513,-0.001343303,0.001343303,-0.001343303,0.001343303,-0.001343303,0.001343303,-0.001343303,0.001343303,-7.08E-12,7.21E-12,-0.001370402,0.001370402,1.96E-13,2.06E-14,-0.00139513,0.00139513,-0.00139513,0.00139513,-0.00139513,0.00139513,-0.00139513,0.00139513,-0.001343303,0.001343303,-0.001343303,0.001343303,0.724431939,0.581645615,1368840,32768,0.00569372,0.00569372,0.00569372,18.74623899,18.75816815,6.52E-05,6.52E-05,6.52E-05,297466.0684,0.017228075
25142400,0.999923637,0.016913799,0.005637933,0.005637933,0.005637933,-0.001371081,0.001371081,6.56E-12,-7.16E-12,-7.51E-14,-5.74E-13,-0.001395742,0.001395742,-0.001395742,0.001395742,-0.001395742,0.001395742,-0.001395742,0.001395742,-0.001344044,0.001344044,-0.001344044,0.001344044,-7.18E-13,-1.96E-13,4.18E-14,2.10E-13,-0.001371081,0.001371081,-0.001395742,0.001395742,-0.001395742,0.001395742,-0.001395742,0.001395742,-0.001395742,0.001395742,-0.001344044,0.001344044,-0.001344044,0.001344044,-0.001344044,0.001344044,-0.001344044,0.001344044,-7.09E-12,7.12E-12,-0.001371081,0.001371081,5.23E-14,-1.19E-13,-0.001395742,0.001395742,-0.001395742,0.001395742,-0.001395742,0.001395742,-0.001395742,0.001395742,-0.001344044,0.001344044,-0.001344044,0.001344044,0.726726563,0.626932697,1368840,32768,0.005696534,0.005696534,0.005696534,19.02567826,19.03794062,6.74E-05,6.74E-05,6.74E-05,293133.971,0.017236662
25228800,0.999925182,0.016913823,0.005637941,0.005637941,0.005637941,-0.001371758,0.001371758,6.82E-12,-6.91E-12,1.36E-13,-3.65E-13,-0.001396352,0.001396352,-0.001396352,0.001396352,-0.001396352,0.001396352,-0.001396352,0.001396352,-0.001344782,0.001344782,-0.001344782,0.001344782,-8.62E-13,-3.37E-13,-1.16E-13,1.65E-14,-0.001371758,0.001371758,-0.001396352,0.001396352,-0.001396352,0.001396352,-0.001396352,0.001396352,-0.001396352,0.001396352,-0.001344782,0.001344782,-0.001344782,0.001344782,-0.001344782,0.001344782,-0.001344782,0.001344782,-6.92E-12,7.29E-12,-0.001371758,0.001371758,2.25E-13,8.71E-14,-0.001396352,0.001396352,-0.001396352,0.001396352,-0.001396352,0.001396352,-0.001396352,0.001396352,-0.001344782,0.001344782,-0.001344782,0.001344782,0.729157198,0.67221978,1368840,32768,0.005699337,0.005699337,0.005699337,19.30542848,19.31771308,6.96E-05,6.96E-05,6.96E-05,288891.5554,0.017245215
25315200,0.999926723,0.016913848,0.005637949,0.005637949,0.005637949,-0.001372431,0.001372431,6.68E-12,-7.09E-12,-3.26E-14,-4.49E-13,-0.00139696,0.00139696,-0.00139696,0.00139696,-0.00139696,0.00139696,-0.00139696,0.00139696,-0.001345516,0.001345516,-0.001345516,0.001345516,-7.63E-13,-3.24E-13,-3.28E-14,9.06E-14,-0.001372431,0.001372431,-0.00139696,0.00139696,-0.00139696,0.00139696,-0.00139696,0.00139696,-0.00139696,0.00139696,-0.001345516,0.001345516,-0.001345516,0.001345516,-0.001345516,0.001345516,-0.001345516,0.001345516,-7.12E-12,7.14E-12,-0.001372431,0.001372431,7.15E-14,-5.81E-14,-0.00139696,0.00139696,-0.00139696,0.00139696,-0.00139696,0.00139696,-0.00139696,0.00139696,-0.001345516,0.001345516,-0.001345516,0.001345516,0.731805405,0.717506862,1368840,32768,0.005702127,0.005702127,0.005702127,19.58519968,19.59748554,7.19E-05,7.19E-05,7.19E-05,284747.8072,0.017253728
25401600,0.999928258,0.016913873,0.005637958,0.005637958,0.005637958,-0.001373101,0.001373101,6.69E-12,-7.11E-12,1.10E-14,-3.84E-13,-0.001397567,0.001397567,-0.001397567,0.001397567,-0.001397567,0.001397567,-0.001397567,0.001397567,-0.001346245,0.001346245,-0.001346245,0.001346245,-7.75E-13,-3.56E-13,-4.15E-14,-2.85E-14,-0.001373101,0.001373101,-0.001397567,0.001397567,-0.001397567,0.001397567,-0.001397567,0.001397567,-0.001397567,0.001397567,-0.001346245,0.001346245,-0.001346245,0.001346245,-0.001346245,0.001346245,-0.001346245,0.001346245,-7.10E-12,7.19E-12,-0.001373101,0.001373101,4.16E-14,2.62E-14,-0.001397567,0.001397567,-0.001397567,0.001397567,-0.001397567,0.001397567,-0.001397567,0.001397567,-0.001346245,0.001346245,-0.001346245,0.001346245,0.740415873,0.86167392,1368840,32768,0.005704904,0.005704904,0.005704904,19.86497405,19.87725801,7.41E-05,7.41E-05,7.41E-05,280682.2081,0.017262203
25488000,0.999929787,0.016913898,0.005637966,0.005637966,0.005637966,-0.001374013,0.001374013,6.69E-12,-6.98E-12,-9.09E-15,-3.65E-13,-0.00139829,0.00139829,-0.00139829,0.00139829,-0.00139829,0.00139829,-0.00139829,0.00139829,-0.00134733,0.00134733,-0.00134733,0.00134733,-7.28E-13,-3.49E-13,-1.37E-13,-4.08E-15,-0.001374013,0.001374013,-0.00139829,0.00139829,-0.00139829,0.00139829,-0.00139829,0.00139829,-0.00139829,0.00139829,-0.00134733,0.00134733,-0.00134733,0.00134733,-0.00134733,0.00134733,-0.00134733,0.00134733,-7.03E-12,7.13E-12,-0.001374013,0.001374013,5.54E-14,-8.25E-14,-0.00139829,0.00139829,-0.00139829,0.00139829,-0.00139829,0.00139829,-0.00139829,0.00139829,-0.00134733,0.00134733,-0.00134733,0.00134733,0.7475561,0.952502322,1368840,32768,0.005708683,0.005708683,0.005708683,20.13938732,20.15703047,7.63E-05,7.63E-05,7.63E-05,269464.3741,0.017273735
25574400,0.999931309,0.016913923,0.005637974,0.005637974,0.005637974,-0.001374783,0.001374783,6.73E-12,-7.03E-12,7.10E-14,-3.61E-13,-0.001398945,0.001398945,-0.001398945,0.001398945,-0.001398945,0.001398945,-0.001398945,0.001398945,-0.001348202,0.001348202,-0.001348202,0.001348202,-7.30E-13,-2.76E-13,-9.24E-14,1.95E-13,-0.001374783,0.001374783,-0.001398945,0.001398945,-0.001398945,0.001398945,-0.001398945,0.001398945,-0.001398945,0.001398945,-0.001348202,0.001348202,-0.001348202,0.001348202,-0.001348202,0.001348202,-0.001348202,0.001348202,-7.14E-12,7.11E-12,-0.001374783,0.001374783,8.30E-14,-2.08E-13,-0.001398945,0.001398945,-0.001398945,0.001398945,-0.001398945,0.001398945,-0.001398945,0.001398945,-0.001348202,0.001348202,-0.001348202,0.001348202,0.748429104,0.899215987,1368840,32768,0.005711871,0.005711871,0.005711871,20.41866273,20.43680293,7.85E-05,7.85E-05,7.85E-05,262403.9845,0.017283463
25660800,0.999932824,0.016913948,0.005637983,0.005637983,0.005637983,-0.001375218,0.001375218,6.70E-12,-7.12E-12,5.91E-14,-4.12E-13,-0.001399424,0.001399424,-0.001399424,0.001399424,-0.001399424,0.001399424,-0.001399424,0.001399424,-0.001348587,0.001348587,-0.001348587,0.001348587,-7.65E-13,-2.72E-13,-1.22E-13,1.87E-13,-0.001375218,0.001375218,-0.001399424,0.001399424,-0.001399424,0.001399424,-0.001399424,0.001399424,-0.001399424,0.001399424,-0.001348587,0.001348587,-0.001348587,0.001348587,-0.001348587,0.001348587,-0.001348587,0.001348587,-7.14E-12,7.16E-12,-0.001375218,0.001375218,1.79E-13,-1.34E-13,-0.001399424,0.001399424,-0.001399424,0.001399424,-0.001399424,0.001399424,-0.001399424,0.001399424,-0.001348587,0.001348587,-0.001348587,0.001348587,0.748975819,0.86523706,1368840,32768,0.005713672,0.005713672,0.005713672,20.6983719,20.7165754,8.08E-05,8.08E-05,8.08E-05,264363.0691,0.017288962
25747200,0.999934319,0.016913972,0.005637991,0.005637991,0.005637991,-0.001375443,0.001375443,6.68E-12,-7.14E-12,6.16E-15,-4.40E-13,-0.001399683,0.001399683,-0.001399683,0.001399683,-0.001399683,0.001399683,-0.001399683,0.001399683,-0.001348777,0.001348777,-0.001348777,0.001348777,-7.66E-13,-2.98E-13,-1.09E-13,1.44E-13,-0.001375443,0.001375443,-0.001399683,0.001399683,-0.001399683,0.001399683,-0.001399683,0.001399683,-0.001399683,0.001399683,-0.001348777,0.001348777,-0.001348777,0.001348777,-0.001348777,0.001348777,-0.001348777,0.001348777,-7.17E-12,7.15E-12,-0.001375443,0.001375443,1.09E-13,-1.48E-13,-0.001399683,0.001399683,-0.001399683,0.001399683,-0.001399683,0.001399683,-0.001399683,0.001399683,-0.001348777,0.001348777,-0.001348777,0.001348777,0.747716814,0.818275658,1368840,32768,0.005714605,0.005714605,0.005714605,20.85069204,20.86088852,8.20E-05,8.20E-05,8.20E-05,265655.1723,0.017291808
25833600,0.999935777,0.016913996,0.005637999,0.005637999,0.005637999,-0.001375243,0.001375243,6.70E-12,-7.12E-12,1.16E-14,-4.37E-13,-0.00139954,0.00139954,-0.00139954,0.00139954,-0.00139954,0.00139954,-0.00139954,0.00139954,-0.001348524,0.001348524,-0.001348524,0.001348524,-7.42E-13,-2.71E-13,-8.53E-14,1.57E-13,-0.001375243,0.001375243,-0.00139954,0.00139954,-0.00139954,0.00139954,-0.00139954,0.00139954,-0.00139954,0.00139954,-0.001348524,0.001348524,-0.001348524,0.001348524,-0.001348524,0.001348524,-0.001348524,0.001348524,-7.16E-12,7.14E-12,-0.001375243,0.001375243,9.70E-14,-1.49E-13,-0.00139954,0.00139954,-0.00139954,0.00139954,-0.00139954,0.00139954,-0.00139954,0.00139954,-0.001348524,0.001348524,-0.001348524,0.001348524,0.747421516,0.799605679,1368840,32768,0.005713778,0.005713778,0.005713778,20.80371662,20.80110379,8.16E-05,8.16E-05,8.16E-05,268266.048,0.017289284
25920000,0.999937197,0.016914019,0.005638006,0.005638006,0.005638006,-0.001375086,0.001375086,6.68E-12,-7.12E-12,3.54E-15,-4.54E-13,-0.001399406,0.001399406,-0.001399406,0.001399406,-0.001399406,0.001399406,-0.001399406,0.001399406,-0.001348344,0.001348344,-0.001348344,0.001348344,-7.99E-13,-3.20E-13,-1.19E-13,1.25E-13,-0.001375086,0.001375086,-0.001399406,0.001399406,-0.001399406,0.001399406,-0.001399406,0.001399406,-0.001399406,0.001399406,-0.001348344,0.001348344,-0.001348344,0.001348344,-0.001348344,0.001348344,-0.001348344,0.001348344,-7.13E-12,7.15E-12,-0.001375086,0.001375086,1.17E-13,-1.31E-13,-0.001399406,0.001399406,-0.001399406,0.001399406,-0.001399406,0.001399406,-0.001399406,0.001399406,-0.001348344,0.001348344,-0.001348344,0.001348344,0.74679293,0.780935701,1368840,32768,0.005713128,0.005713128,0.005713128,20.74508843,20.74131907,8.12E-05,8.12E-05,8.12E-05,269069.5673,0.017287302
26006400,0.999938581,0.016914042,0.005638014,0.005638014,0.005638014,-0.001374925,0.001374925,6.71E-12,-7.10E-12,1.17E-14,-4.56E-13,-0.001399268,0.001399268,-0.001399268,0.001399268,-0.001399268,0.001399268,-0.001399268,0.001399268,-0.00134816,0.00134816,-0.00134816,0.00134816,-7.70E-13,-2.81E-13,-7.79E-14,1.74E-13,-0.001374925,0.001374925,-0.001399268,0.001399268,-0.001399268,0.001399268,-0.001399268,0.001399268,-0.001399268,0.001399268,-0.00134816,0.00134816,-0.00134816,0.00134816,-0.00134816,0.00134816,-0.00134816,0.00134816,-7.14E-12,7.16E-12,-0.001374925,0.001374925,1.18E-13,-1.38E-13,-0.001399268,0.001399268,-0.001399268,0.001399268,-0.001399268,0.001399268,-0.001399268,0.001399268,-0.00134816,0.00134816,-0.00134816,0.00134816,0.741528726,0.696521683,1368840,32768,0.00571246,0.00571246,0.00571246,20.68541514,20.68153435,8.07E-05,8.07E-05,8.07E-05,269975.268,0.017285264
26092800,0.999939929,0.016914064,0.005638021,0.005638021,0.005638021,-0.001374583,0.001374583,6.68E-12,-7.14E-12,1.29E-14,-4.57E-13,-0.001399039,0.001399039,-0.001399039,0.001399039,-0.001399039,0.001399039,-0.001399039,0.001399039,-0.001347714,0.001347714,-0.001347714,0.001347714,-7.77E-13,-2.84E-13,-7.60E-14,1.47E-13,-0.001374583,0.001374583,-0.001399039,0.001399039,-0.001399039,0.001399039,-0.001399039,0.001399039,-0.001399039,0.001399039,-0.001347714,0.001347714,-0.001347714,0.001347714,-0.001347714,0.001347714,-0.001347714,0.001347714,-7.15E-12,7.15E-12,-0.001374583,0.001374583,1.01E-13,-1.26E-13,-0.001399039,0.001399039,-0.001399039,0.001399039,-0.001399039,0.001399039,-0.001399039,0.001399039,-0.001347714,0.001347714,-0.001347714,0.001347714,0.730548561,0.538396866,1368840,32768,0.005711042,0.005711042,0.005711042,20.62564115,20.62174963,8.02E-05,8.02E-05,8.02E-05,276112.5274,0.017280935
26179200,0.999941243,0.016914085,0.005638028,0.005638028,0.005638028,-0.001373995,0.001373995,6.63E-12,-7.10E-12,2.32E-14,-4.79E-13,-0.001398689,0.001398689,-0.001398689,0.001398689,-0.001398689,0.001398689,-0.001398689,0.001398689,-0.001346909,0.001346909,-0.001346909,0.001346909,-7.92E-13,-2.67E-13,-8.91E-14,1.58E-13,-0.001373995,0.001373995,-0.001398689,0.001398689,-0.001398689,0.001398689,-0.001398689,0.001398689,-0.001398689,0.001398689,-0.001346909,0.001346909,-0.001346909,0.001346909,-0.001346909,0.001346909,-0.001346909,0.001346909,-7.11E-12,7.11E-12,-0.001373995,0.001373995,1.06E-13,-1.46E-13,-0.001398689,0.001398689,-0.001398689,0.001398689,-0.001398689,0.001398689,-0.001398689,0.001398689,-0.001346909,0.001346909,-0.001346909,0.001346909,0.743244885,0.780021899,1368840,32768,0.005708604,0.005708604,0.005708604,20.56585596,20.56196491,7.97E-05,7.97E-05,7.97E-05,289577.7721,0.017273498
26265600,0.999942523,0.016914106,0.005638035,0.005638035,0.005638035,-0.001374556,0.001374556,6.67E-12,-7.09E-12,4.70E-14,-4.70E-13,-0.001398922,0.001398923,-0.001398923,0.001398922,-0.001398922,0.001398923,-0.001398923,0.001398922,-0.001347776,0.001347776,-0.001347776,0.001347776,-7.55E-13,-2.16E-13,-7.19E-14,1.79E-13,-0.001374556,0.001374556,-0.001398923,0.001398923,-0.001398923,0.001398923,-0.001398923,0.001398923,-0.001398923,0.001398923,-0.001347776,0.001347776,-0.001347776,0.001347776,-0.001347776,0.001347776,-0.001347776,0.001347776,-7.11E-12,7.14E-12,-0.001374556,0.001374556,9.65E-14,-1.58E-13,-0.001398923,0.001398922,-0.001398923,0.001398922,-0.001398922,0.001398923,-0.001398922,0.001398923,-0.001347776,0.001347776,-0.001347776,0.001347776,0.751940696,0.925600673,1368840,32768,0.005710931,0.005710931,0.005710931,20.50606876,20.50218018,7.92E-05,7.92E-05,7.92E-05,270179.607,0.017280596
26352000,0.999943771,0.016914127,0.005638042,0.005638042,0.005638042,-0.001374801,0.001374801,6.62E-12,-7.11E-12,3.40E-14,-4.92E-13,-0.001398992,0.001398992,-0.001398992,0.001398992,-0.001398992,0.001398992,-0.001398992,0.001398992,-0.001348183,0.001348183,-0.001348183,0.001348183,-7.66E-13,-2.18E-13,-5.81E-14,2.00E-13,-0.001374801,0.001374801,-0.001398992,0.001398992,-0.001398992,0.001398992,-0.001398992,0.001398992,-0.001398992,0.001398992,-0.001348183,0.001348183,-0.001348183,0.001348183,-0.001348183,0.001348183,-0.001348183,0.001348183,-7.12E-12,7.10E-12,-0.001374801,0.001374801,1.15E-13,-1.47E-13,-0.001398992,0.001398992,-0.001398992,0.001398992,-0.001398992,0.001398992,-0.001398992,0.001398992,-0.001348183,0.001348183,-0.001348183,0.001348183,0.752724397,0.887401647,1368840,32768,0.005711948,0.005711948,0.005711948,20.44628333,20.44239546,7.88E-05,7.88E-05,7.88E-05,259723.8776,0.017283698
26438400,0.999944988,0.016914147,0.005638049,0.005638049,0.005638049,-0.001374611,0.001374611,6.63E-12,-7.10E-12,2.83E-14,-4.85E-13,-0.001398833,0.001398833,-0.001398833,0.001398833,-0.001398833,0.001398833,-0.001398833,0.001398833,-0.001347958,0.001347958,-0.001347958,0.001347958,-7.80E-13,-2.45E-13,-7.16E-14,1.59E-13,-0.001374611,0.001374611,-0.001398833,0.001398833,-0.001398833,0.001398833,-0.001398833,0.001398833,-0.001398833,0.001398833,-0.001347958,0.001347958,-0.001347958,0.001347958,-0.001347958,0.001347958,-0.001347958,0.001347958,-7.10E-12,7.11E-12,-0.001374611,0.001374611,1.01E-13,-1.33E-13,-0.001398833,0.001398833,-0.001398833,0.001398833,-0.001398833,0.001398833,-0.001398833,0.001398833,-0.001347958,0.001347958,-0.001347958,0.001347958,0.757346924,0.931364396,1368840,32768,0.005711161,0.005711161,0.005711161,20.38649698,20.38261074,7.83E-05,7.83E-05,7.83E-05,260998.1222,0.017281297
26524800,0.999946181,0.016914167,0.005638056,0.005638056,0.005638056,-0.0013748,0.0013748,6.62E-12,-7.10E-12,3.03E-14,-4.81E-13,-0.001398962,0.001398962,-0.001398962,0.001398962,-0.001398962,0.001398962,-0.001398962,0.001398962,-0.001348197,0.001348197,-0.001348197,0.001348197,-7.81E-13,-2.48E-13,-7.58E-14,1.48E-13,-0.0013748,0.0013748,-0.001398962,0.001398962,-0.001398962,0.001398962,-0.001398962,0.001398962,-0.001398962,0.001398962,-0.001348197,0.001348197,-0.001348197,0.001348197,-0.001348197,0.001348197,-0.001348197,0.001348197,-7.10E-12,7.11E-12,-0.0013748,0.0013748,9.78E-14,-1.30E-13,-0.001398962,0.001398962,-0.001398962,0.001398962,-0.001398962,0.001398962,-0.001398962,0.001398962,-0.001348197,0.001348197,-0.001348197,0.001348197,0.759177729,0.916921493,1368840,32768,0.005711942,0.005711942,0.005711942,20.4255457,20.42787039,7.86E-05,7.86E-05,7.86E-05,257170.2666,0.017283681
26611200,0.999947361,0.016914186,0.005638062,0.005638062,0.005638062,-0.001375128,0.001375128,6.61E-12,-7.10E-12,4.11E-14,-5.16E-13,-0.001399294,0.001399294,-0.001399294,0.001399294,-0.001399294,0.001399294,-0.001399294,0.001399294,-0.001348517,0.001348517,-0.001348517,0.001348517,-8.25E-13,-2.46E-13,-6.57E-14,1.17E-13,-0.001375128,0.001375128,-0.001399294,0.001399294,-0.001399294,0.001399294,-0.001399294,0.001399294,-0.001399294,0.001399294,-0.001348517,0.001348517,-0.001348517,0.001348517,-0.001348517,0.001348517,-0.001348517,0.001348517,-7.09E-12,7.10E-12,-0.001375128,0.001375128,8.64E-14,-1.01E-13,-0.001399294,0.001399294,-0.001399294,0.001399294,-0.001399294,0.001399294,-0.001399294,0.001399294,-0.001348517,0.001348517,-0.001348517,0.001348517,0.758886898,0.877267516,1368840,32768,0.005713302,0.005713302,0.005713302,20.60640912,20.6178561,8.01E-05,8.01E-05,8.01E-05,256963.4308,0.017287831
26697600,0.999948529,0.016914206,0.005638069,0.005638069,0.005638069,-0.001375409,0.001375409,6.62E-12,-7.10E-12,4.11E-14,-4.94E-13,-0.001399613,0.001399613,-0.001399613,0.001399613,-0.001399613,0.001399613,-0.001399613,0.001399613,-0.001348758,0.001348758,-0.001348758,0.001348758,-7.93E-13,-2.36E-13,-3.42E-14,1.83E-13,-0.001375409,0.001375409,-0.001399613,0.001399613,-0.001399613,0.001399613,-0.001399613,0.001399613,-0.001399613,0.001399613,-0.001348758,0.001348758,-0.001348758,0.001348758,-0.001348758,0.001348758,-0.001348758,0.001348758,-7.10E-12,7.10E-12,-0.001375409,0.001375409,3.18E-14,-1.88E-13,-0.001399613,0.001399613,-0.001399613,0.001399613,-0.001399613,0.001399613,-0.001399613,0.001399613,-0.001348758,0.001348758,-0.001348758,0.001348758,0.757684609,0.837613539,1368840,32768,0.005714465,0.005714465,0.005714465,20.79556313,20.80784181,8.16E-05,8.16E-05,8.16E-05,258692.7525,0.017291381
26784000,0.999949684,0.016914225,0.005638075,0.005638075,0.005638075,-0.001375684,0.001375684,6.66E-12,-7.06E-12,4.54E-16,-4.50E-13,-0.001399933,0.001399933,-0.001399933,0.001399933,-0.001399933,0.001399933,-0.001399933,0.001399933,-0.001348989,0.001348989,-0.001348989,0.001348989,-7.63E-13,-2.91E-13,-8.46E-14,7.89E-14,-0.001375684,0.001375684,-0.001399933,0.001399933,-0.001399933,0.001399933,-0.001399933,0.001399933,-0.001399933,0.001399933,-0.001348989,0.001348989,-0.001348989,0.001348989,-0.001348989,0.001348989,-0.001348989,0.001348989,-7.11E-12,7.09E-12,-0.001375684,0.001375684,3.21E-14,-1.35E-13,-0.001399933,0.001399933,-0.001399933,0.001399933,-0.001399933,0.001399933,-0.001399933,0.001399933,-0.001348989,0.001348989,-0.001348989,0.001348989,0.75573593,0.797959562,1368840,32768,0.005715604,0.005715604,0.005715604,20.98546033,20.99782752,8.31E-05,8.31E-05,8.31E-05,260784.6811,0.017294857
26870400,0.999950826,0.016914244,0.005638081,0.005638081,0.005638081,-0.001375952,0.001375952,6.63E-12,-7.10E-12,7.38E-15,-4.71E-13,-0.001400251,0.001400251,-0.001400251,0.001400251,-0.001400251,0.001400251,-0.001400251,0.001400251,-0.001349211,0.001349211,-0.001349211,0.001349211,-7.73E-13,-2.72E-13,-8.77E-14,5.50E-14,-0.001375952,0.001375952,-0.001400251,0.001400251,-0.001400251,0.001400251,-0.001400251,0.001400251,-0.001400251,0.001400251,-0.001349211,0.001349211,-0.001349211,0.001349211,-0.001349211,0.001349211,-0.001349211,0.001349211,-7.09E-12,7.13E-12,-0.001375952,0.001375952,9.06E-14,-5.73E-14,-0.001400251,0.001400251,-0.001400251,0.001400251,-0.001400251,0.001400251,-0.001400251,0.001400251,-0.001349211,0.001349211,-0.001349211,0.001349211,0.753216491,0.758305586,1368840,32768,0.005716716,0.005716716,0.005716716,21.17542907,21.18781323,8.46E-05,8.46E-05,8.46E-05,263175.4843,0.017298253
26956800,0.999951955,0.016914262,0.005638087,0.005638087,0.005638087,-0.001376215,0.001376215,6.68E-12,-7.03E-12,1.91E-14,-4.58E-13,-0.001400567,0.001400567,-0.001400567,0.001400567,-0.001400567,0.001400567,-0.001400567,0.001400567,-0.001349424,0.001349424,-0.001349424,0.001349424,-7.90E-13,-2.91E-13,-7.13E-14,1.04E-13,-0.001376215,0.001376215,-0.001400567,0.001400567,-0.001400567,0.001400567,-0.001400567,0.001400567,-0.001400567,0.001400567,-0.001349424,0.001349424,-0.001349424,0.001349424,-0.001349424,0.001349424,-0.001349424,0.001349424,-7.09E-12,7.10E-12,-0.001376215,0.001376215,8.94E-14,-9.00E-14,-0.001400567,0.001400567,-0.001400567,0.001400567,-0.001400567,0.001400567,-0.001400567,0.001400567,-0.001349424,0.001349424,-0.001349424,0.001349424,0.750299737,0.718651609,1368840,32768,0.005717805,0.005717805,0.005717805,21.36540501,21.37779894,8.61E-05,8.61E-05,8.61E-05,265813.92,0.017301576
27043200,0.999953072,0.016914281,0.005638094,0.005638094,0.005638094,-0.001376473,0.001376473,6.54E-12,-7.08E-12,-8.52E-14,-5.61E-13,-0.001400882,0.001400882,-0.001400882,0.001400882,-0.001400882,0.001400882,-0.001400882,0.001400882,-0.00134963,0.00134963,-0.00134963,0.00134963,-7.60E-13,-2.62E-13,-3.29E-14,3.40E-15,-0.001376473,0.001376473,-0.001400882,0.001400882,-0.001400882,0.001400882,-0.001400882,0.001400882,-0.001400882,0.001400882,-0.00134963,0.00134963,-0.00134963,0.00134963,-0.00134963,0.00134963,-0.00134963,0.00134963,-6.99E-12,7.12E-12,-0.001376473,0.001376473,5.83E-14,1.84E-14,-0.001400882,0.001400882,-0.001400882,0.001400882,-0.001400882,0.001400882,-0.001400882,0.001400882,-0.00134963,0.00134963,-0.00134963,0.00134963,0.747118199,0.678997632,1368840,32768,0.005718874,0.005718874,0.005718874,21.55538191,21.56778465,8.76E-05,8.76E-05,8.76E-05,268659.4607,0.017304838
27129600,0.999954174,0.016914299,0.0056381,0.0056381,0.0056381,-0.001376727,0.001376727,6.76E-12,-7.04E-12,1.30E-13,-3.09E-13,-0.001401194,0.001401194,-0.001401194,0.001401194,-0.001401194,0.001401194,-0.001401194,0.001401194,-0.001349829,0.001349829,-0.001349829,0.001349829,-8.82E-13,-4.20E-13,-1.09E-13,-3.73E-14,-0.001376727,0.001376727,-0.001401194,0.001401194,-0.001401194,0.001401194,-0.001401194,0.001401194,-0.001401194,0.001401194,-0.001349829,0.001349829,-0.001349829,0.001349829,-0.001349829,0.001349829,-0.001349829,0.001349829,-7.15E-12,7.13E-12,-0.001376727,0.001376727,4.05E-16,-7.62E-14,-0.001401194,0.001401194,-0.001401194,0.001401194,-0.001401194,0.001401194,-0.001401194,0.001401194,-0.001349829,0.001349829,-0.001349829,0.001349829,0.743755069,0.639343656,1368840,32768,0.005719924,0.005719924,0.005719924,21.74535913,21.75777036,8.92E-05,8.92E-05,8.92E-05,271670.2955,0.017308044
27216000,0.999955264,0.016914316,0.005638105,0.005638105,0.005638105,-0.001376976,0.001376976,6.79E-12,-7.07E-12,4.47E-14,-4.71E-13,-0.001401505,0.001401505,-0.001401505,0.001401505,-0.001401505,0.001401505,-0.001401505,0.001401505,-0.001350023,0.001350023,-0.001350023,0.001350023,-8.36E-13,-2.98E-13,-1.08E-14,-6.70E-14,-0.001376976,0.001376976,-0.001401505,0.001401505,-0.001401505,0.001401505,-0.001401505,0.001401505,-0.001401505,0.001401505,-0.001350023,0.001350023,-0.001350023,0.001350023,-0.001350023,0.001350023,-0.001350023,0.001350023,-7.01E-12,7.34E-12,-0.001376976,0.001376976,1.20E-13,1.71E-13,-0.001401505,0.001401505,-0.001401505,0.001401505,-0.001401505,0.001401505,-0.001401505,0.001401505,-0.001350023,0.001350023,-0.001350023,0.001350023,0.740261393,0.599689679,1368840,32768,0.005720957,0.005720957,0.005720957,21.93533655,21.94775607,9.07E-05,9.07E-05,9.07E-05,274834.0365,0.017311198
27302400,0.999956338,0.016914334,0.005638111,0.005638111,0.005638111,-0.001377161,0.001377161,6.72E-12,-7.16E-12,2.57E-14,-4.92E-13,-0.001401754,0.001401754,-0.001401754,0.001401754,-0.001401754,0.001401754,-0.001401754,0.001401754,-0.001350151,0.001350151,-0.001350151,0.001350151,-7.83E-13,-2.43E-13,3.89E-14,7.51E-15,-0.001377161,0.001377161,-0.001401754,0.001401754,-0.001401754,0.001401754,-0.001401754,0.001401754,-0.001401754,0.001401754,-0.001350151,0.001350151,-0.001350151,0.001350151,-0.001350151,0.001350151,-0.001350151,0.001350151,-7.07E-12,7.29E-12,-0.001377161,0.001377161,5.04E-14,7.60E-14,-0.001401754,0.001401754,-0.001401754,0.001401754,-0.001401754,0.001401754,-0.001401754,0.001401754,-0.001350151,0.001350151,-0.001350151,0.001350151,0.739667658,0.605764598,1368840,32768,0.005721724,0.005721724,0.005721724,22.09408357,22.10453521,9.20E-05,9.20E-05,9.20E-05,278157.4877,0.017313536
27388800,0.999957393,0.016914351,0.005638117,0.005638117,0.005638117,-0.001377399,0.001377399,6.62E-12,-7.16E-12,2.01E-14,-4.88E-13,-0.001401992,0.001401992,-0.001401992,0.001401992,-0.001401992,0.001401992,-0.001401992,0.001401992,-0.00135039,0.00135039,-0.00135039,0.00135039,-7.26E-13,-1.96E-13,1.47E-13,5.12E-14,-0.001377399,0.001377399,-0.001401992,0.001401992,-0.001401992,0.001401992,-0.001401992,0.001401992,-0.001401992,0.001401992,-0.00135039,0.00135039,-0.00135039,0.00135039,-0.00135039,0.00135039,-0.00135039,0.00135039,-7.11E-12,7.16E-12,-0.001377399,0.001377399,-1.65E-14,7.38E-14,-0.001401992,0.001401992,-0.001401992,0.001401992,-0.001401992,0.001401992,-0.001401992,0.001401992,-0.00135039,0.00135039,-0.00135039,0.00135039,0.744214422,0.693659678,1368840,32768,0.005722709,0.005722709,0.005722709,22.21164121,22.21942656,9.29E-05,9.29E-05,9.29E-05,277695.6451,0.017316544
27475200,0.999958431,0.016914368,0.005638123,0.005638123,0.005638123,-0.001377864,0.001377864,6.66E-12,-7.12E-12,3.80E-14,-4.90E-13,-0.00140234,0.00140234,-0.00140234,0.00140234,-0.00140234,0.00140234,-0.00140234,0.00140234,-0.001350965,0.001350965,-0.001350965,0.001350965,-7.93E-13,-2.44E-13,9.59E-14,-1.28E-14,-0.001377864,0.001377864,-0.00140234,0.00140234,-0.00140234,0.00140234,-0.00140234,0.00140234,-0.00140234,0.00140234,-0.001350965,0.001350965,-0.001350965,0.001350965,-0.001350965,0.001350965,-0.001350965,0.001350965,-7.08E-12,7.19E-12,-0.001377864,0.001377864,4.91E-15,1.09E-13,-0.00140234,0.00140234,-0.00140234,0.00140234,-0.00140234,0.00140234,-0.00140234,0.00140234,-0.001350965,0.001350965,-0.001350965,0.001350965,0.745222734,0.714815643,1368840,32768,0.005724636,0.005724636,0.005724636,22.32677217,22.33431791,9.38E-05,9.38E-05,9.38E-05,270550.1536,0.017322423
27561600,0.99995945,0.016914385,0.005638128,0.005638128,0.005638128,-0.001378143,0.001378143,6.65E-12,-7.13E-12,2.71E-14,-4.92E-13,-0.001402592,0.001402592,-0.001402592,0.001402592,-0.001402592,0.001402592,-0.001402592,0.001402592,-0.00135127,0.00135127,-0.00135127,0.00135127,-7.82E-13,-2.41E-13,8.70E-14,-2.67E-14,-0.001378143,0.001378143,-0.001402592,0.001402592,-0.001402592,0.001402592,-0.001402592,0.001402592,-0.001402592,0.001402592,-0.00135127,0.00135127,-0.00135127,0.00135127,-0.00135127,0.00135127,-0.00135127,0.00135127,-7.07E-12,7.19E-12,-0.001378143,0.001378143,-2.31E-15,1.06E-13,-0.001402592,0.001402592,-0.001402592,0.001402592,-0.001402592,0.001402592,-0.001402592,0.001402592,-0.00135127,0.00135127,-0.00135127,0.00135127,0.746416129,0.735971608,1368840,32768,0.005725791,0.005725791,0.005725791,22.44168448,22.44920925,9.47E-05,9.47E-05,9.47E-05,268636.2731,0.017325948
27648000,0.999960451,0.016914401,0.005638134,0.005638134,0.005638134,-0.001378422,0.001378422,6.65E-12,-7.11E-12,2.45E-14,-4.75E-13,-0.001402843,0.001402843,-0.001402843,0.001402843,-0.001402843,0.001402843,-0.001402843,0.001402843,-0.001351574,0.001351574,-0.001351574,0.001351574,-7.85E-13,-2.63E-13,8.05E-14,-1.57E-15,-0.001378422,0.001378422,-0.001402843,0.001402843,-0.001402843,0.001402843,-0.001402843,0.001402843,-0.001402843,0.001402843,-0.001351574,0.001351574,-0.001351574,0.001351574,-0.001351574,0.001351574,-0.001351574,0.001351574,-7.07E-12,7.18E-12,-0.001378422,0.001378422,-1.35E-17,7.67E-14,-0.001402843,0.001402843,-0.001402843,0.001402843,-0.001402843,0.001402843,-0.001402843,0.001402843,-0.001351574,0.001351574,-0.001351574,0.001351574,0.747821211,0.757127573,1368840,32768,0.005726946,0.005726946,0.005726946,22.55657575,22.5641006,9.57E-05,9.57E-05,9.57E-05,266697.9058,0.017329474
27734400,0.999961434,0.016914417,0.005638139,0.005638139,0.005638139,-0.001378701,0.001378701,6.64E-12,-7.12E-12,1.37E-14,-4.74E-13,-0.001403095,0.001403095,-0.001403095,0.001403095,-0.001403095,0.001403095,-0.001403095,0.001403095,-0.001351879,0.001351879,-0.001351879,0.001351879,-7.93E-13,-2.83E-13,6.06E-14,-1.61E-15,-0.001378701,0.001378701,-0.001403095,0.001403095,-0.001403095,0.001403095,-0.001403095,0.001403095,-0.001403095,0.001403095,-0.001351879,0.001351879,-0.001351879,0.001351879,-0.001351879,0.001351879,-0.001351879,0.001351879,-7.07E-12,7.17E-12,-0.001378701,0.001378701,1.50E-14,7.20E-14,-0.001403095,0.001403095,-0.001403095,0.001403095,-0.001403095,0.001403095,-0.001403095,0.001403095,-0.001351879,0.001351879,-0.001351879,0.001351879,0.749467003,0.778283539,1368840,32768,0.005728102,0.005728102,0.005728102,22.67146506,22.67899195,9.66E-05,9.66E-05,9.66E-05,264730.3018,0.017333003
27820800,0.999962399,0.016914433,0.005638144,0.005638144,0.005638144,-0.00137898,0.00137898,6.70E-12,-7.05E-12,5.60E-14,-4.44E-13,-0.001403346,0.001403346,-0.001403346,0.001403346,-0.001403346,0.001403346,-0.001403346,0.001403346,-0.001352183,0.001352183,-0.001352183,0.001352183,-8.54E-13,-3.33E-13,4.34E-14,-5.82E-16,-0.00137898,0.00137898,-0.001403346,0.001403346,-0.001403346,0.001403346,-0.001403346,0.001403346,-0.001403346,0.001403346,-0.001352183,0.001352183,-0.001352183,0.001352183,-0.001352183,0.001352183,-0.001352183,0.001352183,-7.09E-12,7.14E-12,-0.00137898,0.00137898,1.43E-14,5.37E-14,-0.001403346,0.001403346,-0.001403346,0.001403346,-0.001403346,0.001403346,-0.001403346,0.001403346,-0.001352183,0.001352183,-0.001352183,0.001352183,0.751376685,0.799439504,1368840,32768,0.005729259,0.005729259,0.005729259,22.78635431,22.7938833,9.75E-05,9.75E-05,9.75E-05,262735.7398,0.017336533
27907200,0.999963346,0.016914449,0.00563815,0.00563815,0.00563815,-0.001379259,0.001379259,6.71E-12,-7.02E-12,8.77E-14,-4.32E-13,-0.001403598,0.001403598,-0.001403598,0.001403598,-0.001403598,0.001403598,-0.001403598,0.001403598,-0.001352487,0.001352487,-0.001352487,0.001352487,-7.86E-13,-2.45E-13,6.00E-14,3.62E-14,-0.001379259,0.001379259,-0.001403598,0.001403598,-0.001403598,0.001403598,-0.001403598,0.001403598,-0.001403598,0.001403598,-0.001352487,0.001352487,-0.001352487,0.001352487,-0.001352487,0.001352487,-0.001352487,0.001352487,-7.04E-12,7.18E-12,-0.001379259,0.001379259,2.96E-14,4.82E-14,-0.001403598,0.001403598,-0.001403598,0.001403598,-0.001403598,0.001403598,-0.001403598,0.001403598,-0.001352487,0.001352487,-0.001352487,0.001352487,0.753559847,0.820595469,1368840,32768,0.005730417,0.005730417,0.005730417,22.90124368,22.90877464,9.84E-05,9.84E-05,9.84E-05,260710.1149,0.017340066
27993600,0.999964277,0.016914464,0.005638155,0.005638155,0.005638155,-0.001379539,0.001379539,6.63E-12,-7.07E-12,2.74E-14,-4.90E-13,-0.001403849,0.001403849,-0.001403849,0.001403849,-0.001403849,0.001403849,-0.001403849,0.001403849,-0.001352792,0.001352792,-0.001352792,0.001352792,-8.12E-13,-2.73E-13,5.06E-14,5.70E-14,-0.001379539,0.001379539,-0.001403849,0.001403849,-0.001403849,0.001403849,-0.001403849,0.001403849,-0.001403849,0.001403849,-0.001352792,0.001352792,-0.001352792,0.001352792,-0.001352792,0.001352792,-0.001352792,0.001352792,-7.03E-12,7.16E-12,-0.001379539,0.001379539,3.64E-14,2.50E-14,-0.001403849,0.001403849,-0.001403849,0.001403849,-0.001403849,0.001403849,-0.001403849,0.001403849,-0.001352792,0.001352792,-0.001352792,0.001352792,0.756009332,0.841751434,1368840,32768,0.005731575,0.005731575,0.005731575,23.01613318,23.02366599,9.93E-05,9.93E-05,9.93E-05,258643.4261,0.0173436
28080000,0.999965189,0.016914479,0.00563816,0.00563816,0.00563816,-0.001379791,0.001379791,6.62E-12,-7.09E-12,-4.92E-15,-5.26E-13,-0.001404072,0.001404072,-0.001404072,0.001404072,-0.001404072,0.001404072,-0.001404072,0.001404072,-0.001353069,0.001353069,-0.001353069,0.001353069,-7.67E-13,-2.25E-13,6.55E-14,7.65E-14,-0.001379791,0.001379791,-0.001404072,0.001404072,-0.001404072,0.001404072,-0.001404072,0.001404072,-0.001404072,0.001404072,-0.001353069,0.001353069,-0.001353069,0.001353069,-0.001353069,0.001353069,-0.001353069,0.001353069,-7.13E-12,7.07E-12,-0.001379791,0.001379791,-4.75E-14,-6.28E-14,-0.001404072,0.001404072,-0.001404072,0.001404072,-0.001404072,0.001404072,-0.001404072,0.001404072,-0.001353069,0.001353069,-0.001353069,0.001353069,0.758703439,0.862907399,1368840,32768,0.005732618,0.005732618,0.005732618,23.1167817,23.1234133,0.000100134,0.000100134,0.000100134,256557.769,0.017346785
28166400,0.999966082,0.016914494,0.005638165,0.005638165,0.005638165,-0.001380009,0.001380009,6.61E-12,-7.09E-12,9.59E-15,-5.27E-13,-0.001404261,0.001404261,-0.001404261,0.001404261,-0.001404261,0.001404261,-0.001404261,0.001404261,-0.001353311,0.001353311,-0.001353311,0.001353311,-8.37E-13,-2.79E-13,3.20E-14,2.78E-14,-0.001380009,0.001380009,-0.001404261,0.001404261,-0.001404261,0.001404261,-0.001404261,0.001404261,-0.001404261,0.001404261,-0.001353311,0.001353311,-0.001353311,0.001353311,-0.001353311,0.001353311,-0.001353311,0.001353311,-7.10E-12,7.08E-12,-0.001380009,0.001380009,-1.85E-14,-1.83E-14,-0.001404261,0.001404261,-0.001404261,0.001404261,-0.001404261,0.001404261,-0.001404261,0.001404261,-0.001353311,0.001353311,-0.001353311,0.001353311,0.761612613,0.884063365,1368840,32768,0.005733523,0.005733523,0.005733523,23.20014771,23.2056549,0.000100801,0.000100801,0.000100801,254456.8169,0.017349545
28252800,0.999966956,0.016914509,0.00563817,0.00563817,0.00563817,-0.001380225,0.001380225,6.60E-12,-7.08E-12,3.57E-14,-5.04E-13,-0.001404448,0.001404448,-0.001404448,0.001404448,-0.001404448,0.001404448,-0.001404448,0.001404448,-0.001353551,0.001353551,-0.001353551,0.001353551,-7.55E-13,-1.94E-13,8.15E-14,9.17E-14,-0.001380225,0.001380225,-0.001404448,0.001404448,-0.001404448,0.001404448,-0.001404448,0.001404448,-0.001404448,0.001404448,-0.001353551,0.001353551,-0.001353551,0.001353551,-0.001353551,0.001353551,-0.001353551,0.001353551,-7.15E-12,7.02E-12,-0.001380225,0.001380225,-5.21E-14,-6.71E-14,-0.001404448,0.001404448,-0.001404448,0.001404448,-0.001404448,0.001404448,-0.001404448,0.001404448,-0.001353551,0.001353551,-0.001353551,0.001353551,0.764706293,0.90521933,1368840,32768,0.005734417,0.005734417,0.005734417,23.28249121,23.28789651,0.00010146,0.00010146,0.00010146,252339.598,0.017352275
28339200,0.999967812,0.016914523,0.005638174,0.005638174,0.005638174,-0.00138044,0.00138044,6.62E-12,-7.06E-12,2.53E-14,-5.05E-13,-0.001404633,0.001404633,-0.001404633,0.001404633,-0.001404633,0.001404633,-0.001404633,0.001404633,-0.001353791,0.001353791,-0.001353791,0.001353791,-7.85E-13,-2.33E-13,2.09E-14,3.86E-14,-0.00138044,0.00138044,-0.001404633,0.001404633,-0.001404633,0.001404633,-0.001404633,0.001404633,-0.001404633,0.001404633,-0.001353791,0.001353791,-0.001353791,0.001353791,-0.001353791,0.001353791,-0.001353791,0.001353791,-7.03E-12,7.13E-12,-0.00138044,0.00138044,4.69E-14,2.46E-14,-0.001404633,0.001404633,-0.001404633,0.001404633,-0.001404633,0.001404633,-0.001404633,0.001404633,-0.001353791,0.001353791,-0.001353791,0.001353791,0.76795495,0.926375295,1368840,32768,0.005735308,0.005735308,0.005735308,23.36474233,23.37013811,0.000102118,0.000102118,0.000102118,250213.1224,0.017354995
28425600,0.999968651,0.016914538,0.005638179,0.005638179,0.005638179,-0.001380654,0.001380654,6.60E-12,-7.08E-12,3.98E-14,-4.97E-13,-0.001404819,0.001404819,-0.001404819,0.001404819,-0.001404819,0.001404819,-0.001404819,0.001404819,-0.001354029,0.001354029,-0.001354029,0.001354029,-8.14E-13,-2.56E-13,-1.14E-14,2.92E-14,-0.001380654,0.001380654,-0.001404819,0.001404819,-0.001404819,0.001404819,-0.001404819,0.001404819,-0.001404819,0.001404819,-0.001354029,0.001354029,-0.001354029,0.001354029,-0.001354029,0.001354029,-0.001354029,0.001354029,-7.03E-12,7.13E-12,-0.001380654,0.001380654,5.17E-14,6.16E-15,-0.001404819,0.001404819,-0.001404819,0.001404819,-0.001404819,0.001404819,-0.001404819,0.001404819,-0.001354029,0.001354029,-0.001354029,0.001354029,0.77133095,0.94753126,1368840,32768,0.005736196,0.005736196,0.005736196,23.44698454,23.45237971,0.000102776,0.000102776,0.000102776,248108.7962,0.017357705
28512000,0.999969471,0.016914551,0.005638184,0.005638184,0.005638184,-0.001380868,0.001380868,6.68E-12,-7.01E-12,7.25E-14,-4.34E-13,-0.001405004,0.001405004,-0.001405004,0.001405004,-0.001405004,0.001405004,-0.001405004,0.001405004,-0.001354265,0.001354265,-0.001354265,0.001354265,-7.88E-13,-2.59E-13,1.47E-14,4.93E-14,-0.001380868,0.001380868,-0.001405004,0.001405004,-0.001405004,0.001405004,-0.001405004,0.001405004,-0.001405004,0.001405004,-0.001354265,0.001354265,-0.001354265,0.001354265,-0.001354265,0.001354265,-0.001354265,0.001354265,-7.05E-12,7.13E-12,-0.001380868,0.001380868,5.43E-14,1.48E-14,-0.001405004,0.001405004,-0.001405004,0.001405004,-0.001405004,0.001405004,-0.001405004,0.001405004,-0.001354265,0.001354265,-0.001354265,0.001354265,0.774808502,0.968687225,1368840,32768,0.005737081,0.005737081,0.005737081,23.52922592,23.53462132,0.000103434,0.000103434,0.000103434,246024.3871,0.017360404
28598400,0.999970274,0.016914565,0.005638188,0.005638188,0.005638188,-0.00138108,0.00138108,6.68E-12,-7.01E-12,6.26E-14,-4.34E-13,-0.001405188,0.001405188,-0.001405188,0.001405188,-0.001405188,0.001405188,-0.001405188,0.001405188,-0.001354499,0.001354499,-0.001354499,0.001354499,-8.13E-13,-2.94E-13,-2.34E-14,8.28E-15,-0.00138108,0.00138108,-0.001405188,0.001405188,-0.001405188,0.001405188,-0.001405188,0.001405188,-0.001405188,0.001405188,-0.001354499,0.001354499,-0.001354499,0.001354499,-0.001354499,0.001354499,-0.001354499,0.001354499,-7.05E-12,7.13E-12,-0.00138108,0.00138108,4.89E-14,1.24E-14,-0.001405188,0.001405188,-0.001405188,0.001405188,-0.001405188,0.001405188,-0.001405188,0.001405188,-0.001354499,0.001354499,-0.001354499,0.001354499,0.776657458,0.958782312,1368840,32768,0.005737961,0.005737961,0.005737961,23.61146648,23.61686292,0.000104092,0.000104092,0.000104092,243965.5759,0.017363091
28684800,0.999971059,0.016914579,0.005638193,0.005638193,0.005638193,-0.001381225,0.001381225,6.61E-12,-7.05E-12,4.25E-14,-4.80E-13,-0.001405338,0.001405338,-0.001405338,0.001405338,-0.001405338,0.001405338,-0.001405338,0.001405338,-0.001354636,0.001354636,-0.001354636,0.001354636,-8.02E-13,-2.58E-13,2.99E-14,7.46E-14,-0.001381225,0.001381225,-0.001405338,0.001405338,-0.001405338,0.001405338,-0.001405338,0.001405338,-0.001405338,0.001405338,-0.001354636,0.001354636,-0.001354636,0.001354636,-0.001354636,0.001354636,-0.001354636,0.001354636,-7.05E-12,7.10E-12,-0.001381225,0.001381225,4.03E-14,-9.20E-15,-0.001405338,0.001405338,-0.001405338,0.001405338,-0.001405338,0.001405338,-0.001405338,0.001405338,-0.001354636,0.001354636,-0.001354636,0.001354636,0.775897929,0.913612346,1368840,32768,0.005738561,0.005738561,0.005738561,23.693706,23.69910453,0.00010475,0.00010475,0.00010475,243736.989,0.017364923
28771200,0.999971828,0.016914592,0.005638197,0.005638197,0.005638197,-0.001381289,0.001381289,6.58E-12,-7.07E-12,4.36E-14,-4.87E-13,-0.001405447,0.001405447,-0.001405447,0.001405447,-0.001405447,0.001405447,-0.001405447,0.001405447,-0.001354655,0.001354655,-0.001354655,0.001354655,-7.98E-13,-2.46E-13,1.94E-14,6.06E-14,-0.001381289,0.001381289,-0.001405447,0.001405447,-0.001405447,0.001405447,-0.001405447,0.001405447,-0.001405447,0.001405447,-0.001354655,0.001354655,-0.001354655,0.001354655,-0.001354655,0.001354655,-0.001354655,0.001354655,-7.05E-12,7.09E-12,-0.001381289,0.001381289,3.03E-14,-1.53E-14,-0.001405447,0.001405447,-0.001405447,0.001405447,-0.001405447,0.001405447,-0.001405447,0.001405447,-0.001354655,0.001354655,-0.001354655,0.001354655,0.774172821,0.868442381,1368840,32768,0.005738826,0.005738826,0.005738826,23.77594521,23.78134613,0.000105408,0.000105408,0.000105408,245816.7369,0.01736573
28857600,0.999972581,0.016914604,0.005638201,0.005638201,0.005638201,-0.001381394,0.001381394,6.59E-12,-7.07E-12,3.71E-14,-4.79E-13,-0.001405602,0.001405602,-0.001405602,0.001405602,-0.001405602,0.001405602,-0.001405602,0.001405602,-0.001354711,0.001354711,-0.001354711,0.001354711,-7.85E-13,-2.47E-13,4.22E-14,6.36E-14,-0.001381394,0.001381394,-0.001405602,0.001405602,-0.001405602,0.001405602,-0.001405602,0.001405602,-0.001405602,0.001405602,-0.001354711,0.001354711,-0.001354711,0.001354711,-0.001354711,0.001354711,-0.001354711,0.001354711,-7.05E-12,7.09E-12,-0.001381394,0.001381394,5.85E-15,-2.05E-14,-0.001405602,0.001405602,-0.001405602,0.001405602,-0.001405602,0.001405602,-0.001405602,0.001405602,-0.001354711,0.001354711,-0.001354711,0.001354711,0.776793985,0.900212548,1368840,32768,0.005739261,0.005739261,0.005739261,23.88352308,23.89053339,0.000106268,0.000106268,0.000106268,248243.0834,0.017367059
28944000,0.999973319,0.016914617,0.005638206,0.005638206,0.005638206,-0.001381728,0.001381728,6.61E-12,-7.06E-12,3.77E-14,-4.60E-13,-0.001405903,0.001405903,-0.001405903,0.001405903,-0.001405903,0.001405903,-0.001405903,0.001405903,-0.001355072,0.001355072,-0.001355072,0.001355072,-7.60E-13,-2.41E-13,5.20E-14,6.80E-14,-0.001381728,0.001381728,-0.001405903,0.001405903,-0.001405903,0.001405903,-0.001405903,0.001405903,-0.001405903,0.001405903,-0.001355072,0.001355072,-0.001355072,0.001355072,-0.001355072,0.001355072,-0.001355072,0.001355072,-7.02E-12,7.14E-12,-0.001381728,0.001381728,3.97E-14,1.87E-14,-0.001405903,0.001405903,-0.001405903,0.001405903,-0.001405903,0.001405903,-0.001405903,0.001405903,-0.001355072,0.001355072,-0.001355072,0.001355072,0.767969347,0.762054628,1368840,32768,0.005740642,0.005740642,0.005740642,24.01940985,24.02827954,0.000107355,0.000107355,0.000107355,245905.6672,0.017371274
29030400,0.999974044,0.016914629,0.00563821,0.00563821,0.00563821,-0.001381661,0.001381661,6.52E-12,-7.12E-12,7.18E-14,-5.01E-13,-0.001405999,0.001405999,-0.001405999,0.001405999,-0.001405999,0.001405999,-0.001405999,0.001405999,-0.001354855,0.001354855,-0.001354855,0.001354855,-8.77E-13,-2.82E-13,1.37E-14,1.26E-14,-0.001381661,0.001381661,-0.001405999,0.001405999,-0.001405999,0.001405999,-0.001405999,0.001405999,-0.001405999,0.001405999,-0.001354855,0.001354855,-0.001354855,0.001354855,-0.001354855,0.001354855,-0.001354855,0.001354855,-7.04E-12,7.08E-12,-0.001381661,0.001381661,1.44E-14,9.76E-15,-0.001405999,0.001405999,-0.001405999,0.001405999,-0.001405999,0.001405999,-0.001405999,0.001405999,-0.001354855,0.001354855,-0.001354855,0.001354855,0.758935508,0.643156944,1368840,32768,0.005740365,0.005740365,0.005740365,24.15697963,24.16602569,0.000108456,0.000108456,0.000108456,254905.7419,0.017370429
29116800,0.999974755,0.016914641,0.005638214,0.005638214,0.005638214,-0.001381604,0.001381604,6.51E-12,-7.13E-12,3.48E-14,-5.24E-13,-0.001406108,0.001406108,-0.001406108,0.001406108,-0.001406108,0.001406108,-0.001406108,0.001406108,-0.001354647,0.001354647,-0.001354647,0.001354647,-7.54E-13,-1.73E-13,2.69E-14,7.40E-14,-0.001381604,0.001381604,-0.001406108,0.001406108,-0.001406108,0.001406108,-0.001406108,0.001406108,-0.001406108,0.001406108,-0.001354647,0.001354647,-0.001354647,0.001354647,-0.001354647,0.001354647,-0.001354647,0.001354647,-7.00E-12,7.13E-12,-0.001381604,0.001381604,2.80E-14,-2.43E-14,-0.001406108,0.001406108,-0.001406108,0.001406108,-0.001406108,0.001406108,-0.001406108,0.001406108,-0.001354647,0.001354647,-0.001354647,0.001354647,0.753025676,0.579256833,1368840,32768,0.005740129,0.005740129,0.005740129,24.29470375,24.30377184,0.000109558,0.000109558,0.000109558,263978.4884,0.017369711
29203200,0.999975452,0.016914652,0.005638217,0.005638217,0.005638217,-0.001381676,0.001381676,6.53E-12,-7.09E-12,4.15E-14,-5.45E-13,-0.001406283,0.001406283,-0.001406283,0.001406283,-0.001406283,0.001406283,-0.001406283,0.001406283,-0.001354626,0.001354626,-0.001354626,0.001354626,-7.90E-13,-1.81E-13,-6.87E-15,5.08E-14,-0.001381676,0.001381676,-0.001406283,0.001406283,-0.001406283,0.001406283,-0.001406283,0.001406283,-0.001406283,0.001406283,-0.001354626,0.001354626,-0.001354626,0.001354626,-0.001354626,0.001354626,-0.001354626,0.001354626,-7.05E-12,7.06E-12,-0.001381676,0.001381676,4.88E-14,-1.40E-14,-0.001406283,0.001406283,-0.001406283,0.001406283,-0.001406283,0.001406283,-0.001406283,0.001406283,-0.001354626,0.001354626,-0.001354626,0.001354626,0.75331736,0.608541153,1368840,32768,0.005740428,0.005740428,0.005740428,24.43244404,24.44151798,0.00011066,0.00011066,0.00011066,269490.2458,0.017370621
29289600,0.999976136,0.016914663,0.005638221,0.005638221,0.005638221,-0.001382013,0.001382013,6.55E-12,-7.13E-12,-5.62E-14,-5.98E-13,-0.001406591,0.001406591,-0.001406591,0.001406591,-0.001406591,0.001406591,-0.001406591,0.001406591,-0.001354993,0.001354993,-0.001354993,0.001354993,-7.57E-13,-1.93E-13,8.55E-14,1.24E-13,-0.001382013,0.001382013,-0.001406591,0.001406591,-0.001406591,0.001406591,-0.001406591,0.001406591,-0.001406591,0.001406591,-0.001354993,0.001354993,-0.001354993,0.001354993,-0.001354993,0.001354993,-0.001354993,0.001354993,-7.03E-12,7.14E-12,-0.001382013,0.001382013,1.18E-13,7.45E-14,-0.001406591,0.001406591,-0.001406591,0.001406591,-0.001406591,0.001406591,-0.001406591,0.001406591,-0.001354993,0.001354993,-0.001354993,0.001354993,0.745318052,0.511726046,1368840,32768,0.005741824,0.005741824,0.005741824,24.57018507,24.57926413,0.000111761,0.000111761,0.000111761,267375.6717,0.017374884
29376000,0.999976805,0.016914674,0.005638225,0.005638225,0.005638225,-0.001381983,0.001381983,6.70E-12,-7.04E-12,4.75E-14,-4.46E-13,-0.00140671,0.00140671,-0.00140671,0.00140671,-0.00140671,0.00140671,-0.00140671,0.00140671,-0.001354828,0.001354828,-0.001354828,0.001354828,-7.30E-13,-2.16E-13,1.18E-13,1.83E-13,-0.001381983,0.001381983,-0.00140671,0.00140671,-0.00140671,0.00140671,-0.00140671,0.00140671,-0.00140671,0.00140671,-0.001354828,0.001354828,-0.001354828,0.001354828,-0.001354828,0.001354828,-0.001354828,0.001354828,-7.00E-12,7.23E-12,-0.001381983,0.001381983,1.07E-13,3.53E-14,-0.00140671,0.00140671,-0.00140671,0.00140671,-0.00140671,0.00140671,-0.00140671,0.00140671,-0.001354828,0.001354828,-0.001354828,0.001354828,0.740203982,0.460394001,1368840,32768,0.0057417,0.0057417,0.0057417,24.70792684,24.71701028,0.000112863,0.000112863,0.000112863,275785.6001,0.017374506
29462400,0.999977462,0.016914685,0.005638228,0.005638228,0.005638228,-0.001382076,0.001382076,6.66E-12,-7.13E-12,1.88E-14,-4.56E-13,-0.001406895,0.001406895,-0.001406895,0.001406895,-0.001406895,0.001406895,-0.001406895,0.001406895,-0.00135484,0.00135484,-0.00135484,0.00135484,-8.79E-13,-3.82E-13,-6.79E-14,-1.23E-14,-0.001382076,0.001382076,-0.001406895,0.001406895,-0.001406895,0.001406895,-0.001406895,0.001406895,-0.001406895,0.001406895,-0.00135484,0.00135484,-0.00135484,0.00135484,-0.00135484,0.00135484,-0.00135484,0.00135484,-7.06E-12,7.21E-12,-0.001382076,0.001382076,1.66E-14,-4.53E-14,-0.001406895,0.001406895,-0.001406895,0.001406895,-0.001406895,0.001406895,-0.001406895,0.001406895,-0.00135484,0.00135484,-0.00135484,0.00135484,0.729391252,0.328671981,1368840,32768,0.005742084,0.005742084,0.005742084,24.84566927,24.85475643,0.000113965,0.000113965,0.000113965,280748.6956,0.017375679
29548800,0.999978105,0.016914695,0.005638232,0.005638232,0.005638232,-0.00138188,0.00138188,6.64E-12,-7.13E-12,-4.39E-14,-4.91E-13,-0.001406933,0.001406933,-0.001406933,0.001406933,-0.001406933,0.001406933,-0.001406933,0.001406933,-0.00135443,0.00135443,-0.00135443,0.00135443,-7.69E-13,-2.99E-13,-1.09E-14,6.84E-14,-0.00138188,0.00138188,-0.001406933,0.001406933,-0.001406933,0.001406933,-0.001406933,0.001406933,-0.001406933,0.001406933,-0.00135443,0.00135443,-0.00135443,0.00135443,-0.00135443,0.00135443,-0.00135443,0.00135443,-7.09E-12,7.17E-12,-0.00138188,0.00138188,4.27E-14,-4.08E-14,-0.001406933,0.001406933,-0.001406933,0.001406933,-0.001406933,0.001406933,-0.001406933,0.001406933,-0.00135443,0.00135443,-0.00135443,0.00135443,0.726380105,0.310129968,1368840,32768,0.005741272,0.005741272,0.005741272,24.98341125,24.99250258,0.000115067,0.000115067,0.000115067,294269.4069,0.0173732
29635200,0.999978734,0.016914705,0.005638235,0.005638235,0.005638235,-0.001382036,0.001382036,6.69E-12,-7.11E-12,-3.05E-14,-3.98E-13,-0.00140714,0.00140714,-0.00140714,0.00140714,-0.00140714,0.00140714,-0.00140714,0.00140714,-0.001354545,0.001354545,-0.001354545,0.001354545,-7.53E-13,-3.63E-13,-4.84E-14,5.06E-14,-0.001382036,0.001382036,-0.00140714,0.00140714,-0.00140714,0.00140714,-0.00140714,0.00140714,-0.00140714,0.00140714,-0.001354545,0.001354545,-0.001354545,0.001354545,-0.001354545,0.001354545,-0.001354545,0.001354545,-7.11E-12,7.17E-12,-0.001382036,0.001382036,6.05E-14,-4.31E-14,-0.00140714,0.00140714,-0.00140714,0.00140714,-0.00140714,0.00140714,-0.00140714,0.00140714,-0.001354545,0.001354545,-0.001354545,0.001354545,0.730526706,0.39400692,1368840,32768,0.005741919,0.005741919,0.005741919,25.10714563,25.11534766,0.000116057,0.000116057,0.000116057,296691.5156,0.017375175
29721600,0.999979349,0.016914715,0.005638238,0.005638238,0.005638238,-0.001382532,0.001382532,6.67E-12,-7.09E-12,-1.98E-14,-3.90E-13,-0.001407496,0.001407496,-0.001407496,0.001407496,-0.001407496,0.001407496,-0.001407496,0.001407496,-0.001355175,0.001355175,-0.001355175,0.001355175,-7.49E-13,-3.57E-13,-3.65E-14,6.08E-14,-0.001382532,0.001382532,-0.001407496,0.001407496,-0.001407496,0.001407496,-0.001407496,0.001407496,-0.001407496,0.001407496,-0.001355175,0.001355175,-0.001355175,0.001355175,-0.001355175,0.001355175,-0.001355175,0.001355175,-7.10E-12,7.15E-12,-0.001382532,0.001382532,6.12E-14,-4.07E-14,-0.001407496,0.001407496,-0.001407496,0.001407496,-0.001407496,0.001407496,-0.001407496,0.001407496,-0.001355175,0.001355175,-0.001355175,0.001355175,0.734900369,0.477883872,1368840,32768,0.005743974,0.005743974,0.005743974,25.2164541,25.22370906,0.000116932,0.000116932,0.000116932,288112.3501,0.017381448
29808000,0.99997995,0.016914725,0.005638242,0.005638242,0.005638242,-0.001383011,0.001383011,6.70E-12,-7.09E-12,-6.95E-15,-3.63E-13,-0.001407843,0.001407843,-0.001407843,0.001407843,-0.001407843,0.001407843,-0.001407843,0.001407843,-0.001355778,0.001355778,-0.001355778,0.001355778,-7.36E-13,-3.58E-13,-3.17E-14,7.57E-14,-0.001383011,0.001383011,-0.001407843,0.001407843,-0.001407843,0.001407843,-0.001407843,0.001407843,-0.001407843,0.001407843,-0.001355778,0.001355778,-0.001355778,0.001355778,-0.001355778,0.001355778,-0.001355778,0.001355778,-7.11E-12,7.17E-12,-0.001383011,0.001383011,2.53E-14,-8.71E-14,-0.001407843,0.001407843,-0.001407843,0.001407843,-0.001407843,0.001407843,-0.001407843,0.001407843,-0.001355778,0.001355778,-0.001355778,0.001355778,0.739427265,0.561760824,1368840,32768,0.005745957,0.005745957,0.005745957,25.32489995,25.33207045,0.000117799,0.000117799,0.000117799,280060.8315,0.017387497
29894400,0.999980537,0.016914734,0.005638245,0.005638245,0.005638245,-0.001383473,0.001383473,6.71E-12,-7.13E-12,-1.61E-14,-3.71E-13,-0.00140818,0.00140818,-0.00140818,0.00140818,-0.00140818,0.00140818,-0.00140818,0.00140818,-0.00135636,0.00135636,-0.00135636,0.00135636,-7.90E-13,-4.13E-13,-7.79E-14,3.94E-14,-0.001383473,0.001383473,-0.00140818,0.00140818,-0.00140818,0.00140818,-0.00140818,0.00140818,-0.00140818,0.00140818,-0.00135636,0.00135636,-0.00135636,0.00135636,-0.00135636,0.00135636,-0.00135636,0.00135636,-7.21E-12,7.12E-12,-0.001383473,0.001383473,1.43E-14,-1.07E-13,-0.00140818,0.00140818,-0.00140818,0.00140818,-0.00140818,0.00140818,-0.00140818,0.00140818,-0.00135636,0.00135636,-0.00135636,0.00135636,0.744081794,0.645637777,1368840,32768,0.005747873,0.005747873,0.005747873,25.43326758,25.44043184,0.000118666,0.000118666,0.000118666,272486.7472,0.017393347
29980800,0.999981111,0.016914744,0.005638248,0.005638248,0.005638248,-0.001383921,0.001383921,6.75E-12,-7.08E-12,-3.99E-14,-3.54E-13,-0.001408509,0.001408509,-0.001408509,0.001408509,-0.001408509,0.001408509,-0.001408509,0.001408509,-0.001356921,0.001356921,-0.001356921,0.001356921,-7.21E-13,-3.86E-13,-4.46E-14,1.14E-13,-0.001383921,0.001383921,-0.001408509,0.001408509,-0.001408509,0.001408509,-0.001408509,0.001408509,-0.001408509,0.001408509,-0.001356921,0.001356921,-0.001356921,0.001356921,-0.001356921,0.001356921,-0.001356921,0.001356921,-7.12E-12,7.21E-12,-0.001383921,0.001383921,6.65E-14,-9.63E-14,-0.001408509,0.001408509,-0.001408509,0.001408509,-0.001408509,0.001408509,-0.001408509,0.001408509,-0.001356921,0.001356921,-0.001356921,0.001356921,0.751695917,0.774231369,1368840,32768,0.005749729,0.005749729,0.005749729,25.54162876,25.54879324,0.000119533,0.000119533,0.000119533,265383.4228,0.017399009
30067200,0.999981672,0.016914753,0.005638251,0.005638251,0.005638251,-0.001384469,0.001384469,6.79E-12,-7.01E-12,4.33E-14,-2.01E-13,-0.00140889,0.00140889,-0.00140889,0.00140889,-0.00140889,0.00140889,-0.00140889,0.00140889,-0.001357626,0.001357626,-0.001357626,0.001357626,-6.75E-13,-4.09E-13,-4.68E-14,7.32E-14,-0.001384469,0.001384469,-0.00140889,0.00140889,-0.00140889,0.00140889,-0.00140889,0.00140889,-0.00140889,0.00140889,-0.001357626,0.001357626,-0.001357626,0.001357626,-0.001357626,0.001357626,-0.001357626,0.001357626,-7.11E-12,7.17E-12,-0.001384469,0.001384469,5.89E-14,-6.52E-14,-0.00140889,0.00140889,-0.00140889,0.00140889,-0.00140889,0.00140889,-0.00140889,0.00140889,-0.001357626,0.001357626,-0.001357626,0.001357626,0.747781529,0.700274827,1368840,32768,0.005751998,0.005751998,0.005751998,25.64998692,25.65715463,0.0001204,0.0001204,0.0001204,255506.1366,0.017405936
30153600,0.999982219,0.016914762,0.005638254,0.005638254,0.005638254,-0.001384496,0.001384496,6.72E-12,-7.08E-12,-6.19E-14,-3.19E-13,-0.001409002,0.001409002,-0.001409002,0.001409002,-0.001409002,0.001409002,-0.001409002,0.001409002,-0.001357573,0.001357573,-0.001357573,0.001357573,-7.29E-13,-4.51E-13,-8.14E-14,4.40E-14,-0.001384496,0.001384496,-0.001409002,0.001409002,-0.001409002,0.001409002,-0.001409002,0.001409002,-0.001409002,0.001409002,-0.001357573,0.001357573,-0.001357573,0.001357573,-0.001357573,0.001357573,-0.001357573,0.001357573,-7.13E-12,7.16E-12,-0.001384496,0.001384496,6.61E-14,-6.34E-14,-0.001409002,0.001409002,-0.001409002,0.001409002,-0.001409002,0.001409002,-0.001409002,0.001409002,-0.001357573,0.001357573,-0.001357573,0.001357573,0.736900593,0.536032226,1368840,32768,0.005752111,0.005752111,0.005752111,25.75834492,25.76551603,0.000121267,0.000121267,0.000121267,260191.5617,0.017406279
30240000,0.999982753,0.01691477,0.005638257,0.005638257,0.005638257,-0.001384245,0.001384245,6.71E-12,-7.08E-12,-5.92E-14,-3.35E-13,-0.001408977,0.001408977,-0.001408977,0.001408977,-0.001408977,0.001408977,-0.001408977,0.001408977,-0.001357114,0.001357115,-0.001357115,0.001357114,-7.25E-13,-4.27E-13,-4.82E-14,8.35E-14,-0.001384245,0.001384245,-0.001408977,0.001408977,-0.001408977,0.001408977,-0.001408977,0.001408977,-0.001408977,0.001408977,-0.001357115,0.001357115,-0.001357115,0.001357114,-0.001357115,0.001357114,-0.001357115,0.001357114,-7.14E-12,7.14E-12,-0.001384245,0.001384245,8.01E-14,-5.57E-14,-0.001408977,0.001408977,-0.001408977,0.001408977,-0.001408977,0.001408977,-0.001408977,0.001408977,-0.001357114,0.001357115,-0.001357115,0.001357114,0.733194626,0.492515184,1368840,32768,0.005751072,0.005751072,0.005751072,25.86670364,25.87387742,0.000122134,0.000122134,0.000122134,273084.2142,0.01740311
30326400,0.999983275,0.016914779,0.00563826,0.00563826,0.00563826,-0.001384318,0.001384318,6.70E-12,-7.09E-12,-6.22E-14,-3.47E-13,-0.001409122,0.001409122,-0.001409122,0.001409122,-0.001409122,0.001409122,-0.001409122,0.001409122,-0.001357123,0.001357123,-0.001357123,0.001357123,-7.44E-13,-4.37E-13,-9.68E-14,5.77E-14,-0.001384318,0.001384318,-0.001409122,0.001409122,-0.001409122,0.001409122,-0.001409122,0.001409122,-0.001409122,0.001409122,-0.001357123,0.001357123,-0.001357123,0.001357123,-0.001357123,0.001357123,-0.001357123,0.001357123,-7.19E-12,7.09E-12,-0.001384318,0.001384318,4.06E-14,-1.18E-13,-0.001409122,0.001409122,-0.001409122,0.001409122,-0.001409122,0.001409122,-0.001409122,0.001409122,-0.001357123,0.001357123,-0.001357123,0.001357123,0.729366972,0.448998142,1368840,32768,0.005751372,0.005751372,0.005751372,25.97506244,25.98223881,0.000123,0.000123,0.000123,276897.5298,0.017404025
30412800,0.999983785,0.016914787,0.005638262,0.005638262,0.005638262,-0.001384445,0.001384445,6.68E-12,-7.09E-12,-6.47E-14,-3.25E-13,-0.001409322,0.001409322,-0.001409322,0.001409322,-0.001409322,0.001409322,-0.001409322,0.001409322,-0.001357184,0.001357184,-0.001357184,0.001357184,-7.11E-13,-4.28E-13,-3.95E-14,9.52E-14,-0.001384445,0.001384445,-0.001409322,0.001409322,-0.001409322,0.001409322,-0.001409322,0.001409322,-0.001409322,0.001409322,-0.001357184,0.001357184,-0.001357184,0.001357184,-0.001357184,0.001357184,-0.001357184,0.001357184,-7.12E-12,7.14E-12,-0.001384445,0.001384445,7.03E-14,-6.86E-14,-0.001409322,0.001409322,-0.001409322,0.001409322,-0.001409322,0.001409322,-0.001409322,0.001409322,-0.001357184,0.001357184,-0.001357184,0.001357184,0.723684097,0.379728068,1368840,32768,0.005751897,0.005751897,0.005751897,26.11477025,26.12395666,0.000124118,0.000124118,0.000124118,280885.676,0.01740563
30499200,0.999984284,0.016914795,0.005638265,0.005638265,0.005638265,-0.001384535,0.001384535,6.68E-12,-7.08E-12,-3.26E-14,-3.44E-13,-0.001409535,0.001409535,-0.001409535,0.001409535,-0.001409535,0.001409535,-0.001409535,0.001409535,-0.001357164,0.001357164,-0.001357164,0.001357164,-7.42E-13,-4.09E-13,-5.66E-14,6.66E-14,-0.001384535,0.001384535,-0.001409535,0.001409535,-0.001409535,0.001409535,-0.001409535,0.001409535,-0.001409535,0.001409535,-0.001357164,0.001357164,-0.001357164,0.001357164,-0.001357164,0.001357164,-0.001357164,0.001357164,-7.11E-12,7.13E-12,-0.001384535,0.001384535,6.37E-14,-6.39E-14,-0.001409535,0.001409535,-0.001409535,0.001409535,-0.001409535,0.001409535,-0.001409535,0.001409535,-0.001357164,0.001357164,-0.001357164,0.001357164,0.730650998,0.505419393,1368840,32768,0.005752272,0.005752272,0.005752272,26.28424037,26.29540507,0.000125474,0.000125474,0.000125474,287700.0839,0.017406775
30585600,0.999984773,0.016914803,0.005638268,0.005638268,0.005638268,-0.001385266,0.001385266,6.65E-12,-7.08E-12,-1.63E-14,-3.86E-13,-0.00141007,0.00141007,-0.00141007,0.00141007,-0.00141007,0.00141007,-0.00141007,0.00141007,-0.001358079,0.001358079,-0.001358079,0.001358079,-7.65E-13,-3.73E-13,-8.05E-14,4.95E-14,-0.001385266,0.001385266,-0.00141007,0.00141007,-0.00141007,0.00141007,-0.00141007,0.00141007,-0.00141007,0.00141007,-0.001358079,0.001358079,-0.001358079,0.001358079,-0.001358079,0.001358079,-0.001358079,0.001358079,-7.07E-12,7.14E-12,-0.001385266,0.001385266,6.12E-14,-7.35E-14,-0.00141007,0.00141007,-0.00141007,0.00141007,-0.00141007,0.00141007,-0.00141007,0.00141007,-0.001358079,0.001358079,-0.001358079,0.001358079,0.732370725,0.542586441,1368840,32768,0.005755302,0.005755302,0.005755302,26.45550116,26.46685348,0.000126844,0.000126844,0.000126844,275849.3569,0.017416021
30672000,0.999985251,0.01691481,0.00563827,0.00563827,0.00563827,-0.001385708,0.001385708,6.65E-12,-7.08E-12,-2.61E-14,-4.18E-13,-0.001410455,0.001410455,-0.001410455,0.001410455,-0.001410455,0.001410455,-0.001410455,0.001410455,-0.001358576,0.001358576,-0.001358576,0.001358576,-7.66E-13,-3.52E-13,-9.39E-14,7.23E-14,-0.001385708,0.001385708,-0.001410455,0.001410455,-0.001410455,0.001410455,-0.001410455,0.001410455,-0.001410455,0.001410455,-0.001358576,0.001358576,-0.001358576,0.001358576,-0.001358576,0.001358576,-0.001358576,0.001358576,-7.11E-12,7.11E-12,-0.001385708,0.001385708,8.29E-14,-8.79E-14,-0.001410455,0.001410455,-0.001410455,0.001410455,-0.001410455,0.001410455,-0.001410455,0.001410455,-0.001358576,0.001358576,-0.001358576,0.001358576,0.734006973,0.576653842,1368840,32768,0.005757132,0.005757132,0.005757132,26.62692562,26.63830189,0.000128215,0.000128215,0.000128215,272368.5789,0.017421606
30758400,0.999985719,0.016914818,0.005638273,0.005638273,0.005638273,-0.001386139,0.001386139,6.66E-12,-7.07E-12,-1.68E-14,-4.11E-13,-0.001410836,0.001410836,-0.001410836,0.001410836,-0.001410836,0.001410836,-0.001410836,0.001410836,-0.001359054,0.001359054,-0.001359054,0.001359054,-7.47E-13,-3.31E-13,-5.47E-14,1.12E-13,-0.001386139,0.001386139,-0.001410836,0.001410836,-0.001410836,0.001410836,-0.001410836,0.001410836,-0.001410836,0.001410836,-0.001359054,0.001359054,-0.001359054,0.001359054,-0.001359054,0.001359054,-0.001359054,0.001359054,-7.09E-12,7.13E-12,-0.001386139,0.001386139,1.14E-13,-5.76E-14,-0.001410836,0.001410836,-0.001410836,0.001410836,-0.001410836,0.001410836,-0.001410836,0.001410836,-0.001359054,0.001359054,-0.001359054,0.001359054,0.737045262,0.632373066,1368840,32768,0.005758915,0.005758915,0.005758915,26.79836634,26.8097503,0.000129587,0.000129587,0.000129587,269243.5719,0.017427049
30844800,0.999986177,0.016914825,0.005638275,0.005638275,0.005638275,-0.001386627,0.001386627,6.67E-12,-7.06E-12,-5.35E-15,-4.07E-13,-0.001411246,0.001411246,-0.001411246,0.001411246,-0.001411246,0.001411246,-0.001411246,0.001411246,-0.001359616,0.001359616,-0.001359616,0.001359616,-7.27E-13,-3.03E-13,-5.09E-14,9.66E-14,-0.001386627,0.001386627,-0.001411246,0.001411246,-0.001411246,0.001411246,-0.001411246,0.001411246,-0.001411246,0.001411246,-0.001359616,0.001359616,-0.001359616,0.001359616,-0.001359616,0.001359616,-0.001359616,0.001359616,-7.12E-12,7.10E-12,-0.001386627,0.001386627,6.90E-14,-8.30E-14,-0.001411246,0.001411246,-0.001411246,0.001411246,-0.001411246,0.001411246,-0.001411246,0.001411246,-0.001359616,0.001359616,-0.001359616,0.001359616,0.743527361,0.743077516,1368840,32768,0.00576094,0.00576094,0.00576094,26.96980993,26.9811987,0.000130958,0.000130958,0.000130958,264466.4908,0.017433227
30931200,0.999986624,0.016914833,0.005638278,0.005638278,0.005638278,-0.001387252,0.001387252,6.65E-12,-7.12E-12,-5.77E-14,-4.27E-13,-0.001411726,0.001411726,-0.001411726,0.001411726,-0.001411726,0.001411726,-0.001411726,0.001411726,-0.001360376,0.001360376,-0.001360376,0.001360376,-6.54E-13,-2.62E-13,-5.55E-14,1.52E-13,-0.001387252,0.001387252,-0.001411726,0.001411726,-0.001411726,0.001411726,-0.001411726,0.001411726,-0.001411726,0.001411726,-0.001360376,0.001360376,-0.001360376,0.001360376,-0.001360376,0.001360376,-0.001360376,0.001360376,-7.08E-12,7.17E-12,-0.001387252,0.001387252,1.31E-13,-8.15E-14,-0.001411726,0.001411726,-0.001411726,0.001411726,-0.001411726,0.001411726,-0.001411726,0.001411726,-0.001360376,0.001360376,-0.001360376,0.001360376,0.746091604,0.770140889,1368840,32768,0.005763527,0.005763527,0.005763527,27.14125318,27.15264711,0.00013233,0.00013233,0.00013233,255848.1737,0.017441125
31017600,0.999987061,0.01691484,0.00563828,0.00563828,0.00563828,-0.001387658,0.001387658,6.69E-12,-7.11E-12,-2.62E-14,-3.89E-13,-0.001412091,0.001412091,-0.001412091,0.001412091,-0.001412091,0.001412091,-0.001412091,0.001412091,-0.001360818,0.001360818,-0.001360818,0.001360818,-7.65E-13,-3.80E-13,-9.68E-14,1.45E-13,-0.001387658,0.001387658,-0.001412091,0.001412091,-0.001412091,0.001412091,-0.001412091,0.001412091,-0.001412091,0.001412091,-0.001360818,0.001360818,-0.001360818,0.001360818,-0.001360818,0.001360818,-0.001360818,0.001360818,-7.14E-12,7.15E-12,-0.001387658,0.001387658,8.06E-14,-1.65E-13,-0.001412091,0.001412091,-0.001412091,0.001412091,-0.001412091,0.001412091,-0.001412091,0.001412091,-0.001360818,0.001360818,-0.001360818,0.001360818,0.748360043,0.787702236,1368840,32768,0.005765209,0.005765209,0.005765209,27.31269639,27.32409552,0.000133702,0.000133702,0.000133702,253268.4221,0.017446259
31104000,0.99998749,0.016914847,0.005638282,0.005638282,0.005638282,-0.001388144,0.001388144,6.73E-12,-7.13E-12,7.52E-14,-2.16E-13,-0.001412549,0.001412549,-0.001412549,0.001412549,-0.001412549,0.001412549,-0.001412549,0.001412549,-0.001361328,0.001361328,-0.001361328,0.001361328,-7.51E-13,-4.39E-13,-5.77E-14,2.23E-13,-0.001388144,0.001388144,-0.001412549,0.001412549,-0.001412549,0.001412549,-0.001412549,0.001412549,-0.001412549,0.001412549,-0.001361328,0.001361328,-0.001361328,0.001361328,-0.001361328,0.001361328,-0.001361328,0.001361328,-7.23E-12,7.12E-12,-0.001388144,0.001388144,9.75E-14,-1.86E-13,-0.001412549,0.001412549,-0.001412549,0.001412549,-0.001412549,0.001412549,-0.001412549,0.001412549,-0.001361328,0.001361328,-0.001361328,0.001361328,0.754615379,0.863080567,1368840,32768,0.005767225,0.005767225,0.005767225,27.53814681,27.55302022,0.000135505,0.000135505,0.000135505,251315.753,0.01745241
31190400,0.99998791,0.016914854,0.005638285,0.005638285,0.005638285,-0.001388803,0.001388803,6.71E-12,-7.12E-12,-2.35E-14,-3.10E-13,-0.001413112,0.001413112,-0.001413112,0.001413112,-0.001413112,0.001413112,-0.001413112,0.001413112,-0.001362071,0.001362071,-0.001362071,0.001362071,-7.70E-13,-4.62E-13,-2.17E-13,8.66E-14,-0.001388803,0.001388803,-0.001413112,0.001413112,-0.001413112,0.001413112,-0.001413112,0.001413112,-0.001413112,0.001413112,-0.001362071,0.001362071,-0.001362071,0.001362071,-0.001362071,0.001362071,-0.001362071,0.001362071,-7.14E-12,7.17E-12,-0.001388803,0.001388803,1.53E-13,-1.54E-13,-0.001413112,0.001413112,-0.001413112,0.001413112,-0.001413112,0.001413112,-0.001413112,0.001413112,-0.001362071,0.001362071,-0.001362071,0.001362071,0.761196625,0.927449207,1368840,32768,0.005769954,0.005769954,0.005769954,27.78245438,27.79866085,0.00013746,0.00013746,0.00013746,245520.9131,0.01746074
31276800,0.999988322,0.016914861,0.005638287,0.005638287,0.005638287,-0.001389434,0.001389434,6.68E-12,-7.05E-12,-5.32E-14,-3.95E-13,-0.001413662,0.001413662,-0.001413662,0.001413662,-0.001413662,0.001413662,-0.001413662,0.001413662,-0.001362771,0.001362771,-0.001362771,0.001362771,-7.70E-13,-4.06E-13,-2.88E-13,1.28E-13,-0.001389434,0.001389434,-0.001413662,0.001413662,-0.001413662,0.001413662,-0.001413662,0.001413662,-0.001413662,0.001413662,-0.001362771,0.001362771,-0.001362771,0.001362771,-0.001362771,0.001362771,-0.001362771,0.001362771,-7.11E-12,7.11E-12,-0.001389434,0.001389434,1.63E-13,-2.57E-13,-0.001413662,0.001413662,-0.001413662,0.001413662,-0.001413662,0.001413662,-0.001413662,0.001413662,-0.001362771,0.001362771,-0.001362771,0.001362771,0.760599293,0.864628261,1368840,32768,0.005772566,0.005772566,0.005772566,28.02795656,28.04430147,0.000139424,0.000139424,0.000139424,240497.8058,0.017468715
31363200,0.999988725,0.016914867,0.005638289,0.005638289,0.005638289,-0.001389782,0.001389782,6.68E-12,-7.09E-12,-2.27E-14,-4.06E-13,-0.001414067,0.001414067,-0.001414067,0.001414067,-0.001414067,0.001414067,-0.001414067,0.001414067,-0.001363062,0.001363062,-0.001363062,0.001363062,-7.60E-13,-3.54E-13,-2.22E-13,1.97E-13,-0.001389782,0.001389782,-0.001414067,0.001414067,-0.001414067,0.001414067,-0.001414067,0.001414067,-0.001414067,0.001414067,-0.001363062,0.001363062,-0.001363062,0.001363062,-0.001363062,0.001363062,-0.001363062,0.001363062,-7.16E-12,7.10E-12,-0.001389782,0.001389782,1.71E-13,-2.52E-13,-0.001414067,0.001414067,-0.001414067,0.001414067,-0.001414067,0.001414067,-0.001414067,0.001414067,-0.001363062,0.001363062,-0.001363062,0.001363062,0.757878608,0.799059501,1368840,32768,0.005774011,0.005774011,0.005774011,28.27356839,28.28994209,0.000141389,0.000141389,0.000141389,243267.4776,0.017473125
31449600,0.99998912,0.016914874,0.005638291,0.005638291,0.005638291,-0.00139011,0.00139011,6.67E-12,-7.08E-12,-6.04E-15,-3.84E-13,-0.001414464,0.001414464,-0.001414464,0.001414464,-0.001414464,0.001414464,-0.001414464,0.001414464,-0.001363322,0.001363322,-0.001363322,0.001363322,-7.32E-13,-3.31E-13,-1.95E-13,2.33E-13,-0.00139011,0.00139011,-0.001414464,0.001414464,-0.001414464,0.001414464,-0.001414464,0.001414464,-0.001414464,0.001414464,-0.001363322,0.001363322,-0.001363322,0.001363322,-0.001363322,0.001363322,-0.001363322,0.001363322,-7.07E-12,7.17E-12,-0.00139011,0.00139011,1.55E-13,-2.77E-13,-0.001414464,0.001414464,-0.001414464,0.001414464,-0.001414464,0.001414464,-0.001414464,0.001414464,-0.001363322,0.001363322,-0.001363322,0.001363322,0.753842954,0.733490742,1368840,32768,0.005775367,0.005775367,0.005775367,28.51919141,28.53558271,0.000143354,0.000143354,0.000143354,246922.6313,0.017477265
31536000,0.999989507,0.01691488,0.005638293,0.005638293,0.005638293,-0.001390424,0.001390424,6.74E-12,-7.04E-12,6.58E-14,-3.87E-13,-0.001414858,0.001414858,-0.001414858,0.001414858,-0.001414858,0.001414858,-0.001414858,0.001414858,-0.001363562,0.001363562,-0.001363562,0.001363562,-7.64E-13,-2.90E-13,-1.67E-13,2.70E-13,-0.001390424,0.001390424,-0.001414858,0.001414858,-0.001414858,0.001414858,-0.001414858,0.001414858,-0.001414858,0.001414858,-0.001363562,0.001363562,-0.001363562,0.001363562,-0.001363562,0.001363562,-0.001363562,0.001363562,-7.15E-12,7.12E-12,-0.001390424,0.001390424,1.86E-13,-2.55E-13,-0.001414858,0.001414858,-0.001414858,0.001414858,-0.001414858,0.001414858,-0.001414858,0.001414858,-0.001363562,0.001363562,-0.001363562,0.001363562,0.749072445,0.667921983,1368840,32768,0.005776667,0.005776667,0.005776667,28.76481655,28.78122333,0.000145319,0.000145319,0.000145319,251176.3677,0.017481234
31622400,0.999989885,0.016914887,0.005638296,0.005638296,0.005638296,-0.001390726,0.001390726,6.51E-12,-7.28E-12,-1.45E-13,-5.93E-13,-0.001415248,0.001415248,-0.001415248,0.001415248,-0.001415248,0.001415248,-0.001415248,0.001415248,-0.001363784,0.001363784,-0.001363784,0.001363784,-7.12E-13,-2.43E-13,-1.60E-13,3.87E-13,-0.001390726,0.001390726,-0.001415248,0.001415248,-0.001415248,0.001415248,-0.001415248,0.001415248,-0.001415248,0.001415248,-0.001363784,0.001363784,-0.001363784,0.001363784,-0.001363784,0.001363784,-0.001363784,0.001363784,-7.15E-12,7.12E-12,-0.001390726,0.001390726,2.00E-13,-3.51E-13,-0.001415248,0.001415248,-0.001415248,0.001415248,-0.001415248,0.001415248,-0.001415248,0.001415248,-0.001363784,0.001363784,-0.001363784,0.001363784,0.743860851,0.602353223,1368840,32768,0.005777919,0.005777919,0.005777919,29.01044267,29.02686396,0.000147284,0.000147284,0.000147284,255897.3482,0.017485054
31708800,0.999990254,0.016914893,0.005638298,0.005638298,0.005638298,-0.001391008,0.001391008,6.85E-12,-7.01E-12,1.69E-13,-2.19E-13,-0.001415623,0.001415623,-0.001415623,0.001415623,-0.001415623,0.001415623,-0.001415623,0.001415623,-0.001363981,0.001363981,-0.001363981,0.001363981,-7.09E-13,-2.99E-13,-1.36E-13,2.92E-13,-0.001391008,0.001391008,-0.001415623,0.001415623,-0.001415623,0.001415623,-0.001415623,0.001415623,-0.001415623,0.001415623,-0.001363981,0.001363981,-0.001363981,0.001363981,-0.001363981,0.001363981,-0.001363981,0.001363981,-7.32E-12,7.03E-12,-0.001391008,0.001391008,6.24E-14,-3.68E-13,-0.001415623,0.001415623,-0.001415623,0.001415623,-0.001415623,0.001415623,-0.001415623,0.001415623,-0.001363981,0.001363981,-0.001363981,0.001363981,0.73835135,0.536784464,1368840,32768,0.005779087,0.005779087,0.005779087,29.25138002,29.26751187,0.000149211,0.000149211,0.000149211,261019.9226,0.017488619
31795200,0.999990611,0.016914898,0.005638299,0.005638299,0.005638299,-0.001390848,0.001390848,6.74E-12,-7.14E-12,1.17E-14,-3.74E-13,-0.00141557,0.00141557,-0.00141557,0.00141557,-0.00141557,0.00141557,-0.00141557,0.00141557,-0.001363727,0.001363727,-0.001363727,0.001363727,-7.57E-13,-3.49E-13,-1.82E-13,2.31E-13,-0.001390848,0.001390848,-0.00141557,0.00141557,-0.00141557,0.00141557,-0.00141557,0.00141557,-0.00141557,0.00141557,-0.001363727,0.001363727,-0.001363727,0.001363727,-0.001363727,0.001363727,-0.001363727,0.001363727,-7.22E-12,7.15E-12,-0.001390848,0.001390848,1.62E-13,-2.54E-13,-0.00141557,0.00141557,-0.00141557,0.00141557,-0.00141557,0.00141557,-0.00141557,0.00141557,-0.001363727,0.001363727,-0.001363727,0.001363727,0.731335702,0.452263588,1368840,32768,0.005778426,0.005778426,0.005778426,29.26966162,29.27139413,0.000149357,0.000149357,0.000149357,266674.6705,0.017486602
31881600,0.999990954,0.016914904,0.005638301,0.005638301,0.005638301,-0.001390592,0.001390592,6.71E-12,-7.13E-12,-2.55E-15,-4.19E-13,-0.001415453,0.001415453,-0.001415453,0.001415453,-0.001415453,0.001415453,-0.001415453,0.001415453,-0.001363347,0.001363347,-0.001363347,0.001363347,-7.64E-13,-3.26E-13,-1.70E-13,2.12E-13,-0.001390592,0.001390592,-0.001415453,0.001415453,-0.001415453,0.001415453,-0.001415453,0.001415453,-0.001415453,0.001415453,-0.001363347,0.001363347,-0.001363347,0.001363347,-0.001363347,0.001363347,-0.001363347,0.001363347,-7.19E-12,7.13E-12,-0.001390592,0.001390592,1.52E-13,-2.34E-13,-0.001415453,0.001415453,-0.001415453,0.001415453,-0.001415453,0.001415453,-0.001415453,0.001415453,-0.001363347,0.001363347,-0.001363347,0.001363347,0.747896117,0.762264573,1368840,32768,0.005777365,0.005777365,0.005777365,29.27487115,29.27527638,0.000149399,0.000149399,0.000149399,274386.4075,0.017483367
31968000,0.999991285,0.016914909,0.005638303,0.005638303,0.005638303,-0.001391445,0.001391445,6.70E-12,-7.13E-12,-1.41E-17,-4.22E-13,-0.001415894,0.001415894,-0.001415894,0.001415894,-0.001415894,0.001415894,-0.001415894,0.001415894,-0.001364587,0.001364587,-0.001364587,0.001364587,-7.65E-13,-3.21E-13,-1.62E-13,2.13E-13,-0.001391445,0.001391445,-0.001415894,0.001415894,-0.001415894,0.001415894,-0.001415894,0.001415894,-0.001415894,0.001415894,-0.001364587,0.001364587,-0.001364587,0.001364587,-0.001364587,0.001364587,-0.001364587,0.001364587,-7.18E-12,7.14E-12,-0.001391445,0.001391445,1.54E-13,-2.25E-13,-0.001415894,0.001415894,-0.001415894,0.001415894,-0.001415894,0.001415894,-0.001415894,0.001415894,-0.001364587,0.001364587,-0.001364587,0.001364587,0.750220529,0.783470411,1368840,32768,0.005780898,0.005780898,0.005780898,29.27888432,29.27915864,0.000149431,0.000149431,0.000149431,250275.4564,0.017494148
32054400,0.999991604,0.016914915,0.005638305,0.005638305,0.005638305,-0.001391511,0.001391511,6.70E-12,-7.13E-12,-2.89E-15,-4.27E-13,-0.001415924,0.001415924,-0.001415924,0.001415924,-0.001415924,0.001415924,-0.001415924,0.001415924,-0.001364683,0.001364683,-0.001364683,0.001364683,-7.61E-13,-3.15E-13,-1.61E-13,2.09E-13,-0.001391511,0.001391511,-0.001415924,0.001415924,-0.001415924,0.001415924,-0.001415924,0.001415924,-0.001415924,0.001415924,-0.001364683,0.001364683,-0.001364683,0.001364683,-0.001364683,0.001364683,-0.001364683,0.001364683,-7.18E-12,7.14E-12,-0.001391511,0.001391511,1.53E-13,-2.21E-13,-0.001415924,0.001415924,-0.001415924,0.001415924,-0.001415924,0.001415924,-0.001415924,0.001415924,-0.001364683,0.001364683,-0.001364683,0.001364683,0.752826124,0.805239913,1368840,32768,0.005781173,0.005781173,0.005781173,29.28277972,29.28304089,0.000149462,0.000149462,0.000149462,248110.1058,0.017494986
32140800,0.999991912,0.01691492,0.005638307,0.005638307,0.005638307,-0.001391578,0.001391578,6.70E-12,-7.13E-12,-1.36E-15,-4.19E-13,-0.001415959,0.001415959,-0.001415959,0.001415959,-0.001415959,0.001415959,-0.001415959,0.001415959,-0.001364777,0.001364777,-0.001364777,0.001364777,-7.56E-13,-3.16E-13,-1.55E-13,2.08E-13,-0.001391578,0.001391578,-0.001415959,0.001415959,-0.001415959,0.001415959,-0.001415959,0.001415959,-0.001415959,0.001415959,-0.001364777,0.001364777,-0.001364777,0.001364777,-0.001364777,0.001364777,-0.001364777,0.001364777,-7.18E-12,7.14E-12,-0.001391578,0.001391578,1.48E-13,-2.18E-13,-0.001415959,0.001415959,-0.001415959,0.001415959,-0.001415959,0.001415959,-0.001415959,0.001415959,-0.001364777,0.001364777,-0.001364777,0.001364777,0.756119779,0.833111574,1368840,32768,0.00578145,0.00578145,0.00578145,29.28666334,29.28692315,0.000149493,0.000149493,0.000149493,245958.772,0.017495833
32227200,0.999992208,0.016914925,0.005638308,0.005638308,0.005638308,-0.001391659,0.001391659,6.70E-12,-7.13E-12,-1.11E-15,-4.16E-13,-0.001416001,0.001416001,-0.001416001,0.001416001,-0.001416001,0.001416001,-0.001416001,0.001416001,-0.001364891,0.001364891,-0.001364891,0.001364891,-7.54E-13,-3.17E-13,-1.51E-13,2.04E-13,-0.001391659,0.001391659,-0.001416001,0.001416001,-0.001416001,0.001416001,-0.001416001,0.001416001,-0.001416001,0.001416001,-0.001364891,0.001364891,-0.001364891,0.001364891,-0.001364891,0.001364891,-0.001364891,0.001364891,-7.18E-12,7.14E-12,-0.001391659,0.001391659,1.45E-13,-2.14E-13,-0.001416001,0.001416001,-0.001416001,0.001416001,-0.001416001,0.001416001,-0.001416001,0.001416001,-0.001364891,0.001364891,-0.001364891,0.001364891,0.759775607,0.860983236,1368840,32768,0.005781784,0.005781784,0.005781784,29.29054578,29.2908054,0.000149524,0.000149524,0.000149524,243402.8702,0.017496852
32313600,0.999992493,0.016914929,0.00563831,0.00563831,0.00563831,-0.001391739,0.001391739,6.70E-12,-7.13E-12,5.39E-16,-4.19E-13,-0.001416043,0.001416043,-0.001416043,0.001416043,-0.001416043,0.001416043,-0.001416043,0.001416043,-0.001365002,0.001365002,-0.001365002,0.001365002,-7.56E-13,-3.14E-13,-1.45E-13,2.05E-13,-0.001391739,0.001391739,-0.001416043,0.001416043,-0.001416043,0.001416043,-0.001416043,0.001416043,-0.001416043,0.001416043,-0.001365002,0.001365002,-0.001365002,0.001365002,-0.001365002,0.001365002,-0.001365002,0.001365002,-7.18E-12,7.14E-12,-0.001391739,0.001391739,1.44E-13,-2.09E-13,-0.001416043,0.001416043,-0.001416043,0.001416043,-0.001416043,0.001416043,-0.001416043,0.001416043,-0.001365002,0.001365002,-0.001365002,0.001365002,0.763735182,0.888854897,1368840,32768,0.005782115,0.005782115,0.005782115,29.29442811,29.29468766,0.000149555,0.000149555,0.000149555,240837.0751,0.017497862
32400000,0.999992768,0.016914934,0.005638311,0.005638311,0.005638311,-0.001391817,0.001391817,6.70E-12,-7.13E-12,-7.71E-16,-4.18E-13,-0.001416084,0.001416084,-0.001416084,0.001416084,-0.001416084,0.001416084,-0.001416084,0.001416084,-0.001365112,0.001365112,-0.001365112,0.001365112,-7.57E-13,-3.18E-13,-1.46E-13,2.01E-13,-0.001391817,0.001391817,-0.001416084,0.001416084,-0.001416084,0.001416084,-0.001416084,0.001416084,-0.001416084,0.001416084,-0.001365112,0.001365112,-0.001365112,0.001365112,-0.001365112,0.001365112,-0.001365112,0.001365112,-7.17E-12,7.14E-12,-0.001391817,0.001391817,1.44E-13,-2.07E-13,-0.001416084,0.001416084,-0.001416084,0.001416084,-0.001416084,0.001416084,-0.001416084,0.001416084,-0.001365112,0.001365112,-0.001365112,0.001365112,0.767936663,0.916726559,1368840,32768,0.005782441,0.005782441,0.005782441,29.29831043,29.29856991,0.000149586,0.000149586,0.000149586,238278.817,0.017498858
32486400,0.999993033,0.016914938,0.005638313,0.005638313,0.005638313,-0.001391893,0.001391893,6.70E-12,-7.13E-12,2.23E-15,-4.24E-13,-0.001416122,0.001416122,-0.001416122,0.001416122,-0.001416122,0.001416122,-0.001416122,0.001416122,-0.001365217,0.001365217,-0.001365217,0.001365217,-7.63E-13,-3.15E-13,-1.44E-13,2.03E-13,-0.001391893,0.001391893,-0.001416122,0.001416122,-0.001416122,0.001416122,-0.001416122,0.001416122,-0.001416122,0.001416122,-0.001365217,0.001365217,-0.001365217,0.001365217,-0.001365217,0.001365217,-0.001365217,0.001365217,-7.17E-12,7.15E-12,-0.001391893,0.001391893,1.46E-13,-2.04E-13,-0.001416122,0.001416122,-0.001416122,0.001416122,-0.001416122,0.001416122,-0.001416122,0.001416122,-0.001365217,0.001365217,-0.001365217,0.001365217,0.763226156,0.814810107,1368840,32768,0.005782753,0.005782753,0.005782753,29.3010254,29.3012096,0.000149608,0.000149608,0.000149608,235749.6596,0.017499809
32572800,0.999993288,0.016914943,0.005638314,0.005638314,0.005638314,-0.001391625,0.001391625,6.68E-12,-7.15E-12,-1.75E-14,-4.38E-13,-0.001415961,0.001415961,-0.001415961,0.001415961,-0.001415961,0.001415961,-0.001415961,0.001415961,-0.001364848,0.001364848,-0.001364848,0.001364848,-7.74E-13,-3.31E-13,-1.44E-13,1.81E-13,-0.001391625,0.001391625,-0.001415961,0.001415961,-0.001415961,0.001415961,-0.001415961,0.001415961,-0.001415961,0.001415961,-0.001364848,0.001364848,-0.001364848,0.001364848,-0.001364848,0.001364848,-0.001364848,0.001364848,-7.19E-12,7.13E-12,-0.001391625,0.001391625,1.32E-13,-1.96E-13,-0.001415961,0.001415961,-0.001415961,0.001415961,-0.001415961,0.001415961,-0.001415961,0.001415961,-0.001364848,0.001364848,-0.001364848,0.001364848,0.756260981,0.710552282,1368840,32768,0.005781643,0.005781643,0.005781643,29.27723761,29.2757071,0.000149418,0.000149418,0.000149418,241476.8039,0.017496423
32659200,0.999993533,0.016914947,0.005638316,0.005638316,0.005638316,-0.001391321,0.001391321,6.70E-12,-7.12E-12,1.04E-14,-4.12E-13,-0.001415784,0.001415784,-0.001415784,0.001415784,-0.001415784,0.001415784,-0.001415784,0.001415784,-0.001364428,0.001364428,-0.001364428,0.001364428,-7.72E-13,-3.28E-13,-1.25E-13,1.66E-13,-0.001391321,0.001391321,-0.001415784,0.001415784,-0.001415784,0.001415784,-0.001415784,0.001415784,-0.001415784,0.001415784,-0.001364428,0.001364428,-0.001364428,0.001364428,-0.001364428,0.001364428,-0.001364428,0.001364428,-7.18E-12,7.13E-12,-0.001391321,0.001391321,1.01E-13,-1.94E-13,-0.001415784,0.001415784,-0.001415784,0.001415784,-0.001415784,0.001415784,-0.001415784,0.001415784,-0.001364428,0.001364428,-0.001364428,0.001364428,0.748297485,0.606294458,1368840,32768,0.005780386,0.005780386,0.005780386,29.25189339,29.2502046,0.000149215,0.000149215,0.000149215,248463.0133,0.017492585
32745600,0.999993769,0.016914951,0.005638317,0.005638317,0.005638317,-0.001390992,0.001390992,6.69E-12,-7.12E-12,-1.44E-16,-4.24E-13,-0.001415599,0.001415599,-0.001415599,0.001415599,-0.001415599,0.001415599,-0.001415599,0.001415599,-0.001363967,0.001363967,-0.001363967,0.001363967,-7.61E-13,-3.16E-13,-1.20E-13,1.65E-13,-0.001390992,0.001390992,-0.001415599,0.001415599,-0.001415599,0.001415599,-0.001415599,0.001415599,-0.001415599,0.001415599,-0.001363967,0.001363967,-0.001363967,0.001363967,-0.001363967,0.001363967,-0.001363967,0.001363967,-7.16E-12,7.14E-12,-0.001390992,0.001390992,1.22E-13,-1.67E-13,-0.001415599,0.001415599,-0.001415599,0.001415599,-0.001415599,0.001415599,-0.001415599,0.001415599,-0.001363967,0.001363967,-0.001363967,0.001363967,0.739751075,0.502036633,1368840,32768,0.00577902,0.00577902,0.00577902,29.22640652,29.22470209,0.000149011,0.000149011,0.000149011,256419.1503,0.017488416
32832000,0.999993996,0.016914954,0.005638318,0.005638318,0.005638318,-0.001390635,0.001390635,6.70E-12,-7.11E-12,-1.07E-14,-4.21E-13,-0.001415398,0.001415398,-0.001415398,0.001415398,-0.001415398,0.001415398,-0.001415398,0.001415398,-0.001363468,0.001363468,-0.001363468,0.001363468,-7.50E-13,-3.17E-13,-1.15E-13,1.86E-13,-0.001390635,0.001390635,-0.001415398,0.001415398,-0.001415398,0.001415398,-0.001415398,0.001415398,-0.001415398,0.001415398,-0.001363468,0.001363468,-0.001363468,0.001363468,-0.001363468,0.001363468,-0.001363468,0.001363468,-7.16E-12,7.13E-12,-0.001390635,0.001390635,1.20E-13,-1.85E-13,-0.001415398,0.001415398,-0.001415398,0.001415398,-0.001415398,0.001415398,-0.001415398,0.001415398,-0.001363468,0.001363468,-0.001363468,0.001363468,0.731352925,0.404609272,1368840,32768,0.005777541,0.005777541,0.005777541,29.20090549,29.19919959,0.000148807,0.000148807,0.000148807,265261.9652,0.017483902
32918400,0.999994215,0.016914958,0.005638319,0.005638319,0.005638319,-0.00139027,0.00139027,6.67E-12,-7.12E-12,-1.29E-14,-4.24E-13,-0.001415197,0.001415197,-0.001415197,0.001415197,-0.001415197,0.001415197,-0.001415197,0.001415197,-0.001362956,0.001362956,-0.001362956,0.001362956,-7.74E-13,-3.41E-13,-1.40E-13,1.61E-13,-0.00139027,0.00139027,-0.001415197,0.001415197,-0.001415197,0.001415197,-0.001415197,0.001415197,-0.001415197,0.001415197,-0.001362956,0.001362956,-0.001362956,0.001362956,-0.001362956,0.001362956,-0.001362956,0.001362956,-7.16E-12,7.12E-12,-0.00139027,0.00139027,1.29E-13,-1.75E-13,-0.001415197,0.001415197,-0.001415197,0.001415197,-0.001415197,0.001415197,-0.001415197,0.001415197,-0.001362956,0.001362956,-0.001362956,0.001362956,0.741579077,0.591366933,1368840,32768,0.00577603,0.00577603,0.00577603,29.17540309,29.17369709,0.000148603,0.000148603,0.000148603,274497.9344,0.017479291
33004800,0.999994425,0.016914961,0.00563832,0.00563832,0.00563832,-0.001390765,0.001390765,6.67E-12,-7.12E-12,-8.92E-15,-4.20E-13,-0.001415427,0.001415427,-0.001415427,0.001415427,-0.001415427,0.001415427,-0.001415427,0.001415427,-0.001363699,0.001363699,-0.001363699,0.001363699,-7.51E-13,-3.18E-13,-1.23E-13,1.83E-13,-0.001390765,0.001390765,-0.001415427,0.001415427,-0.001415427,0.001415427,-0.001415427,0.001415427,-0.001415427,0.001415427,-0.001363699,0.001363699,-0.001363699,0.001363699,-0.001363699,0.001363699,-0.001363699,0.001363699,-7.16E-12,7.11E-12,-0.001390765,0.001390765,1.14E-13,-1.95E-13,-0.001415427,0.001415427,-0.001415427,0.001415427,-0.001415427,0.001415427,-0.001415427,0.001415427,-0.001363699,0.001363699,-0.001363699,0.001363699,0.742938119,0.625031857,1368840,32768,0.005778081,0.005778081,0.005778081,29.14990046,29.14819459,0.000148399,0.000148399,0.000148399,258677.4869,0.017485549
33091200,0.999994627,0.016914965,0.005638322,0.005638322,0.005638322,-0.001390804,0.001390804,6.66E-12,-7.11E-12,-8.89E-15,-4.32E-13,-0.00141542,0.00141542,-0.00141542,0.00141542,-0.00141542,0.00141542,-0.00141542,0.00141542,-0.001363784,0.001363784,-0.001363784,0.001363784,-7.70E-13,-3.26E-13,-1.17E-13,1.63E-13,-0.001390804,0.001390804,-0.00141542,0.00141542,-0.00141542,0.00141542,-0.00141542,0.00141542,-0.00141542,0.00141542,-0.001363784,0.001363784,-0.001363784,0.001363784,-0.001363784,0.001363784,-0.001363784,0.001363784,-7.15E-12,7.11E-12,-0.001390804,0.001390804,1.13E-13,-1.71E-13,-0.00141542,0.00141542,-0.00141542,0.00141542,-0.00141542,0.00141542,-0.00141542,0.00141542,-0.001363784,0.001363784,-0.001363784,0.001363784,0.753027436,0.799780998,1368840,32768,0.005778245,0.005778245,0.005778245,29.12439728,29.12269208,0.000148195,0.000148195,0.000148195,255887.0374,0.017486049
33177600,0.999994822,0.016914968,0.005638323,0.005638323,0.005638323,-0.001391191,0.001391191,6.68E-12,-7.11E-12,-2.05E-15,-4.27E-13,-0.001415591,0.001415591,-0.001415591,0.001415591,-0.001415591,0.001415591,-0.001415591,0.001415591,-0.001364372,0.001364372,-0.001364372,0.001364372,-7.58E-13,-3.11E-13,-1.18E-13,1.73E-13,-0.001391191,0.001391191,-0.001415591,0.001415591,-0.001415591,0.001415591,-0.001415591,0.001415591,-0.001415591,0.001415591,-0.001364372,0.001364372,-0.001364372,0.001364372,-0.001364372,0.001364372,-0.001364372,0.001364372,-7.15E-12,7.12E-12,-0.001391191,0.001391191,1.23E-13,-1.72E-13,-0.001415591,0.001415591,-0.001415591,0.001415591,-0.001415591,0.001415591,-0.001415591,0.001415591,-0.001364372,0.001364372,-0.001364372,0.001364372,0.755939518,0.821298089,1368840,32768,0.005779848,0.005779848,0.005779848,29.09889438,29.09718958,0.000147991,0.000147991,0.000147991,243310.4282,0.017490943
33264000,0.999995009,0.016914971,0.005638324,0.005638324,0.005638324,-0.001391219,0.001391219,6.67E-12,-7.11E-12,1.86E-15,-4.24E-13,-0.001415587,0.001415587,-0.001415587,0.001415587,-0.001415587,0.001415587,-0.001415587,0.001415587,-0.001364427,0.001364427,-0.001364427,0.001364427,-7.58E-13,-3.10E-13,-1.16E-13,1.68E-13,-0.001391219,0.001391219,-0.001415587,0.001415587,-0.001415587,0.001415587,-0.001415587,0.001415587,-0.001415587,0.001415587,-0.001364427,0.001364427,-0.001364427,0.001364427,-0.001364427,0.001364427,-0.001364427,0.001364427,-7.14E-12,7.13E-12,-0.001391219,0.001391219,1.22E-13,-1.65E-13,-0.001415587,0.001415587,-0.001415587,0.001415587,-0.001415587,0.001415587,-0.001415587,0.001415587,-0.001364427,0.001364427,-0.001364427,0.001364427,0.759054951,0.84281518,1368840,32768,0.005779964,0.005779964,0.005779964,29.08280155,29.08170456,0.000147862,0.000147862,0.000147862,241139.4266,0.017491296
33350400,0.999995191,0.016914974,0.005638325,0.005638325,0.005638325,-0.001391513,0.001391513,6.68E-12,-7.09E-12,1.50E-14,-4.24E-13,-0.001415846,0.001415846,-0.001415846,0.001415846,-0.001415846,0.001415846,-0.001415846,0.001415846,-0.00136475,0.00136475,-0.00136475,0.00136475,-7.79E-13,-3.18E-13,-1.26E-13,1.36E-13,-0.001391513,0.001391513,-0.001415846,0.001415846,-0.001415846,0.001415846,-0.001415846,0.001415846,-0.001415846,0.001415846,-0.00136475,0.00136475,-0.00136475,0.00136475,-0.00136475,0.00136475,-0.00136475,0.00136475,-7.13E-12,7.12E-12,-0.001391513,0.001391513,1.10E-13,-1.56E-13,-0.001415846,0.001415846,-0.001415846,0.001415846,-0.001415846,0.001415846,-0.001415846,0.001415846,-0.00136475,0.00136475,-0.00136475,0.00136475,0.762370338,0.864332271,1368840,32768,0.005781182,0.005781182,0.005781182,29.20506508,29.21292077,0.000148841,0.000148841,0.000148841,238909.4944,0.017495015
33436800,0.999995367,0.016914977,0.005638326,0.005638326,0.005638326,-0.001391822,0.001391822,6.58E-12,-7.19E-12,-9.90E-14,-4.54E-13,-0.001416124,0.001416124,-0.001416124,0.001416124,-0.001416124,0.001416124,-0.001416124,0.001416124,-0.001365083,0.001365083,-0.001365083,0.001365083,-6.58E-13,-2.81E-13,-1.56E-13,1.20E-13,-0.001391822,0.001391822,-0.001416124,0.001416124,-0.001416124,0.001416124,-0.001416124,0.001416124,-0.001416124,0.001416124,-0.001365083,0.001365083,-0.001365083,0.001365083,-0.001365083,0.001365083,-0.001365083,0.001365083,-7.21E-12,7.05E-12,-0.001391822,0.001391822,5.18E-14,-2.30E-13,-0.001416124,0.001416124,-0.001416124,0.001416124,-0.001416124,0.001416124,-0.001416124,0.001416124,-0.001365083,0.001365083,-0.001365083,0.001365083,0.765861286,0.885849362,1368840,32768,0.005782461,0.005782461,0.005782461,29.33545489,29.34413698,0.000149884,0.000149884,0.000149884,236788.2703,0.017498919
33523200,0.999995539,0.01691498,0.005638327,0.005638327,0.005638327,-0.001392131,0.001392131,6.71E-12,-7.12E-12,-2.08E-14,-4.15E-13,-0.001416403,0.001416403,-0.001416403,0.001416403,-0.001416403,0.001416403,-0.001416403,0.001416403,-0.001365416,0.001365416,-0.001365416,0.001365416,-7.74E-13,-3.56E-13,-2.45E-13,9.19E-14,-0.001392131,0.001392131,-0.001416403,0.001416403,-0.001416403,0.001416403,-0.001416403,0.001416403,-0.001416403,0.001416403,-0.001365416,0.001365416,-0.001365416,0.001365416,-0.001365416,0.001365416,-0.001365416,0.001365416,-7.25E-12,7.06E-12,-0.001392131,0.001392131,7.66E-14,-2.63E-13,-0.001416403,0.001416403,-0.001416403,0.001416403,-0.001416403,0.001416403,-0.001416403,0.001416403,-0.001365416,0.001365416,-0.001365416,0.001365416,0.769500704,0.907366454,1368840,32768,0.005783742,0.005783742,0.005783742,29.46658825,29.4753532,0.000150933,0.000150933,0.000150933,234688.2549,0.017502827
33609600,0.999995705,0.016914983,0.005638328,0.005638328,0.005638328,-0.001392439,0.001392439,6.70E-12,-7.12E-12,7.22E-15,-4.12E-13,-0.00141668,0.00141668,-0.00141668,0.00141668,-0.00141668,0.00141668,-0.00141668,0.00141668,-0.001365748,0.001365748,-0.001365748,0.001365748,-7.63E-13,-3.21E-13,-1.29E-13,1.75E-13,-0.001392439,0.001392439,-0.00141668,0.00141668,-0.00141668,0.00141668,-0.00141668,0.00141668,-0.00141668,0.00141668,-0.001365748,0.001365748,-0.001365748,0.001365748,-0.001365748,0.001365748,-0.001365748,0.001365748,-7.17E-12,7.13E-12,-0.001392439,0.001392439,1.29E-13,-1.78E-13,-0.00141668,0.00141668,-0.00141668,0.00141668,-0.00141668,0.00141668,-0.00141668,0.00141668,-0.001365748,0.001365748,-0.001365748,0.001365748,0.768433372,0.858129312,1368840,32768,0.005785018,0.005785018,0.005785018,29.59779141,29.60656941,0.000151982,0.000151982,0.000151982,232603.6021,0.017506722
33696000,0.999995866,0.016914985,0.005638328,0.005638328,0.005638328,-0.001392592,0.001392592,6.67E-12,-7.12E-12,-2.12E-14,-4.00E-13,-0.00141688,0.00141688,-0.00141688,0.00141688,-0.00141688,0.00141688,-0.00141688,0.00141688,-0.001365854,0.001365854,-0.001365854,0.001365854,-7.53E-13,-3.52E-13,-1.21E-13,1.38E-13,-0.001392592,0.001392592,-0.00141688,0.00141688,-0.00141688,0.00141688,-0.00141688,0.00141688,-0.00141688,0.00141688,-0.001365854,0.001365854,-0.001365854,0.001365854,-0.001365854,0.001365854,-0.001365854,0.001365854,-7.15E-12,7.12E-12,-0.001392592,0.001392592,1.15E-13,-1.47E-13,-0.00141688,0.00141688,-0.00141688,0.00141688,-0.00141688,0.00141688,-0.00141688,0.00141688,-0.001365854,0.001365854,-0.001365854,0.001365854,0.774893761,0.941435666,1368840,32768,0.005785651,0.005785651,0.005785651,29.72900756,29.73778562,0.000153032,0.000153032,0.000153032,234903.4352,0.017508654
33782400,0.999996022,0.016914988,0.005638329,0.005638329,0.005638329,-0.001393027,0.001393027,6.68E-12,-7.09E-12,-7.60E-15,-4.02E-13,-0.001417226,0.001417226,-0.001417226,0.001417226,-0.001417226,0.001417226,-0.001417226,0.001417226,-0.001366369,0.001366369,-0.001366369,0.001366369,-7.49E-13,-3.33E-13,-1.22E-13,1.57E-13,-0.001393027,0.001393027,-0.001417226,0.001417226,-0.001417226,0.001417226,-0.001417226,0.001417226,-0.001417226,0.001417226,-0.001366369,0.001366369,-0.001366369,0.001366369,-0.001366369,0.001366369,-0.001366369,0.001366369,-7.14E-12,7.12E-12,-0.001393027,0.001393027,1.20E-13,-1.62E-13,-0.001417226,0.001417226,-0.001417226,0.001417226,-0.001417226,0.001417226,-0.001417226,0.001417226,-0.001366369,0.001366369,-0.001366369,0.001366369,0.775682424,0.912361656,1368840,32768,0.005787451,0.005787451,0.005787451,29.8602201,29.86900184,0.000154082,0.000154082,0.000154082,229464.9644,0.01751415
33868800,0.999996174,0.016914991,0.00563833,0.00563833,0.00563833,-0.001393227,0.001393227,6.67E-12,-7.08E-12,-2.68E-14,-4.12E-13,-0.001417449,0.001417449,-0.001417449,0.001417449,-0.001417449,0.001417449,-0.001417449,0.001417449,-0.001366543,0.001366543,-0.001366543,0.001366543,-7.43E-13,-3.36E-13,-1.30E-13,1.36E-13,-0.001393227,0.001393227,-0.001417449,0.001417449,-0.001417449,0.001417449,-0.001417449,0.001417449,-0.001417449,0.001417449,-0.001366543,0.001366543,-0.001366543,0.001366543,-0.001366543,0.001366543,-0.001366543,0.001366543,-7.15E-12,7.10E-12,-0.001393227,0.001393227,1.05E-13,-1.64E-13,-0.001417449,0.001417449,-0.001417449,0.001417449,-0.001417449,0.001417449,-0.001417449,0.001417449,-0.001366543,0.001366543,-0.001366543,0.001366543,0.769266431,0.799126064,1368840,32768,0.005788279,0.005788279,0.005788279,29.99142778,30.00021805,0.000155131,0.000155131,0.000155131,230380.6781,0.017516679
33955200,0.999996321,0.016914993,0.005638331,0.005638331,0.005638331,-0.00139323,0.00139323,6.63E-12,-7.10E-12,-4.74E-14,-4.45E-13,-0.001417575,0.001417575,-0.001417575,0.001417575,-0.001417575,0.001417575,-0.001417575,0.001417575,-0.001366433,0.001366433,-0.001366433,0.001366433,-7.76E-13,-3.56E-13,-1.52E-13,1.16E-13,-0.00139323,0.00139323,-0.001417575,0.001417575,-0.001417575,0.001417575,-0.001417575,0.001417575,-0.001417575,0.001417575,-0.001366433,0.001366433,-0.001366433,0.001366433,-0.001366433,0.001366433,-0.001366433,0.001366433,-7.14E-12,7.08E-12,-0.00139323,0.00139323,9.39E-14,-1.78E-13,-0.001417575,0.001417575,-0.001417575,0.001417575,-0.001417575,0.001417575,-0.001417575,0.001417575,-0.001366433,0.001366433,-0.001366433,0.001366433,0.767289027,0.774343357,1368840,32768,0.005788295,0.005788295,0.005788295,30.1226388,30.13143426,0.000156181,0.000156181,0.000156181,237004.9328,0.017516726
34041600,0.999996463,0.016914995,0.005638332,0.005638332,0.005638332,-0.001393443,0.001393443,6.66E-12,-7.09E-12,-5.14E-14,-4.74E-13,-0.001417822,0.001417822,-0.001417822,0.001417822,-0.001417822,0.001417822,-0.001417822,0.001417822,-0.001366615,0.001366615,-0.001366615,0.001366615,-8.02E-13,-3.58E-13,-1.50E-13,8.47E-14,-0.001393443,0.001393443,-0.001417822,0.001417822,-0.001417822,0.001417822,-0.001417822,0.001417822,-0.001417822,0.001417822,-0.001366615,0.001366615,-0.001366615,0.001366615,-0.001366615,0.001366615,-0.001366615,0.001366615,-7.14E-12,7.10E-12,-0.001393443,0.001393443,9.70E-14,-1.42E-13,-0.001417822,0.001417822,-0.001417822,0.001417822,-0.001417822,0.001417822,-0.001417822,0.001417822,-0.001366615,0.001366615,-0.001366615,0.001366615,0.765153488,0.750986434,1368840,32768,0.005789177,0.005789177,0.005789177,30.2656865,30.27525387,0.000157325,0.000157325,0.000157325,238598.0835,0.01751942
34128000,0.999996602,0.016914998,0.005638333,0.005638333,0.005638333,-0.001393904,0.001393904,6.81E-12,-6.95E-12,1.26E-13,-3.53E-13,-0.001418312,0.001418312,-0.001418312,0.001418312,-0.001418312,0.001418312,-0.001418312,0.001418312,-0.001367048,0.001367048,-0.001367048,0.001367048,-7.88E-13,-2.86E-13,-6.39E-14,1.44E-13,-0.001393904,0.001393904,-0.001418312,0.001418312,-0.001418312,0.001418312,-0.001418312,0.001418312,-0.001418312,0.001418312,-0.001367048,0.001367048,-0.001367048,0.001367048,-0.001367048,0.001367048,-0.001367048,0.001367048,-7.03E-12,7.21E-12,-0.001393904,0.001393904,1.51E-13,-6.03E-14,-0.001418312,0.001418312,-0.001418312,0.001418312,-0.001418312,0.001418312,-0.001418312,0.001418312,-0.001367048,0.001367048,-0.001367048,0.001367048,0.762841146,0.72762951,1368840,32768,0.005791086,0.005791086,0.005791086,30.535933,30.5537825,0.000159487,0.000159487,0.000159487,240088.1164,0.017525247
34214400,0.999996738,0.016915,0.005638333,0.005638333,0.005638333,-0.001394378,0.001394378,6.76E-12,-6.96E-12,2.90E-13,-3.28E-13,-0.00141882,0.00141882,-0.00141882,0.00141882,-0.00141882,0.00141882,-0.00141882,0.00141882,-0.001367493,0.001367493,-0.001367493,0.001367493,-8.36E-13,-1.96E-13,-1.88E-13,8.56E-14,-0.001394378,0.001394378,-0.00141882,0.00141882,-0.00141882,0.00141882,-0.00141882,0.00141882,-0.00141882,0.00141882,-0.001367493,0.001367493,-0.001367493,0.001367493,-0.001367493,0.001367493,-0.001367493,0.001367493,-7.03E-12,7.17E-12,-0.001394378,0.001394378,2.05E-13,-7.30E-14,-0.00141882,0.00141882,-0.00141882,0.00141882,-0.00141882,0.00141882,-0.00141882,0.00141882,-0.001367493,0.001367493,-0.001367493,0.001367493,0.758349749,0.674316683,1368840,32768,0.00579305,0.00579305,0.00579305,30.81367768,30.83231114,0.000161709,0.000161709,0.000161709,241695.839,0.017531244
34300800,0.99999687,0.016915002,0.005638334,0.005638334,0.005638334,-0.001394778,0.001394778,6.50E-12,-7.15E-12,7.45E-14,-6.42E-13,-0.00141929,0.00141929,-0.00141929,0.00141929,-0.00141929,0.00141929,-0.00141929,0.00141929,-0.001367828,0.001367828,-0.001367828,0.001367828,-9.97E-13,-2.59E-13,-1.20E-13,5.97E-14,-0.001394778,0.001394778,-0.00141929,0.00141929,-0.00141929,0.00141929,-0.00141929,0.00141929,-0.00141929,0.00141929,-0.001367828,0.001367828,-0.001367828,0.001367828,-0.001367828,0.001367828,-0.001367828,0.001367828,-6.97E-12,7.17E-12,-0.001394778,0.001394778,1.60E-13,-2.45E-14,-0.00141929,0.00141929,-0.00141929,0.00141929,-0.00141929,0.00141929,-0.00141929,0.00141929,-0.001367828,0.001367828,-0.001367828,0.001367828,0.752876815,0.611100287,1368840,32768,0.005794704,0.005794704,0.005794704,31.09211138,31.11083977,0.000163937,0.000163937,0.000163937,245497.4417,0.017536293
34387200,0.999996999,0.016915004,0.005638335,0.005638335,0.005638335,-0.001395144,0.001395144,6.61E-12,-7.04E-12,1.11E-13,-5.78E-13,-0.001419742,0.001419742,-0.001419742,0.001419742,-0.001419742,0.001419742,-0.001419742,0.001419742,-0.001368118,0.001368118,-0.001368118,0.001368118,-9.27E-13,-2.17E-13,-3.29E-14,1.33E-13,-0.001395144,0.001395144,-0.001419742,0.001419742,-0.001419742,0.001419742,-0.001419742,0.001419742,-0.001419742,0.001419742,-0.001368118,0.001368118,-0.001368118,0.001368118,-0.001368118,0.001368118,-0.001368118,0.001368118,-7.06E-12,7.08E-12,-0.001395144,0.001395144,6.57E-14,-1.05E-13,-0.001419742,0.001419742,-0.001419742,0.001419742,-0.001419742,0.001419742,-0.001419742,0.001419742,-0.001368118,0.001368118,-0.001368118,0.001368118,0.755098901,0.666903797,1368840,32768,0.005796221,0.005796221,0.005796221,31.37061628,31.3893684,0.000166165,0.000166165,0.000166165,250282.2315,0.017540923
34473600,0.999997124,0.016915006,0.005638335,0.005638335,0.005638335,-0.001395819,0.001395819,6.60E-12,-7.07E-12,2.84E-14,-6.19E-13,-0.001420356,0.001420356,-0.001420356,0.001420356,-0.001420356,0.001420356,-0.001420356,0.001420356,-0.001368851,0.001368851,-0.001368851,0.001368851,-9.26E-13,-2.58E-13,-1.01E-13,1.29E-13,-0.001395819,0.001395819,-0.001420356,0.001420356,-0.001420356,0.001420356,-0.001420356,0.001420356,-0.001420356,0.001420356,-0.001368851,0.001368851,-0.001368851,0.001368851,-0.001368851,0.001368851,-0.001368851,0.001368851,-7.15E-12,7.00E-12,-0.001395819,0.001395819,4.73E-14,-1.87E-13,-0.001420356,0.001420356,-0.001420356,0.001420356,-0.001420356,0.001420356,-0.001420356,0.001420356,-0.001368851,0.001368851,-0.001368851,0.001368851,0.757830644,0.722707306,1368840,32768,0.005799017,0.005799017,0.005799017,31.64912928,31.66789703,0.000168393,0.000168393,0.000168393,246344.6354,0.017549459
34560000,0.999997246,0.016915008,0.005638336,0.005638336,0.005638336,-0.001396492,0.001396492,6.67E-12,-6.99E-12,1.06E-13,-5.24E-13,-0.001420963,0.001420963,-0.001420963,0.001420963,-0.001420963,0.001420963,-0.001420963,0.001420963,-0.001369588,0.001369588,-0.001369588,0.001369588,-8.35E-13,-1.84E-13,-7.52E-14,1.76E-13,-0.001396492,0.001396492,-0.001420963,0.001420963,-0.001420963,0.001420963,-0.001420963,0.001420963,-0.001420963,0.001420963,-0.001369588,0.001369588,-0.001369588,0.001369588,-0.001369588,0.001369588,-0.001369588,0.001369588,-7.03E-12,7.12E-12,-0.001396492,0.001396492,1.47E-13,-1.09E-13,-0.001420963,0.001420963,-0.001420963,0.001420963,-0.001420963,0.001420963,-0.001420963,0.001420963,-0.001369588,0.001369588,-0.001369588,0.001369588,0.761277563,0.778510816,1368840,32768,0.005801806,0.005801806,0.005801806,31.92764481,31.94642566,0.000170621,0.000170621,0.000170621,242329.1028,0.017557972
34646400,0.999997365,0.01691501,0.005638337,0.005638337,0.005638337,-0.001397163,0.001397163,6.56E-12,-7.08E-12,8.66E-14,-5.49E-13,-0.001421568,0.001421568,-0.001421568,0.001421568,-0.001421568,0.001421568,-0.001421568,0.001421568,-0.001370321,0.001370321,-0.001370321,0.001370321,-8.05E-13,-1.47E-13,-3.28E-14,2.17E-13,-0.001397163,0.001397163,-0.001421568,0.001421568,-0.001421568,0.001421568,-0.001421568,0.001421568,-0.001421568,0.001421568,-0.001370321,0.001370321,-0.001370321,0.001370321,-0.001370321,0.001370321,-0.001370321,0.001370321,-7.06E-12,7.07E-12,-0.001397163,0.001397163,1.30E-13,-1.23E-13,-0.001421568,0.001421568,-0.001421568,0.001421568,-0.001421568,0.001421568,-0.001421568,0.001421568,-0.001370321,0.001370321,-0.001370321,0.001370321,0.765662576,0.834314326,1368840,32768,0.005804587,0.005804587,0.005804587,32.20616277,32.2249543,0.000172849,0.000172849,0.000172849,238297.4602,0.017566461
34732800,0.999997481,0.016915012,0.005638337,0.005638337,0.005638337,-0.001398059,0.001398059,6.56E-12,-7.06E-12,2.98E-14,-4.92E-13,-0.001422393,0.001422393,-0.001422393,0.001422393,-0.001422393,0.001422393,-0.001422393,0.001422393,-0.00137128,0.00137128,-0.00137128,0.00137128,-7.72E-13,-2.28E-13,-5.88E-14,1.66E-13,-0.001398059,0.001398059,-0.001422393,0.001422393,-0.001422393,0.001422393,-0.001422393,0.001422393,-0.001422393,0.001422393,-0.00137128,0.00137128,-0.00137128,0.00137128,-0.00137128,0.00137128,-0.00137128,0.00137128,-7.11E-12,7.00E-12,-0.001398059,0.001398059,6.46E-14,-1.64E-13,-0.001422393,0.001422393,-0.001422393,0.001422393,-0.001422393,0.001422393,-0.001422393,0.001422393,-0.00137128,0.00137128,-0.00137128,0.00137128,0.770955797,0.890117835,1368840,32768,0.005808297,0.005808297,0.005808297,32.60164505,32.62807704,0.000176013,0.000176013,0.000176013,234126.5355,0.017577785
34819200,0.999997595,0.016915014,0.005638338,0.005638338,0.005638338,-0.001399045,0.001399045,6.56E-12,-7.06E-12,-3.29E-14,-4.61E-13,-0.001423311,0.001423311,-0.001423311,0.001423311,-0.001423311,0.001423311,-0.001423311,0.001423311,-0.001372325,0.001372325,-0.001372325,0.001372325,-7.55E-13,-3.05E-13,-1.19E-13,1.85E-13,-0.001399045,0.001399045,-0.001423311,0.001423311,-0.001423311,0.001423311,-0.001423311,0.001423311,-0.001423311,0.001423311,-0.001372325,0.001372325,-0.001372325,0.001372325,-0.001372325,0.001372325,-0.001372325,0.001372325,-7.07E-12,7.03E-12,-0.001399045,0.001399045,1.44E-13,-1.64E-13,-0.001423311,0.001423311,-0.001423311,0.001423311,-0.001423311,0.001423311,-0.001423311,0.001423311,-0.001372325,0.001372325,-0.001372325,0.001372325,0.769495674,0.83758764,1368840,32768,0.005812381,0.005812381,0.005812381,33.04519285,33.07506279,0.000179562,0.000179562,0.000179562,229989.8597,0.017590254
34905600,0.999997706,0.016915016,0.005638339,0.005638339,0.005638339,-0.0013998,0.0013998,6.89E-12,-6.71E-12,2.94E-13,-9.04E-14,-0.001424115,0.001424115,-0.001424115,0.001424115,-0.001424115,0.001424115,-0.001424115,0.001424115,-0.001373033,0.001373033,-0.001373033,0.001373033,-7.05E-13,-2.97E-13,-2.93E-14,2.84E-13,-0.0013998,0.0013998,-0.001424115,0.001424115,-0.001424115,0.001424115,-0.001424115,0.001424115,-0.001424115,0.001424115,-0.001373033,0.001373033,-0.001373033,0.001373033,-0.001373033,0.001373033,-0.001373033,0.001373033,-7.20E-12,6.89E-12,-0.0013998,0.0013998,-2.65E-14,-3.44E-13,-0.001424115,0.001424115,-0.001424115,0.001424115,-0.001424115,0.001424115,-0.001424115,0.001424115,-0.001373033,0.001373033,-0.001373033,0.001373033,0.768188821,0.806136881,1368840,32768,0.00581551,0.00581551,0.00581551,33.49181227,33.52204853,0.000183134,0.000183134,0.000183134,232471.1387,0.017599805
34992000,0.999997815,0.016915018,0.005638339,0.005638339,0.005638339,-0.001400594,0.001400594,6.58E-12,-7.00E-12,3.86E-14,-2.96E-13,-0.001424945,0.001424945,-0.001424945,0.001424945,-0.001424945,0.001424945,-0.001424945,0.001424945,-0.001373793,0.001373793,-0.001373793,0.001373793,-5.79E-13,-2.26E-13,2.05E-14,3.43E-13,-0.001400594,0.001400594,-0.001424945,0.001424945,-0.001424945,0.001424945,-0.001424945,0.001424945,-0.001424945,0.001424945,-0.001373793,0.001373793,-0.001373793,0.001373793,-0.001373793,0.001373793,-0.001373793,0.001373793,-7.05E-12,7.02E-12,-0.001400594,0.001400594,1.37E-13,-1.90E-13,-0.001424945,0.001424945,-0.001424945,0.001424945,-0.001424945,0.001424945,-0.001424945,0.001424945,-0.001373793,0.001373793,-0.001373793,0.001373793,0.763993317,0.744650794,1368840,32768,0.005818799,0.005818799,0.005818799,33.93871523,33.96903427,0.00018671,0.00018671,0.00018671,234092.9387,0.017609848
35078400,0.999997921,0.01691502,0.00563834,0.00563834,0.00563834,-0.001401312,0.001401312,6.52E-12,-7.02E-12,-1.11E-14,-2.83E-13,-0.001425735,0.001425735,-0.001425735,0.001425735,-0.001425735,0.001425735,-0.001425735,0.001425735,-0.001374445,0.001374445,-0.001374445,0.001374445,-6.67E-13,-3.73E-13,-1.29E-13,2.58E-13,-0.001401312,0.001401312,-0.001425735,0.001425735,-0.001425735,0.001425735,-0.001425735,0.001425735,-0.001425735,0.001425735,-0.001374445,0.001374445,-0.001374445,0.001374445,-0.001374445,0.001374445,-0.001374445,0.001374445,-6.93E-12,7.09E-12,-0.001401312,0.001401312,1.77E-13,-2.13E-13,-0.001425735,0.001425735,-0.001425735,0.001425735,-0.001425735,0.001425735,-0.001425735,0.001425735,-0.001374445,0.001374445,-0.001374445,0.001374445,0.760656244,0.706229669,1368840,32768,0.005821774,0.005821774,0.005821774,34.38565017,34.41602002,0.000190285,0.000190285,0.000190285,237960.6505,0.01761893
35164800,0.999998025,0.016915021,0.00563834,0.00563834,0.00563834,-0.001402078,0.001402078,6.68E-12,-6.88E-12,1.25E-14,-1.88E-13,-0.001426552,0.001426552,-0.001426552,0.001426552,-0.001426552,0.001426552,-0.001426552,0.001426552,-0.001375165,0.001375165,-0.001375165,0.001375165,-6.97E-13,-4.75E-13,-2.23E-13,1.88E-13,-0.001402078,0.001402078,-0.001426552,0.001426552,-0.001426552,0.001426552,-0.001426552,0.001426552,-0.001426552,0.001426552,-0.001375165,0.001375165,-0.001375165,0.001375165,-0.001375165,0.001375165,-0.001375165,0.001375165,-6.98E-12,7.07E-12,-0.001402078,0.001402078,1.77E-13,-2.37E-13,-0.001426552,0.001426552,-0.001426552,0.001426552,-0.001426552,0.001426552,-0.001426552,0.001426552,-0.001375165,0.001375165,-0.001375165,0.001375165,0.757049576,0.667808545,1368840,32768,0.005824945,0.005824945,0.005824945,34.83258895,34.86300576,0.000193861,0.000193861,0.000193861,240596.74,0.01762861
35251200,0.999998126,0.016915023,0.005638341,0.005638341,0.005638341,-0.00140284,0.00140284,6.62E-12,-6.98E-12,-8.68E-14,-2.29E-13,-0.001427366,0.001427366,-0.001427366,0.001427366,-0.001427366,0.001427366,-0.001427366,0.001427366,-0.00137588,0.00137588,-0.00137588,0.00137588,-6.82E-13,-5.17E-13,-2.31E-13,1.12E-13,-0.00140284,0.00140284,-0.001427366,0.001427366,-0.001427366,0.001427366,-0.001427366,0.001427366,-0.001427366,0.001427366,-0.00137588,0.00137588,-0.00137588,0.00137588,-0.00137588,0.00137588,-0.00137588,0.00137588,-7.09E-12,7.00E-12,-0.00140284,0.00140284,7.72E-14,-2.69E-13,-0.001427366,0.001427366,-0.001427366,0.001427366,-0.001427366,0.001427366,-0.001427366,0.001427366,-0.00137588,0.00137588,-0.00137588,0.00137588,0.753263711,0.62938742,1368840,32768,0.005828101,0.005828101,0.005828101,35.27952875,35.3099915,0.000197436,0.000197436,0.000197436,243371.2335,0.017638244
35337600,0.999998223,0.016915025,0.005638342,0.005638342,0.005638342,-0.001403476,0.001403476,6.67E-12,-6.87E-12,8.14E-14,-1.37E-13,-0.001428059,0.001428059,-0.001428059,0.001428059,-0.001428059,0.001428059,-0.001428059,0.001428059,-0.001376468,0.001376468,-0.001376468,0.001376468,-7.62E-13,-5.22E-13,-1.26E-13,1.34E-13,-0.001403476,0.001403476,-0.001428059,0.001428059,-0.001428059,0.001428059,-0.001428059,0.001428059,-0.001428059,0.001428059,-0.001376468,0.001376468,-0.001376468,0.001376468,-0.001376468,0.001376468,-0.001376468,0.001376468,-6.99E-12,7.04E-12,-0.001403476,0.001403476,4.07E-14,-2.22E-13,-0.001428059,0.001428059,-0.001428059,0.001428059,-0.001428059,0.001428059,-0.001428059,0.001428059,-0.001376468,0.001376468,-0.001376468,0.001376468,0.74935533,0.590966296,1368840,32768,0.005830739,0.005830739,0.005830739,35.66350797,35.6898627,0.000200508,0.000200508,0.000200508,246318.8105,0.017646298
35424000,0.999998317,0.016915026,0.005638342,0.005638342,0.005638342,-0.001403915,0.001403915,6.57E-12,-7.01E-12,-1.58E-13,-3.20E-13,-0.001428558,0.001428558,-0.001428558,0.001428558,-0.001428558,0.001428558,-0.001428558,0.001428558,-0.001376856,0.001376856,-0.001376856,0.001376856,-6.79E-13,-4.96E-13,-1.73E-13,1.05E-13,-0.001403915,0.001403915,-0.001428558,0.001428558,-0.001428558,0.001428558,-0.001428558,0.001428558,-0.001428558,0.001428558,-0.001376856,0.001376856,-0.001376856,0.001376856,-0.001376856,0.001376856,-0.001376856,0.001376856,-7.06E-12,7.00E-12,-0.001403915,0.001403915,1.61E-14,-2.65E-13,-0.001428558,0.001428558,-0.001428558,0.001428558,-0.001428558,0.001428558,-0.001428558,0.001428558,-0.001376856,0.001376856,-0.001376856,0.001376856,0.745363826,0.552545171,1368840,32768,0.005832557,0.005832557,0.005832557,35.94677213,35.96637023,0.000202774,0.000202774,0.000202774,249409.477,0.017651848
35510400,0.999998408,0.016915028,0.005638343,0.005638343,0.005638343,-0.001404339,0.001404339,6.61E-12,-6.95E-12,-1.06E-13,-2.40E-13,-0.001429041,0.001429041,-0.001429041,0.001429041,-0.001429041,0.001429041,-0.001429041,0.001429041,-0.001377228,0.001377228,-0.001377228,0.001377228,-6.84E-13,-5.28E-13,-1.59E-13,9.38E-14,-0.001404339,0.001404339,-0.001429041,0.001429041,-0.001429041,0.001429041,-0.001429041,0.001429041,-0.001429041,0.001429041,-0.001377228,0.001377228,-0.001377228,0.001377228,-0.001377228,0.001377228,-0.001377228,0.001377228,-7.01E-12,7.04E-12,-0.001404339,0.001404339,9.95E-14,-1.57E-13,-0.001429041,0.001429041,-0.001429041,0.001429041,-0.001429041,0.001429041,-0.001429041,0.001429041,-0.001377228,0.001377228,-0.001377228,0.001377228,0.75005021,0.647015851,1368840,32768,0.005834311,0.005834311,0.005834311,36.22390236,36.24287775,0.000204991,0.000204991,0.000204991,252576.4679,0.017657205
35596800,0.999998494,0.016915029,0.005638343,0.005638343,0.005638343,-0.001405118,0.001405118,6.59E-12,-7.01E-12,-1.69E-13,-2.77E-13,-0.0014297,0.0014297,-0.0014297,0.0014297,-0.0014297,0.0014297,-0.0014297,0.0014297,-0.00137812,0.00137812,-0.00137812,0.00137812,-6.29E-13,-5.00E-13,-1.48E-13,7.05E-14,-0.001405118,0.001405118,-0.0014297,0.0014297,-0.0014297,0.0014297,-0.0014297,0.0014297,-0.0014297,0.0014297,-0.00137812,0.00137812,-0.00137812,0.00137812,-0.00137812,0.00137812,-0.00137812,0.00137812,-7.02E-12,7.06E-12,-0.001405118,0.001405118,1.05E-13,-1.17E-13,-0.0014297,0.0014297,-0.0014297,0.0014297,-0.0014297,0.0014297,-0.0014297,0.0014297,-0.00137812,0.00137812,-0.00137812,0.00137812,0.733908145,0.426196443,1368840,32768,0.005837538,0.005837538,0.005837538,36.50045551,36.51938528,0.000207204,0.000207204,0.000207204,245465.7134,0.017667056
35683200,0.999998578,0.016915031,0.005638344,0.005638344,0.005638344,-0.001405027,0.001405027,6.63E-12,-7.01E-12,-8.30E-14,-2.07E-13,-0.001429924,0.001429924,-0.001429924,0.001429924,-0.001429924,0.001429924,-0.001429924,0.001429924,-0.001377743,0.001377743,-0.001377743,0.001377743,-6.77E-13,-5.30E-13,-1.07E-13,1.14E-14,-0.001405027,0.001405027,-0.001429924,0.001429924,-0.001429924,0.001429924,-0.001429924,0.001429924,-0.001429924,0.001429924,-0.001377743,0.001377743,-0.001377743,0.001377743,-0.001377743,0.001377743,-0.001377743,0.001377743,-7.05E-12,7.08E-12,-0.001405027,0.001405027,1.00E-13,-2.26E-14,-0.001429924,0.001429924,-0.001429924,0.001429924,-0.001429924,0.001429924,-0.001429924,0.001429924,-0.001377743,0.001377743,-0.001377743,0.001377743,0.738305008,0.518633303,1368840,32768,0.00583716,0.00583716,0.00583716,36.7769521,36.79589281,0.000209416,0.000209416,0.000209416,263533.0681,0.017665904
35769600,0.999998657,0.016915032,0.005638344,0.005638344,0.005638344,-0.001405825,0.001405825,6.65E-12,-6.99E-12,-1.48E-16,-1.98E-13,-0.001430594,0.001430594,-0.001430594,0.001430594,-0.001430594,0.001430594,-0.001430594,0.001430594,-0.001378663,0.001378663,-0.001378663,0.001378663,-6.83E-13,-4.63E-13,-8.75E-14,3.47E-14,-0.001405825,0.001405825,-0.001430594,0.001430594,-0.001430594,0.001430594,-0.001430594,0.001430594,-0.001430594,0.001430594,-0.001378663,0.001378663,-0.001378663,0.001378663,-0.001378663,0.001378663,-0.001378663,0.001378663,-7.14E-12,6.99E-12,-0.001405825,0.001405825,7.12E-14,-5.55E-14,-0.001430594,0.001430594,-0.001430594,0.001430594,-0.001430594,0.001430594,-0.001430594,0.001430594,-0.001378663,0.001378663,-0.001378663,0.001378663,0.742674566,0.604322539,1368840,32768,0.005840467,0.005840467,0.005840467,37.05344416,37.07240034,0.000211628,0.000211628,0.000211628,255805.6623,0.017675999
35856000,0.999998734,0.016915033,0.005638344,0.005638344,0.005638344,-0.00140659,0.00140659,6.66E-12,-7.01E-12,-4.33E-14,-2.42E-13,-0.001431243,0.001431243,-0.001431243,0.001431243,-0.001431243,0.001431243,-0.001431243,0.001431243,-0.001379538,0.001379538,-0.001379538,0.001379538,-6.44E-13,-4.23E-13,-7.07E-14,-3.51E-14,-0.00140659,0.00140659,-0.001431243,0.001431243,-0.001431243,0.001431243,-0.001431243,0.001431243,-0.001431243,0.001431243,-0.001379538,0.001379538,-0.001379538,0.001379538,-0.001379538,0.001379538,-0.001379538,0.001379538,-7.20E-12,6.97E-12,-0.00140659,0.00140659,-6.19E-14,-1.03E-13,-0.001431243,0.001431243,-0.001431243,0.001431243,-0.001431243,0.001431243,-0.001431243,0.001431243,-0.001379538,0.001379538,-0.001379538,0.001379538,0.74747643,0.690011774,1368840,32768,0.005843638,0.005843638,0.005843638,37.32993723,37.34890787,0.000213839,0.000213839,0.000213839,248987.9583,0.017685679
35942400,0.999998807,0.016915034,0.005638345,0.005638345,0.005638345,-0.001407344,0.001407344,6.67E-12,-7.00E-12,-7.53E-14,-2.29E-13,-0.001431887,0.001431887,-0.001431887,0.001431887,-0.001431887,0.001431887,-0.001431887,0.001431887,-0.001380395,0.001380395,-0.001380395,0.001380395,-6.83E-13,-5.07E-13,-4.84E-14,-1.93E-14,-0.001407344,0.001407344,-0.001431887,0.001431887,-0.001431887,0.001431887,-0.001431887,0.001431887,-0.001431887,0.001431887,-0.001380395,0.001380395,-0.001380395,0.001380395,-0.001380395,0.001380395,-0.001380395,0.001380395,-7.05E-12,7.11E-12,-0.001407344,0.001407344,6.48E-14,3.06E-14,-0.001431887,0.001431887,-0.001431887,0.001431887,-0.001431887,0.001431887,-0.001431887,0.001431887,-0.001380395,0.001380395,-0.001380395,0.001380395,0.75328017,0.77570101,1368840,32768,0.005846759,0.005846759,0.005846759,37.60643346,37.6254154,0.000216051,0.000216051,0.000216051,242531.6359,0.017695206
36028800,0.999998877,0.016915035,0.005638345,0.005638345,0.005638345,-0.001408087,0.001408087,6.65E-12,-7.04E-12,-3.41E-14,-1.77E-13,-0.001432524,0.001432524,-0.001432524,0.001432524,-0.001432524,0.001432524,-0.001432524,0.001432524,-0.001381236,0.001381236,-0.001381236,0.001381236,-7.33E-13,-5.67E-13,-5.81E-14,-4.57E-14,-0.001408087,0.001408087,-0.001432524,0.001432524,-0.001432524,0.001432524,-0.001432524,0.001432524,-0.001432524,0.001432524,-0.001381236,0.001381236,-0.001381236,0.001381236,-0.001381236,0.001381236,-0.001381236,0.001381236,-7.07E-12,7.10E-12,-0.001408087,0.001408087,5.22E-14,3.57E-14,-0.001432524,0.001432524,-0.001432524,0.001432524,-0.001432524,0.001432524,-0.001432524,0.001432524,-0.001381236,0.001381236,-0.001381236,0.001381236,0.758632561,0.830802221,1368840,32768,0.005849839,0.005849839,0.005849839,37.88293153,37.90192292,0.000218263,0.000218263,0.000218263,236253.6478,0.017704611
36115200,0.999998943,0.016915037,0.005638346,0.005638346,0.005638346,-0.001408438,0.001408438,6.64E-12,-7.01E-12,-6.40E-14,-2.88E-13,-0.001432808,0.001432808,-0.001432808,0.001432808,-0.001432808,0.001432808,-0.001432808,0.001432808,-0.001381646,0.001381646,-0.001381646,0.001381646,-6.98E-13,-4.52E-13,-2.08E-14,5.19E-15,-0.001408438,0.001408438,-0.001432808,0.001432808,-0.001432808,0.001432808,-0.001432808,0.001432808,-0.001432808,0.001432808,-0.001381646,0.001381646,-0.001381646,0.001381646,-0.001381646,0.001381646,-0.001381646,0.001381646,-7.04E-12,7.10E-12,-0.001408438,0.001408438,3.93E-14,8.50E-15,-0.001432808,0.001432808,-0.001432808,0.001432808,-0.001432808,0.001432808,-0.001432808,0.001432808,-0.001381646,0.001381646,-0.001381646,0.001381646,0.75497879,0.753546613,1368840,32768,0.005851292,0.005851292,0.005851292,37.99474596,38.00282757,0.000219158,0.000219158,0.000219158,232035.5013,0.017709046
36201600,0.999999005,0.016915038,0.005638346,0.005638346,0.005638346,-0.001408018,0.001408018,6.64E-12,-7.01E-12,-6.09E-14,-2.93E-13,-0.001432477,0.001432477,-0.001432477,0.001432477,-0.001432477,0.001432477,-0.001432477,0.001432477,-0.001381145,0.001381145,-0.001381145,0.001381145,-6.96E-13,-4.42E-13,-2.03E-14,-1.86E-15,-0.001408018,0.001408018,-0.001432477,0.001432477,-0.001432477,0.001432477,-0.001432477,0.001432477,-0.001432477,0.001432477,-0.001381145,0.001381145,-0.001381145,0.001381145,-0.001381145,0.001381145,-0.001381145,0.001381145,-7.03E-12,7.10E-12,-0.001408018,0.001408018,3.88E-14,1.55E-14,-0.001432477,0.001432477,-0.001432477,0.001432477,-0.001432477,0.001432477,-0.001432477,0.001432477,-0.001381145,0.001381145,-0.001381145,0.001381145,0.753648613,0.730451913,1368840,32768,0.005849554,0.005849554,0.005849554,37.86484402,37.85652108,0.000218119,0.000218119,0.000218119,236533.1495,0.017703742
36288000,0.999999063,0.016915038,0.005638346,0.005638346,0.005638346,-0.001407686,0.001407686,6.64E-12,-7.00E-12,-4.24E-14,-3.17E-13,-0.001432171,0.001432171,-0.001432171,0.001432171,-0.001432171,0.001432171,-0.001432171,0.001432171,-0.001380788,0.001380788,-0.001380788,0.001380788,-7.09E-13,-4.13E-13,-1.74E-14,3.10E-14,-0.001407686,0.001407686,-0.001432171,0.001432171,-0.001432171,0.001432171,-0.001432171,0.001432171,-0.001432171,0.001432171,-0.001380788,0.001380788,-0.001380788,0.001380788,-0.001380788,0.001380788,-0.001380788,0.001380788,-7.03E-12,7.09E-12,-0.001407686,0.001407686,4.33E-14,-9.83E-15,-0.001432171,0.001432171,-0.001432171,0.001432171,-0.001432171,0.001432171,-0.001432171,0.001432171,-0.001380788,0.001380788,-0.001380788,0.001380788,0.752247353,0.711498418,1368840,32768,0.005848177,0.005848177,0.005848177,37.72008912,37.71021458,0.000216961,0.000216961,0.000216961,237791.1301,0.017699536
36374400,0.999999117,0.016915039,0.005638346,0.005638346,0.005638346,-0.001407358,0.001407358,6.63E-12,-7.04E-12,-5.69E-14,-3.44E-13,-0.001431866,0.001431866,-0.001431866,0.001431866,-0.001431866,0.001431866,-0.001431866,0.001431866,-0.001380439,0.001380439,-0.001380439,0.001380439,-7.28E-13,-4.19E-13,-9.55E-15,2.22E-14,-0.001407358,0.001407358,-0.001431866,0.001431866,-0.001431866,0.001431866,-0.001431866,0.001431866,-0.001431866,0.001431866,-0.001380439,0.001380439,-0.001380439,0.001380439,-0.001380439,0.001380439,-0.001380439,0.001380439,-7.04E-12,7.11E-12,-0.001407358,0.001407358,3.45E-14,-2.09E-15,-0.001431866,0.001431866,-0.001431866,0.001431866,-0.001431866,0.001431866,-0.001431866,0.001431866,-0.001380439,0.001380439,-0.001380439,0.001380439,0.750633203,0.692544922,1368840,32768,0.005846819,0.005846819,0.005846819,37.57393592,37.56390809,0.000215791,0.000215791,0.000215791,238869.5811,0.017695391
36460800,0.999999167,0.01691504,0.005638347,0.005638347,0.005638347,-0.001407029,0.001407029,6.64E-12,-7.03E-12,-4.92E-14,-3.46E-13,-0.00143156,0.00143156,-0.00143156,0.00143156,-0.00143156,0.00143156,-0.00143156,0.00143156,-0.001380088,0.001380088,-0.001380088,0.001380088,-7.28E-13,-4.10E-13,-1.57E-14,1.62E-14,-0.001407029,0.001407029,-0.00143156,0.00143156,-0.00143156,0.00143156,-0.00143156,0.00143156,-0.00143156,0.00143156,-0.001380088,0.001380088,-0.001380088,0.001380088,-0.001380088,0.001380088,-0.001380088,0.001380088,-7.04E-12,7.12E-12,-0.001407029,0.001407029,3.99E-14,3.21E-15,-0.00143156,0.00143156,-0.00143156,0.00143156,-0.00143156,0.00143156,-0.00143156,0.00143156,-0.001380088,0.001380088,-0.001380088,0.001380088,0.748863678,0.673591427,1368840,32768,0.005845454,0.005845454,0.005845454,37.4276416,37.4176016,0.000214621,0.000214621,0.000214621,240021.4549,0.017691222
36547200,0.999999214,0.016915041,0.005638347,0.005638347,0.005638347,-0.001406698,0.001406698,6.65E-12,-7.02E-12,-4.39E-14,-3.29E-13,-0.001431254,0.001431254,-0.001431254,0.001431254,-0.001431254,0.001431254,-0.001431254,0.001431254,-0.001379735,0.001379735,-0.001379735,0.001379735,-7.20E-13,-4.12E-13,-6.79E-14,9.97E-15,-0.001406698,0.001406698,-0.001431254,0.001431254,-0.001431254,0.001431254,-0.001431254,0.001431254,-0.001431254,0.001431254,-0.001379735,0.001379735,-0.001379735,0.001379735,-0.001379735,0.001379735,-0.001379735,0.001379735,-7.06E-12,7.10E-12,-0.001406698,0.001406698,4.77E-14,-3.48E-14,-0.001431254,0.001431254,-0.001431254,0.001431254,-0.001431254,0.001431254,-0.001431254,0.001431254,-0.001379735,0.001379735,-0.001379735,0.001379735,0.737514131,0.517348441,1368840,32768,0.005844082,0.005844082,0.005844082,37.28133398,37.27129511,0.000213451,0.000213451,0.000213451,241232.1426,0.017687036
36633600,0.999999259,0.016915042,0.005638347,0.005638347,0.005638347,-0.001405998,0.001405998,6.60E-12,-7.09E-12,-6.69E-14,-3.94E-13,-0.001430761,0.001430761,-0.001430761,0.001430761,-0.001430761,0.001430761,-0.001430761,0.001430761,-0.001378848,0.001378848,-0.001378848,0.001378848,-7.53E-13,-4.04E-13,5.69E-16,7.88E-14,-0.001405998,0.001405998,-0.001430761,0.001430761,-0.001430761,0.001430761,-0.001430761,0.001430761,-0.001430761,0.001430761,-0.001378848,0.001378848,-0.001378848,0.001378848,-0.001378848,0.001378848,-0.001378848,0.001378848,-7.08E-12,7.09E-12,-0.001405998,0.001405998,4.30E-14,-4.04E-14,-0.001430761,0.001430761,-0.001430761,0.001430761,-0.001430761,0.001430761,-0.001430761,0.001430761,-0.001378848,0.001378848,-0.001378848,0.001378848,0.733611413,0.481564016,1368840,32768,0.005841184,0.005841184,0.005841184,37.13502367,37.12498861,0.00021228,0.00021228,0.00021228,253120.1155,0.017678188
36720000,0.9999993,0.016915042,0.005638347,0.005638347,0.005638347,-0.001405605,0.001405605,6.65E-12,-7.06E-12,-5.16E-14,-3.62E-13,-0.001430429,0.001430429,-0.001430429,0.001430429,-0.001430429,0.001430429,-0.001430429,0.001430429,-0.001378401,0.001378401,-0.001378401,0.001378401,-7.13E-13,-3.81E-13,-6.07E-15,2.62E-14,-0.001405605,0.001405605,-0.001430429,0.001430429,-0.001430429,0.001430429,-0.001430429,0.001430429,-0.001430429,0.001430429,-0.001378401,0.001378401,-0.001378401,0.001378401,-0.001378401,0.001378401,-0.001378401,0.001378401,-7.06E-12,7.13E-12,-0.001405605,0.001405605,1.38E-14,-2.32E-14,-0.001430429,0.001430429,-0.001430429,0.001430429,-0.001430429,0.001430429,-0.001430429,0.001430429,-0.001378401,0.001378401,-0.001378401,0.001378401,0.737807723,0.568346528,1368840,32768,0.005839555,0.005839555,0.005839555,36.98871281,36.97868212,0.00021111,0.00021111,0.00021111,256352.1154,0.017673215
36806400,0.999999339,0.016915043,0.005638348,0.005638348,0.005638348,-0.001405558,0.001405558,6.68E-12,-7.06E-12,-4.50E-14,-3.38E-13,-0.001430265,0.001430265,-0.001430265,0.001430265,-0.001430265,0.001430265,-0.001430265,0.001430265,-0.001378464,0.001378464,-0.001378464,0.001378464,-7.16E-13,-4.01E-13,-3.18E-14,1.77E-14,-0.001405558,0.001405558,-0.001430265,0.001430265,-0.001430265,0.001430265,-0.001430265,0.001430265,-0.001430265,0.001430265,-0.001378464,0.001378464,-0.001378464,0.001378464,-0.001378464,0.001378464,-0.001378464,0.001378464,-7.09E-12,7.14E-12,-0.001405558,0.001405558,4.39E-14,-1.04E-14,-0.001430265,0.001430265,-0.001430265,0.001430265,-0.001430265,0.001430265,-0.001430265,0.001430265,-0.001378464,0.001378464,-0.001378464,0.001378464,0.727645337,0.431940254,1368840,32768,0.00583936,0.00583936,0.00583936,36.8424023,36.83237563,0.000209939,0.000209939,0.000209939,249450.1891,0.017672619
36892800,0.999999376,0.016915044,0.005638348,0.005638348,0.005638348,-0.00140511,0.00140511,6.68E-12,-7.06E-12,-3.54E-14,-3.40E-13,-0.001430013,0.001430013,-0.001430013,0.001430013,-0.001430013,0.001430013,-0.001430013,0.001430013,-0.001377837,0.001377837,-0.001377837,0.001377837,-7.24E-13,-3.97E-13,-3.07E-14,3.67E-14,-0.00140511,0.00140511,-0.001430013,0.001430013,-0.001430013,0.001430013,-0.001430013,0.001430013,-0.001430013,0.001430013,-0.001377837,0.001377837,-0.001377837,0.001377837,-0.001377837,0.001377837,-0.001377837,0.001377837,-7.08E-12,7.14E-12,-0.00140511,0.00140511,5.15E-14,-2.06E-14,-0.001430013,0.001430013,-0.001430013,0.001430013,-0.001430013,0.001430013,-0.001430013,0.001430013,-0.001377837,0.001377837,-0.001377837,0.001377837,0.731998808,0.520152808,1368840,32768,0.005837505,0.005837505,0.005837505,36.81452077,36.81232695,0.000209716,0.000209716,0.000209716,260776.0812,0.017666956
36979200,0.99999941,0.016915044,0.005638348,0.005638348,0.005638348,-0.001405615,0.001405615,6.72E-12,-7.07E-12,1.77E-14,-3.12E-13,-0.001430391,0.001430391,-0.001430391,0.001430391,-0.001430391,0.001430391,-0.001430391,0.001430391,-0.001378461,0.001378461,-0.001378461,0.001378461,-7.33E-13,-3.81E-13,-4.19E-14,4.78E-14,-0.001405615,0.001405615,-0.001430391,0.001430391,-0.001430391,0.001430391,-0.001430391,0.001430391,-0.001430391,0.001430391,-0.001378461,0.001378461,-0.001378461,0.001378461,-0.001378461,0.001378461,-0.001378461,0.001378461,-7.14E-12,7.13E-12,-0.001405615,0.001405615,3.20E-14,-6.27E-14,-0.001430391,0.001430391,-0.001430391,0.001430391,-0.001430391,0.001430391,-0.001430391,0.001430391,-0.001378461,0.001378461,-0.001378461,0.001378461,0.736677333,0.608365362,1368840,32768,0.005839597,0.005839597,0.005839597,36.94633235,36.95497055,0.000210771,0.000210771,0.000210771,253306.3689,0.017673342
37065600,0.999999444,0.016915045,0.005638348,0.005638348,0.005638348,-0.001406124,0.001406124,6.65E-12,-7.13E-12,-1.15E-13,-3.71E-13,-0.001430783,0.001430783,-0.001430783,0.001430783,-0.001430783,0.001430783,-0.001430783,0.001430783,-0.001379082,0.001379082,-0.001379082,0.001379082,-6.73E-13,-3.95E-13,-1.39E-14,9.79E-14,-0.001406124,0.001406124,-0.001430783,0.001430783,-0.001430783,0.001430783,-0.001430783,0.001430783,-0.001430783,0.001430783,-0.001379082,0.001379082,-0.001379082,0.001379082,-0.001379082,0.001379082,-0.001379082,0.001379082,-7.11E-12,7.15E-12,-0.001406124,0.001406124,8.80E-14,-2.82E-14,-0.001430783,0.001430783,-0.001430783,0.001430783,-0.001430783,0.001430783,-0.001430783,0.001430783,-0.001379082,0.001379082,-0.001379082,0.001379082,0.741791407,0.696577916,1368840,32768,0.005841708,0.005841708,0.005841708,37.08794835,37.09761415,0.000211904,0.000211904,0.000211904,246335.0951,0.017679787
37152000,0.999999475,0.016915045,0.005638348,0.005638348,0.005638348,-0.001406623,0.001406623,6.71E-12,-7.08E-12,-1.28E-14,-2.73E-13,-0.001431169,0.001431169,-0.001431169,0.001431169,-0.001431169,0.001431169,-0.001431169,0.001431169,-0.001379685,0.001379685,-0.001379685,0.001379685,-6.51E-13,-3.69E-13,-1.21E-14,8.89E-14,-0.001406623,0.001406623,-0.001431169,0.001431169,-0.001431169,0.001431169,-0.001431169,0.001431169,-0.001431169,0.001431169,-0.001379685,0.001379685,-0.001379685,0.001379685,-0.001379685,0.001379685,-0.001379685,0.001379685,-7.15E-12,7.13E-12,-0.001406623,0.001406623,6.57E-14,-3.98E-14,-0.001431169,0.001431169,-0.001431169,0.001431169,-0.001431169,0.001431169,-0.001431169,0.001431169,-0.001379685,0.001379685,-0.001379685,0.001379685,0.748061399,0.78479047,1368840,32768,0.005843772,0.005843772,0.005843772,37.23048698,37.24025774,0.000213044,0.000213044,0.000213044,239748.0944,0.017686088
37238400,0.999999505,0.016915046,0.005638349,0.005638349,0.005638349,-0.001407111,0.001407111,6.71E-12,-7.08E-12,-5.42E-14,-2.87E-13,-0.001431549,0.001431549,-0.001431549,0.001431549,-0.001431549,0.001431549,-0.001431549,0.001431549,-0.001380272,0.001380272,-0.001380272,0.001380272,-7.15E-13,-4.61E-13,-1.13E-13,-1.06E-14,-0.001407111,0.001407111,-0.001431549,0.001431549,-0.001431549,0.001431549,-0.001431549,0.001431549,-0.001431549,0.001431549,-0.001380272,0.001380272,-0.001380272,0.001380272,-0.001380272,0.001380272,-0.001380272,0.001380272,-7.15E-12,7.12E-12,-0.001407111,0.001407111,4.31E-14,-6.40E-14,-0.001431549,0.001431549,-0.001431549,0.001431549,-0.001431549,0.001431549,-0.001431549,0.001431549,-0.001380272,0.001380272,-0.001380272,0.001380272,0.756191734,0.873003024,1368840,32768,0.005845796,0.005845796,0.005845796,37.373121,37.38290134,0.000214185,0.000214185,0.000214185,233331.0324,0.017692266
37324800,0.999999533,0.016915046,0.005638349,0.005638349,0.005638349,-0.001407592,0.001407592,6.74E-12,-7.08E-12,-2.95E-14,-3.16E-13,-0.001431924,0.001431924,-0.001431924,0.001431924,-0.001431924,0.001431924,-0.001431924,0.001431924,-0.001380846,0.001380846,-0.001380846,0.001380846,-7.15E-13,-4.07E-13,-5.55E-14,6.22E-14,-0.001407592,0.001407592,-0.001431924,0.001431924,-0.001431924,0.001431924,-0.001431924,0.001431924,-0.001431924,0.001431924,-0.001380846,0.001380846,-0.001380846,0.001380846,-0.001380846,0.001380846,-0.001380846,0.001380846,-7.17E-12,7.13E-12,-0.001407592,0.001407592,6.11E-14,-6.09E-14,-0.001431924,0.001431924,-0.001431924,0.001431924,-0.001431924,0.001431924,-0.001431924,0.001431924,-0.001380846,0.001380846,-0.001380846,0.001380846,0.751458035,0.76558457,1368840,32768,0.005847789,0.005847789,0.005847789,37.51575526,37.52554494,0.000215326,0.000215326,0.000215326,226953.8142,0.017698351
37411200,0.99999956,0.016915047,0.005638349,0.005638349,0.005638349,-0.001407641,0.001407641,6.66E-12,-7.21E-12,-9.39E-14,-3.92E-13,-0.00143208,0.00143208,-0.00143208,0.00143208,-0.00143208,0.00143208,-0.00143208,0.00143208,-0.001380793,0.001380793,-0.001380793,0.001380793,-5.68E-13,-2.48E-13,2.36E-14,2.07E-13,-0.001407641,0.001407641,-0.00143208,0.00143208,-0.00143208,0.00143208,-0.00143208,0.00143208,-0.00143208,0.00143208,-0.001380793,0.001380793,-0.001380793,0.001380793,-0.001380793,0.001380793,-0.001380793,0.001380793,-7.17E-12,7.18E-12,-0.001407641,0.001407641,4.56E-14,-1.42E-13,-0.00143208,0.00143208,-0.00143208,0.00143208,-0.00143208,0.00143208,-0.00143208,0.00143208,-0.001380793,0.001380793,-0.001380793,0.001380793,0.743046227,0.637064242,1368840,32768,0.005847993,0.005847993,0.005847993,37.65839117,37.66818854,0.000216467,0.000216467,0.000216467,232803.7459,0.017698973
37497600,0.999999586,0.016915047,0.005638349,0.005638349,0.005638349,-0.001407608,0.001407608,6.69E-12,-7.16E-12,-4.71E-14,-3.09E-13,-0.001432199,0.001432199,-0.001432199,0.001432199,-0.001432199,0.001432199,-0.001432199,0.001432199,-0.001380619,0.001380619,-0.001380619,0.001380619,-6.52E-13,-3.68E-13,-4.27E-14,1.57E-13,-0.001407608,0.001407608,-0.001432199,0.001432199,-0.001432199,0.001432199,-0.001432199,0.001432199,-0.001432199,0.001432199,-0.001380619,0.001380619,-0.001380619,0.001380619,-0.001380619,0.001380619,-0.001380619,0.001380619,-7.22E-12,7.11E-12,-0.001407608,0.001407608,5.82E-14,-1.46E-13,-0.001432199,0.001432199,-0.001432199,0.001432199,-0.001432199,0.001432199,-0.001432199,0.001432199,-0.001380619,0.001380619,-0.001380619,0.001380619,0.738706386,0.58517435,1368840,32768,0.005847855,0.005847855,0.005847855,37.80102945,37.81083214,0.000217608,0.000217608,0.000217608,241395.1756,0.017698555
37584000,0.99999961,0.016915047,0.005638349,0.005638349,0.005638349,-0.001407745,0.001407745,6.65E-12,-7.14E-12,-7.35E-14,-3.36E-13,-0.001432408,0.001432408,-0.001432408,0.001432408,-0.001432408,0.001432408,-0.001432408,0.001432408,-0.001380692,0.001380692,-0.001380692,0.001380692,-7.13E-13,-4.28E-13,-1.22E-13,1.00E-13,-0.001407745,0.001407745,-0.001432408,0.001432408,-0.001432408,0.001432408,-0.001432408,0.001432408,-0.001432408,0.001432408,-0.001380692,0.001380692,-0.001380692,0.001380692,-0.001380692,0.001380692,-0.001380692,0.001380692,-7.13E-12,7.15E-12,-0.001407745,0.001407745,9.56E-14,-1.31E-13,-0.001432408,0.001432408,-0.001432408,0.001432408,-0.001432408,0.001432408,-0.001432408,0.001432408,-0.001380692,0.001380692,-0.001380692,0.001380692,0.734748828,0.542433708,1368840,32768,0.005848422,0.005848422,0.005848422,37.94366811,37.95347574,0.000218749,0.000218749,0.000218749,245307.2986,0.017700286
37670400,0.999999633,0.016915048,0.005638349,0.005638349,0.005638349,-0.001407694,0.001407694,6.68E-12,-7.12E-12,-4.87E-14,-3.34E-13,-0.001432421,0.001432421,-0.001432421,0.001432421,-0.001432421,0.001432421,-0.001432421,0.001432421,-0.001380583,0.001380583,-0.001380583,0.001380583,-7.30E-13,-4.23E-13,-1.14E-13,1.07E-13,-0.001407694,0.001407694,-0.001432421,0.001432421,-0.001432421,0.001432421,-0.001432421,0.001432421,-0.001432421,0.001432421,-0.001380583,0.001380583,-0.001380583,0.001380583,-0.001380583,0.001380583,-0.001380583,0.001380583,-7.13E-12,7.15E-12,-0.001407694,0.001407694,1.12E-13,-1.14E-13,-0.001432421,0.001432421,-0.001432421,0.001432421,-0.001432421,0.001432421,-0.001432421,0.001432421,-0.001380583,0.001380583,-0.001380583,0.001380583,0.730673268,0.499693066,1368840,32768,0.005848209,0.005848209,0.005848209,37.97934014,37.9820509,0.000219035,0.000219035,0.000219035,248787.0844,0.017699634
37756800,0.999999655,0.016915048,0.005638349,0.005638349,0.005638349,-0.001407381,0.001407381,6.69E-12,-7.09E-12,-5.40E-14,-2.96E-13,-0.001432177,0.001432177,-0.001432177,0.001432177,-0.001432177,0.001432177,-0.001432177,0.001432177,-0.00138021,0.00138021,-0.00138021,0.00138021,-7.20E-13,-4.56E-13,-1.23E-13,9.08E-14,-0.001407381,0.001407381,-0.001432177,0.001432177,-0.001432177,0.001432177,-0.001432177,0.001432177,-0.001432177,0.001432177,-0.00138021,0.00138021,-0.00138021,0.00138021,-0.00138021,0.00138021,-0.00138021,0.00138021,-7.15E-12,7.12E-12,-0.001407381,0.001407381,9.83E-14,-1.20E-13,-0.001432177,0.001432177,-0.001432177,0.001432177,-0.001432177,0.001432177,-0.001432177,0.001432177,-0.00138021,0.00138021,-0.00138021,0.00138021,0.726510218,0.456952424,1368840,32768,0.005846914,0.005846914,0.005846914,37.88229493,37.87595611,0.000218258,0.000218258,0.000218258,252447.0243,0.017695682
37843200,0.999999675,0.016915048,0.005638349,0.005638349,0.005638349,-0.001407048,0.001407048,6.67E-12,-7.12E-12,-8.86E-14,-3.12E-13,-0.001431911,0.001431911,-0.001431911,0.001431911,-0.001431911,0.001431911,-0.001431911,0.001431911,-0.001379818,0.001379818,-0.001379818,0.001379818,-6.82E-13,-4.37E-13,-1.18E-13,9.56E-14,-0.001407048,0.001407048,-0.001431911,0.001431911,-0.001431911,0.001431911,-0.001431911,0.001431911,-0.001431911,0.001431911,-0.001379818,0.001379818,-0.001379818,0.001379818,-0.001379818,0.001379818,-0.001379818,0.001379818,-7.19E-12,7.09E-12,-0.001407048,0.001407048,6.03E-14,-1.57E-13,-0.001431911,0.001431911,-0.001431911,0.001431911,-0.001431911,0.001431911,-0.001431911,0.001431911,-0.001379818,0.001379818,-0.001379818,0.001379818,0.723441889,0.431320057,1368840,32768,0.005845534,0.005845534,0.005845534,37.77705701,37.76986131,0.000217416,0.000217416,0.000217416,256195.65,0.017691469
37929600,0.999999694,0.016915049,0.00563835,0.00563835,0.00563835,-0.00140676,0.00140676,6.70E-12,-7.08E-12,-5.81E-14,-3.03E-13,-0.001431668,0.001431668,-0.001431668,0.001431668,-0.001431668,0.001431668,-0.001431668,0.001431668,-0.001379492,0.001379492,-0.001379492,0.001379492,-7.10E-13,-4.43E-13,-1.25E-13,1.01E-13,-0.00140676,0.00140676,-0.001431668,0.001431668,-0.001431668,0.001431668,-0.001431668,0.001431668,-0.001431668,0.001431668,-0.001379492,0.001379492,-0.001379492,0.001379492,-0.001379492,0.001379492,-0.001379492,0.001379492,-7.14E-12,7.13E-12,-0.00140676,0.00140676,9.67E-14,-1.33E-13,-0.001431668,0.001431668,-0.001431668,0.001431668,-0.001431668,0.001431668,-0.001431668,0.001431668,-0.001379492,0.001379492,-0.001379492,0.001379492,0.728230843,0.525480268,1368840,32768,0.005844342,0.005844342,0.005844342,37.67104682,37.66376651,0.000216568,0.000216568,0.000216568,258590.1377,0.017687831
38016000,0.999999711,0.016915049,0.00563835,0.00563835,0.00563835,-0.001406821,0.001406821,6.70E-12,-7.07E-12,-6.34E-14,-3.14E-13,-0.001431599,0.001431599,-0.001431599,0.001431599,-0.001431599,0.001431599,-0.001431599,0.001431599,-0.001379674,0.001379674,-0.001379674,0.001379674,-6.73E-13,-4.01E-13,-9.12E-14,1.41E-13,-0.001406821,0.001406821,-0.001431599,0.001431599,-0.001431599,0.001431599,-0.001431599,0.001431599,-0.001431599,0.001431599,-0.001379674,0.001379674,-0.001379674,0.001379674,-0.001379674,0.001379674,-0.001379674,0.001379674,-7.19E-12,7.07E-12,-0.001406821,0.001406821,5.38E-14,-1.82E-13,-0.001431599,0.001431599,-0.001431599,0.001431599,-0.001431599,0.001431599,-0.001431599,0.001431599,-0.001379674,0.001379674,-0.001379674,0.001379674,0.729793814,0.561986972,1368840,32768,0.005844592,0.005844592,0.005844592,37.56495853,37.55767171,0.00021572,0.00021572,0.00021572,250796.3097,0.017688592
38102400,0.999999728,0.016915049,0.00563835,0.00563835,0.00563835,-0.001406714,0.001406714,6.70E-12,-7.08E-12,-5.13E-14,-3.19E-13,-0.001431441,0.001431441,-0.001431441,0.001431441,-0.001431441,0.001431441,-0.001431441,0.001431441,-0.001379616,0.001379616,-0.001379616,0.001379616,-7.19E-13,-4.29E-13,-1.17E-13,1.09E-13,-0.001406714,0.001406714,-0.001431441,0.001431441,-0.001431441,0.001431441,-0.001431441,0.001431441,-0.001431441,0.001431441,-0.001379616,0.001379616,-0.001379616,0.001379616,-0.001379616,0.001379616,-0.001379616,0.001379616,-7.14E-12,7.13E-12,-0.001406714,0.001406714,9.87E-14,-1.30E-13,-0.001431441,0.001431441,-0.001431441,0.001431441,-0.001431441,0.001431441,-0.001431441,0.001431441,-0.001379616,0.001379616,-0.001379616,0.001379616,0.730199381,0.577184433,1368840,32768,0.005844149,0.005844149,0.005844149,37.45886225,37.45157692,0.000214871,0.000214871,0.000214871,247776.7974,0.017687238
38188800,0.999999743,0.01691505,0.00563835,0.00563835,0.00563835,-0.001406549,0.001406549,6.70E-12,-7.09E-12,-3.78E-14,-3.24E-13,-0.001431256,0.001431256,-0.001431256,0.001431256,-0.001431256,0.001431256,-0.001431256,0.001431256,-0.001379471,0.001379471,-0.001379471,0.001379471,-7.14E-13,-4.05E-13,-1.11E-13,1.20E-13,-0.001406549,0.001406549,-0.001431256,0.001431256,-0.001431256,0.001431256,-0.001431256,0.001431256,-0.001431256,0.001431256,-0.001379471,0.001379471,-0.001379471,0.001379471,-0.001379471,0.001379471,-0.001379471,0.001379471,-7.12E-12,7.15E-12,-0.001406549,0.001406549,9.69E-14,-1.39E-13,-0.001431256,0.001431256,-0.001431256,0.001431256,-0.001431256,0.001431256,-0.001431256,0.001431256,-0.001379471,0.001379471,-0.001379471,0.001379471,0.730551885,0.590299287,1368840,32768,0.005843467,0.005843467,0.005843467,37.35276514,37.34548212,0.000214022,0.000214022,0.000214022,246439.1409,0.017685156
38275200,0.999999758,0.01691505,0.00563835,0.00563835,0.00563835,-0.001406379,0.001406379,6.69E-12,-7.10E-12,-3.44E-14,-3.40E-13,-0.001431068,0.001431068,-0.001431068,0.001431068,-0.001431068,0.001431068,-0.001431068,0.001431068,-0.001379318,0.001379318,-0.001379318,0.001379318,-7.27E-13,-3.99E-13,-1.07E-13,1.13E-13,-0.001406379,0.001406379,-0.001431068,0.001431068,-0.001431068,0.001431068,-0.001431068,0.001431068,-0.001431068,0.001431068,-0.001379318,0.001379318,-0.001379318,0.001379318,-0.001379318,0.001379318,-0.001379318,0.001379318,-7.13E-12,7.15E-12,-0.001406379,0.001406379,9.72E-14,-1.28E-13,-0.001431068,0.001431068,-0.001431068,0.001431068,-0.001431068,0.001431068,-0.001431068,0.001431068,-0.001379318,0.001379318,-0.001379318,0.001379318,0.730970982,0.603414141,1368840,32768,0.005842762,0.005842762,0.005842762,37.24666792,37.23938732,0.000213173,0.000213173,0.000213173,245257.035,0.017683004
38361600,0.999999772,0.01691505,0.00563835,0.00563835,0.00563835,-0.001406318,0.001406318,6.68E-12,-7.10E-12,-5.04E-14,-3.69E-13,-0.001430988,0.001430988,-0.001430988,0.001430988,-0.001430988,0.001430988,-0.001430988,0.001430988,-0.001379275,0.001379275,-0.001379275,0.001379275,-7.34E-13,-3.94E-13,-9.97E-14,1.09E-13,-0.001406318,0.001406318,-0.001430988,0.001430988,-0.001430988,0.001430988,-0.001430988,0.001430988,-0.001430988,0.001430988,-0.001379275,0.001379275,-0.001379275,0.001379275,-0.001379275,0.001379275,-0.001379275,0.001379275,-7.14E-12,7.12E-12,-0.001406318,0.001406318,9.35E-14,-1.19E-13,-0.001430988,0.001430988,-0.001430988,0.001430988,-0.001430988,0.001430988,-0.001430988,0.001430988,-0.001379275,0.001379275,-0.001379275,0.001379275,0.735755878,0.686459998,1368840,32768,0.005842509,0.005842509,0.005842509,37.19714176,37.1936084,0.000212777,0.000212777,0.000212777,244039.1137,0.017682232
38448000,0.999999785,0.01691505,0.00563835,0.00563835,0.00563835,-0.001406519,0.001406519,6.68E-12,-7.08E-12,-3.21E-14,-3.51E-13,-0.001431084,0.001431084,-0.001431084,0.001431084,-0.001431084,0.001431084,-0.001431084,0.001431084,-0.001379575,0.001379575,-0.001379575,0.001379575,-7.27E-13,-3.86E-13,-1.02E-13,1.19E-13,-0.001406519,0.001406519,-0.001431084,0.001431084,-0.001431084,0.001431084,-0.001431084,0.001431084,-0.001431084,0.001431084,-0.001379575,0.001379575,-0.001379575,0.001379575,-0.001379575,0.001379575,-0.001379575,0.001379575,-7.13E-12,7.12E-12,-0.001406519,0.001406519,9.86E-14,-1.26E-13,-0.001431084,0.001431084,-0.001431084,0.001431084,-0.001431084,0.001431084,-0.001431084,0.001431084,-0.001379575,0.001379575,-0.001379575,0.001379575,0.743622589,0.79944244,1368840,32768,0.005843345,0.005843345,0.005843345,37.19394595,37.1936084,0.000212752,0.000212752,0.000212752,237852.6516,0.017684783
38534400,0.999999797,0.01691505,0.00563835,0.00563835,0.00563835,-0.001406786,0.001406786,6.68E-12,-7.08E-12,-3.04E-14,-3.56E-13,-0.001431216,0.001431216,-0.001431216,0.001431216,-0.001431216,0.001431216,-0.001431216,0.001431216,-0.001379963,0.001379963,-0.001379963,0.001379963,-7.27E-13,-3.79E-13,-9.68E-14,1.20E-13,-0.001406786,0.001406786,-0.001431216,0.001431216,-0.001431216,0.001431216,-0.001431216,0.001431216,-0.001431216,0.001431216,-0.001379963,0.001379963,-0.001379963,0.001379963,-0.001379963,0.001379963,-0.001379963,0.001379963,-7.12E-12,7.12E-12,-0.001406786,0.001406786,9.93E-14,-1.22E-13,-0.001431216,0.001431216,-0.001431216,0.001431216,-0.001431216,0.001431216,-0.001431216,0.001431216,-0.001379963,0.001379963,-0.001379963,0.001379963,0.745870147,0.79944244,1368840,32768,0.005844448,0.005844448,0.005844448,37.19364255,37.1936084,0.000212749,0.000212749,0.000212749,229908.4729,0.017688151
38620800,0.999999808,0.016915051,0.00563835,0.00563835,0.00563835,-0.001406797,0.001406797,6.68E-12,-7.08E-12,-2.78E-14,-3.61E-13,-0.001431218,0.001431218,-0.001431218,0.001431218,-0.001431218,0.001431218,-0.001431218,0.001431218,-0.001379978,0.001379978,-0.001379978,0.001379978,-7.30E-13,-3.75E-13,-9.49E-14,1.18E-13,-0.001406797,0.001406797,-0.001431218,0.001431218,-0.001431218,0.001431218,-0.001431218,0.001431218,-0.001431218,0.001431218,-0.001379978,0.001379978,-0.001379978,0.001379978,-0.001379978,0.001379978,-0.001379978,0.001379978,-7.12E-12,7.12E-12,-0.001406797,0.001406797,9.75E-14,-1.20E-13,-0.001431218,0.001431218,-0.001431218,0.001431218,-0.001431218,0.001431218,-0.001431218,0.001431218,-0.001379978,0.001379978,-0.001379978,0.001379978,0.747804145,0.79944244,1368840,32768,0.005844494,0.005844494,0.005844494,37.1936119,37.1936084,0.000212749,0.000212749,0.000212749,229066.0182,0.017688291
38707200,0.999999819,0.016915051,0.00563835,0.00563835,0.00563835,-0.001406806,0.001406806,6.67E-12,-7.08E-12,-2.64E-14,-3.64E-13,-0.001431219,0.001431219,-0.001431219,0.001431219,-0.001431219,0.001431219,-0.001431219,0.001431219,-0.00137999,0.00137999,-0.00137999,0.00137999,-7.31E-13,-3.71E-13,-9.26E-14,1.18E-13,-0.001406806,0.001406806,-0.001431219,0.001431219,-0.001431219,0.001431219,-0.001431219,0.001431219,-0.001431219,0.001431219,-0.00137999,0.00137999,-0.00137999,0.00137999,-0.00137999,0.00137999,-0.00137999,0.00137999,-7.12E-12,7.12E-12,-0.001406806,0.001406806,9.70E-14,-1.18E-13,-0.001431219,0.001431219,-0.001431219,0.001431219,-0.001431219,0.001431219,-0.001431219,0.001431219,-0.00137999,0.00137999,-0.00137999,0.00137999,0.749484503,0.79944244,1368840,32768,0.005844531,0.005844531,0.005844531,37.19360876,37.1936084,0.000212749,0.000212749,0.000212749,228341.1237,0.017688403
38793600,0.999999829,0.016915051,0.00563835,0.00563835,0.00563835,-0.001406813,0.001406813,6.67E-12,-7.08E-12,-2.31E-14,-3.64E-13,-0.001431221,0.001431221,-0.001431221,0.001431221,-0.001431221,0.001431221,-0.001431221,0.001431221,-0.001379999,0.001379999,-0.001379999,0.001379999,-7.33E-13,-3.71E-13,-9.39E-14,1.17E-13,-0.001406813,0.001406813,-0.001431221,0.001431221,-0.001431221,0.001431221,-0.001431221,0.001431221,-0.001431221,0.001431221,-0.001379999,0.001379999,-0.001379999,0.001379999,-0.001379999,0.001379999,-0.001379999,0.001379999,-7.12E-12,7.12E-12,-0.001406813,0.001406813,9.60E-14,-1.19E-13,-0.001431221,0.001431221,-0.001431221,0.001431221,-0.001431221,0.001431221,-0.001431221,0.001431221,-0.001379999,0.001379999,-0.001379999,0.001379999,0.75095687,0.79944244,1368840,32768,0.00584456,0.00584456,0.00584456,37.19360844,37.1936084,0.000212749,0.000212749,0.000212749,227712.6081,0.017688493
38880000,0.999999839,0.016915051,0.00563835,0.00563835,0.00563835,-0.001406818,0.001406818,6.67E-12,-7.08E-12,-2.68E-14,-3.69E-13,-0.001431221,0.001431221,-0.001431221,0.001431221,-0.001431221,0.001431221,-0.001431221,0.001431221,-0.001380006,0.001380006,-0.001380006,0.001380006,-7.32E-13,-3.68E-13,-9.28E-14,1.18E-13,-0.001406818,0.001406818,-0.001431221,0.001431221,-0.001431221,0.001431221,-0.001431221,0.001431221,-0.001431221,0.001431221,-0.001380006,0.001380006,-0.001380006,0.001380006,-0.001380006,0.001380006,-0.001380006,0.001380006,-7.11E-12,7.12E-12,-0.001406818,0.001406818,1.01E-13,-1.14E-13,-0.001431221,0.001431221,-0.001431221,0.001431221,-0.001431221,0.001431221,-0.001431221,0.001431221,-0.001380006,0.001380006,-0.001380006,0.001380006,0.75225768,0.79944244,1368840,32768,0.005844583,0.005844583,0.005844583,37.1936084,37.1936084,0.000212749,0.000212749,0.000212749,227155.7877,0.017688564