time,ASR_ext,ASR_strain,ASR_strain_xx,ASR_strain_yy,ASR_strain_zz,disp_x_101,disp_x_102,disp_x_103,disp_x_104,disp_x_105,disp_x_106,disp_x_p1_neg,disp_x_p1_pos,disp_x_p2_neg,disp_x_p2_pos,disp_x_p3_neg,disp_x_p3_pos,disp_x_p4_neg,disp_x_p4_pos,disp_x_p5_neg,disp_x_p5_pos,disp_x_p6_neg,disp_x_p6_pos,disp_y_101,disp_y_102,disp_y_103,disp_y_104,disp_y_105,disp_y_106,disp_y_p1_neg,disp_y_p1_pos,disp_y_p2_neg,disp_y_p2_pos,disp_y_p3_neg,disp_y_p3_pos,disp_y_p4_neg,disp_y_p4_pos,disp_y_p5_neg,disp_y_p5_pos,disp_y_p6_neg,disp_y_p6_pos,disp_y_p7_neg,disp_y_p7_pos,disp_y_p8_neg,disp_y_p8_pos,disp_z_101,disp_z_102,disp_z_103,disp_z_104,disp_z_105,disp_z_106,disp_z_p1_neg,disp_z_p1_pos,disp_z_p2_neg,disp_z_p2_pos,disp_z_p3_neg,disp_z_p3_pos,disp_z_p4_neg,disp_z_p4_pos,disp_z_p5_neg,disp_z_p5_pos,disp_z_p6_neg,disp_z_p6_pos,humidity,humidity_bc,ndof,nelem,strain_xx,strain_yy,strain_zz,temp,temp_bc,thermal_strain_xx,thermal_strain_yy,thermal_strain_zz,vonmises,vstrain
5940846,0,0,0,0,0,0,0,0,0,0,0,0,0,0,0,0,0,0,0,0,0,0,0,0,0,0,0,0,0,0,0,0,0,0,0,0,0,0,0,0,0,0,0,0,0,0,0,0,0,0,0,0,0,0,0,0,0,0,0,0,0,0,0,0,0,0,0,0,0,0,0,0,0,0,0,0,0
6027246,0.015340111,0.000259143,8.64E-05,8.64E-05,8.64E-05,-6.79E-05,6.79E-05,1.55E-11,-1.55E-11,-3.10E-13,2.81E-13,-6.69E-05,6.69E-05,-6.69E-05,6.69E-05,-6.69E-05,6.69E-05,-6.69E-05,6.69E-05,-6.83E-05,6.83E-05,-6.83E-05,6.83E-05,1.92E-12,1.33E-12,2.38E-12,2.33E-12,-6.79E-05,6.79E-05,-6.69E-05,6.69E-05,-6.69E-05,6.69E-05,-6.69E-05,6.69E-05,-6.69E-05,6.69E-05,-6.83E-05,6.83E-05,-6.83E-05,6.83E-05,-6.83E-05,6.83E-05,-6.83E-05,6.83E-05,-1.55E-11,1.55E-11,-6.79E-05,6.79E-05,2.43E-14,7.86E-14,-6.69E-05,6.69E-05,-6.69E-05,6.69E-05,-6.69E-05,6.69E-05,-6.69E-05,6.69E-05,-6.83E-05,6.83E-05,-6.83E-05,6.83E-05,0.77165638,0.423833889,1368840,32768,0.000282866,0.000282866,0.000282866,35.16148666,36.77483681,0.000196492,0.000196492,0.000196492,353210.8202,0.000848959
6113646,0.032929185,0.00055576,0.000185253,0.000185253,0.000185253,-9.43E-05,9.43E-05,1.46E-11,-1.46E-11,-5.89E-14,9.87E-14,-9.42E-05,9.42E-05,-9.42E-05,9.42E-05,-9.42E-05,9.42E-05,-9.42E-05,9.42E-05,-9.37E-05,9.37E-05,-9.37E-05,9.37E-05,5.00E-13,3.34E-13,1.24E-12,5.28E-13,-9.43E-05,9.43E-05,-9.42E-05,9.42E-05,-9.42E-05,9.42E-05,-9.42E-05,9.42E-05,-9.42E-05,9.42E-05,-9.37E-05,9.37E-05,-9.37E-05,9.37E-05,-9.37E-05,9.37E-05,-9.37E-05,9.37E-05,-1.44E-11,1.47E-11,-9.43E-05,9.43E-05,-2.20E-13,4.94E-13,-9.42E-05,9.42E-05,-9.42E-05,9.42E-05,-9.42E-05,9.42E-05,-9.42E-05,9.42E-05,-9.37E-05,9.37E-05,-9.37E-05,9.37E-05,0.770299722,0.442620448,1368840,32768,0.000392789,0.000392789,0.000392789,36.61627815,36.76741604,0.00020813,0.00020813,0.00020813,317588.9715,0.001179061
6200046,0.051070471,0.000861237,0.000287079,0.000287079,0.000287079,-0.000118925,0.000118925,1.47E-11,-1.47E-11,-7.50E-14,1.30E-13,-0.000119352,0.000119352,-0.000119352,0.000119352,-0.000119352,0.000119352,-0.000119352,0.000119352,-0.000117671,0.000117671,-0.000117671,0.000117671,1.14E-13,-1.03E-13,9.22E-13,1.95E-13,-0.000118925,0.000118925,-0.000119352,0.000119352,-0.000119352,0.000119352,-0.000119352,0.000119352,-0.000119352,0.000119352,-0.000117671,0.000117671,-0.000117671,0.000117671,-0.000117671,0.000117671,-0.000117671,0.000117671,-1.45E-11,1.48E-11,-0.000118925,0.000118925,-2.33E-13,4.93E-13,-0.000119352,0.000119352,-0.000119352,0.000119352,-0.000119352,0.000119352,-0.000119352,0.000119352,-0.000117671,0.000117671,-0.000117671,0.000117671,0.769445284,0.461407007,1368840,32768,0.000495396,0.000495396,0.000495396,36.74523978,36.75999527,0.000209162,0.000209162,0.000209162,418107.2679,0.001487293
6286446,0.069564873,0.001171984,0.000390661,0.000390661,0.000390661,-0.000143765,0.000143765,1.40E-11,-1.39E-11,-8.29E-14,1.49E-13,-0.000144706,0.000144706,-0.000144706,0.000144706,-0.000144706,0.000144706,-0.000144706,0.000144706,-0.00014181,0.00014181,-0.00014181,0.00014181,8.30E-14,-1.60E-13,7.80E-13,6.90E-14,-0.000143765,0.000143765,-0.000144706,0.000144706,-0.000144706,0.000144706,-0.000144706,0.000144706,-0.000144706,0.000144706,-0.00014181,0.00014181,-0.00014181,0.00014181,-0.00014181,0.00014181,-0.00014181,0.00014181,-1.38E-11,1.40E-11,-0.000143765,0.000143765,-2.32E-13,4.77E-13,-0.000144706,0.000144706,-0.000144706,0.000144706,-0.000144706,0.000144706,-0.000144706,0.000144706,-0.00014181,0.00014181,-0.00014181,0.00014181,0.76894834,0.480193566,1368840,32768,0.00059884,0.00059884,0.00059884,36.75152061,36.75257451,0.000209212,0.000209212,0.000209212,524640.3129,0.001798135
6372846,0.088373147,0.001487411,0.000495804,0.000495804,0.000495804,-0.000168971,0.000168971,1.28E-11,-1.28E-11,-7.14E-14,1.22E-13,-0.000170495,0.000170495,-0.000170495,0.000170495,-0.000170495,0.000170495,-0.000170495,0.000170495,-0.000166259,0.000166259,-0.000166259,0.000166259,-1.29E-13,-3.30E-13,5.53E-13,-1.41E-13,-0.000168971,0.000168971,-0.000170495,0.000170495,-0.000170495,0.000170495,-0.000170495,0.000170495,-0.000170495,0.000170495,-0.000166259,0.000166259,-0.000166259,0.000166259,-0.000166259,0.000166259,-0.000166259,0.000166259,-1.26E-11,1.29E-11,-0.000168971,0.000168971,-2.30E-13,4.62E-13,-0.000170495,0.000170495,-0.000170495,0.000170495,-0.000170495,0.000170495,-0.000170495,0.000170495,-0.000166259,0.000166259,-0.000166259,0.000166259,0.768711005,0.498980125,1368840,32768,0.000703795,0.000703795,0.000703795,36.74550158,36.74515374,0.000209164,0.000209164,0.000209164,622757.3557,0.002113619
6459246,0.107471279,0.001807481,0.000602494,0.000602494,0.000602494,-0.000194561,0.000194561,1.15E-11,-1.15E-11,-3.90E-14,6.70E-14,-0.000196717,0.000196717,-0.000196717,0.000196717,-0.000196717,0.000196717,-0.000196717,0.000196717,-0.000191062,0.000191062,-0.000191062,0.000191062,-4.33E-13,-5.38E-13,2.69E-13,-4.10E-13,-0.000194561,0.000194561,-0.000196717,0.000196717,-0.000196717,0.000196717,-0.000196717,0.000196717,-0.000196717,0.000196717,-0.000191062,0.000191062,-0.000191062,0.000191062,-0.000191062,0.000191062,-0.000191062,0.000191062,-1.14E-11,1.16E-11,-0.000194561,0.000194561,-2.07E-13,4.69E-13,-0.000196717,0.000196717,-0.000196717,0.000196717,-0.000196717,0.000196717,-0.000196717,0.000196717,-0.000191062,0.000191062,-0.000191062,0.000191062,0.769264783,0.52660975,1368840,32768,0.000810339,0.000810339,0.000810339,36.73822493,36.73773297,0.000209106,0.000209106,0.000209106,703529.2296,0.00243398
6545646,0.126836268,0.002133417,0.000711139,0.000711139,0.000711139,-0.000220653,0.000220653,9.95E-12,-9.95E-12,-1.02E-14,1.22E-14,-0.000223425,0.000223425,-0.000223425,0.000223425,-0.000223425,0.000223425,-0.000223425,0.000223425,-0.000216435,0.000216435,-0.000216435,0.000216435,5.87E-14,3.22E-14,7.39E-13,8.65E-14,-0.000220653,0.000220653,-0.000223425,0.000223425,-0.000223425,0.000223425,-0.000223425,0.000223425,-0.000223425,0.000223425,-0.000216435,0.000216435,-0.000216435,0.000216435,-0.000216435,0.000216435,-0.000216435,0.000216435,-9.83E-12,1.01E-11,-0.000220653,0.000220653,-1.84E-13,4.66E-13,-0.000223425,0.000223425,-0.000223425,0.000223425,-0.000223425,0.000223425,-0.000223425,0.000223425,-0.000216435,0.000216435,-0.000216435,0.000216435,0.773342615,0.605745889,1368840,32768,0.000918962,0.000918962,0.000918962,36.73081899,36.7303122,0.000209047,0.000209047,0.000209047,743014.8073,0.002760696
6632046,0.146943016,0.002473085,0.000824362,0.000824362,0.000824362,-0.000248572,0.000248572,8.98E-12,-9.04E-12,1.20E-14,-3.30E-14,-0.000251908,0.000251908,-0.000251908,0.000251908,-0.000251908,0.000251908,-0.000251908,0.000251908,-0.000243722,0.000243722,-0.000243722,0.000243722,1.06E-13,1.48E-13,8.33E-13,1.59E-13,-0.000248572,0.000248572,-0.000251908,0.000251908,-0.000251908,0.000251908,-0.000251908,0.000251908,-0.000251908,0.000251908,-0.000243722,0.000243722,-0.000243722,0.000243722,-0.000243722,0.000243722,-0.000243722,0.000243722,-8.85E-12,9.21E-12,-0.000248572,0.000248572,-1.92E-13,4.79E-13,-0.000251908,0.000251908,-0.000251908,0.000251908,-0.000251908,0.000251908,-0.000251908,0.000251908,-0.000243722,0.000243722,-0.000243722,0.000243722,0.776476167,0.664176311,1368840,32768,0.001035178,0.001035178,0.001035178,37.0632829,37.08527257,0.000211706,0.000211706,0.000211706,738986.0263,0.00311037
6718446,0.167969145,0.00283002,0.00094334,0.00094334,0.00094334,-0.000278103,0.000278103,8.36E-12,-8.40E-12,2.02E-14,-6.20E-14,-0.00028199,0.00028199,-0.00028199,0.00028199,-0.00028199,0.00028199,-0.00028199,0.00028199,-0.00027268,0.00027268,-0.00027268,0.00027268,2.04E-13,2.83E-13,9.05E-13,2.52E-13,-0.000278103,0.000278103,-0.00028199,0.00028199,-0.00028199,0.00028199,-0.00028199,0.00028199,-0.00028199,0.00028199,-0.00027268,0.00027268,-0.00027268,0.00027268,-0.00027268,0.00027268,-0.00027268,0.00027268,-8.23E-12,8.57E-12,-0.000278103,0.000278103,-1.61E-13,4.88E-13,-0.00028199,0.00028199,-0.00028199,0.00028199,-0.00028199,0.00028199,-0.00028199,0.00028199,-0.00027268,0.00027268,-0.00027268,0.00027268,0.780029342,0.722606733,1368840,32768,0.001158088,0.001158088,0.001158088,37.52277162,37.55397814,0.000215382,0.000215382,0.000215382,717676.0265,0.003480315
6804846,0.189912805,0.003203219,0.00106774,0.00106774,0.00106774,-0.000308953,0.000308953,7.97E-12,-8.04E-12,3.27E-14,-8.48E-14,-0.000313392,0.000313392,-0.000313392,0.000313392,-0.000313392,0.000313392,-0.000313392,0.000313392,-0.000302977,0.000302977,-0.000302977,0.000302977,2.35E-13,3.50E-13,9.54E-13,3.09E-13,-0.000308953,0.000308953,-0.000313392,0.000313392,-0.000313392,0.000313392,-0.000313392,0.000313392,-0.000313392,0.000313392,-0.000302977,0.000302977,-0.000302977,0.000302977,-0.000302977,0.000302977,-0.000302977,0.000302977,-7.85E-12,8.18E-12,-0.000308953,0.000308953,-1.56E-13,4.85E-13,-0.000313392,0.000313392,-0.000313392,0.000313392,-0.000313392,0.000313392,-0.000313392,0.000313392,-0.000302977,0.000302977,-0.000302977,0.000302977,0.781079889,0.734293621,1368840,32768,0.001286472,0.001286472,0.001286472,37.99055358,38.02268371,0.000219124,0.000219124,0.000219124,693415.7684,0.003866885
6891246,0.212750963,0.003591453,0.001197151,0.001197151,0.001197151,-0.000340965,0.000340965,7.72E-12,-7.80E-12,4.51E-14,-1.34E-13,-0.000346006,0.000346006,-0.000346006,0.000346006,-0.000346006,0.000346006,-0.000346006,0.000346006,-0.000334393,0.000334393,-0.000334393,0.000334393,2.56E-13,4.33E-13,1.02E-12,3.79E-13,-0.000340965,0.000340965,-0.000346006,0.000346006,-0.000346006,0.000346006,-0.000346006,0.000346006,-0.000346006,0.000346006,-0.000334393,0.000334393,-0.000334393,0.000334393,-0.000334393,0.000334393,-0.000334393,0.000334393,-7.59E-12,7.96E-12,-0.000340965,0.000340965,-1.41E-13,4.93E-13,-0.000346006,0.000346006,-0.000346006,0.000346006,-0.000346006,0.000346006,-0.000346006,0.000346006,-0.000334393,0.000334393,-0.000334393,0.000334393,0.780348134,0.719930738,1368840,32768,0.001419678,0.001419678,0.001419678,38.45912247,38.49138928,0.000222873,0.000222873,0.000222873,688369.8984,0.004268129
6977646,0.236448497,0.003990701,0.001330234,0.001330234,0.001330234,-0.000373836,0.000373836,7.48E-12,-7.56E-12,9.38E-15,-9.06E-14,-0.000379615,0.000379615,-0.000379615,0.000379615,-0.000379615,0.000379615,-0.000379615,0.000379615,-0.000366466,0.000366466,-0.000366466,0.000366466,3.49E-13,4.47E-13,1.09E-12,3.74E-13,-0.000373836,0.000373836,-0.000379615,0.000379615,-0.000379615,0.000379615,-0.000379615,0.000379615,-0.000379615,0.000379615,-0.000366466,0.000366466,-0.000366466,0.000366466,-0.000366466,0.000366466,-0.000366466,0.000366466,-7.35E-12,7.73E-12,-0.000373836,0.000373836,-1.61E-13,5.52E-13,-0.000379615,0.000379615,-0.000379615,0.000379615,-0.000379615,0.000379615,-0.000379615,0.000379615,-0.000366466,0.000366466,-0.000366466,0.000366466,0.773303892,0.618632882,1368840,32768,0.001556435,0.001556435,0.001556435,38.92776551,38.96009485,0.000226622,0.000226622,0.000226622,730183.0498,0.004680237
7064046,0.260957882,0.004402164,0.001467388,0.001467388,0.001467388,-0.000407579,0.000407579,7.26E-12,-7.36E-12,3.42E-14,-1.43E-13,-0.000414239,0.000414239,-0.000414239,0.000414239,-0.000414239,0.000414239,-0.000414239,0.000414239,-0.00039926,0.00039926,-0.00039926,0.00039926,3.60E-13,5.36E-13,1.06E-12,4.77E-13,-0.000407579,0.000407579,-0.000414239,0.000414239,-0.000414239,0.000414239,-0.000414239,0.000414239,-0.000414239,0.000414239,-0.00039926,0.00039926,-0.00039926,0.00039926,-0.00039926,0.00039926,-0.00039926,0.00039926,-7.14E-12,7.51E-12,-0.000407579,0.000407579,-9.82E-14,4.82E-13,-0.000414239,0.000414239,-0.000414239,0.000414239,-0.000414239,0.000414239,-0.000414239,0.000414239,-0.00039926,0.00039926,-0.00039926,0.00039926,0.770992051,0.598930728,1368840,32768,0.0016968,0.0016968,0.0016968,39.39642108,39.42880042,0.000230371,0.000230371,0.000230371,804366.3785,0.005103395
7150446,0.286224112,0.004823628,0.001607876,0.001607876,0.001607876,-0.000442204,0.000442204,7.12E-12,-7.23E-12,3.15E-14,-1.51E-13,-0.000449834,0.000449834,-0.000449834,0.000449834,-0.000449834,0.000449834,-0.000449834,0.000449834,-0.000432811,0.000432811,-0.000432811,0.000432811,3.65E-13,5.46E-13,1.09E-12,4.71E-13,-0.000442204,0.000442204,-0.000449834,0.000449834,-0.000449834,0.000449834,-0.000449834,0.000449834,-0.000449834,0.000449834,-0.000432811,0.000432811,-0.000432811,0.000432811,-0.000432811,0.000432811,-0.000432811,0.000432811,-6.99E-12,7.39E-12,-0.000442204,0.000442204,-1.09E-13,5.05E-13,-0.000449834,0.000449834,-0.000449834,0.000449834,-0.000449834,0.000449834,-0.000449834,0.000449834,-0.000432811,0.000432811,-0.000432811,0.000432811,0.766879698,0.553679179,1368840,32768,0.001840815,0.001840815,0.001840815,39.86507723,39.89750599,0.000234121,0.000234121,0.000234121,873564.7029,0.005537743
7236846,0.312185099,0.00525268,0.001750893,0.001750893,0.001750893,-0.00047738,0.00047738,7.01E-12,-7.14E-12,3.76E-14,-1.71E-13,-0.00048618,0.00048618,-0.00048618,0.00048618,-0.00048618,0.00048618,-0.00048618,0.00048618,-0.000466658,0.000466658,-0.000466658,0.000466658,4.38E-13,6.46E-13,1.16E-12,5.48E-13,-0.00047738,0.00047738,-0.00048618,0.00048618,-0.00048618,0.00048618,-0.00048618,0.00048618,-0.00048618,0.00048618,-0.000466658,0.000466658,-0.000466658,0.000466658,-0.000466658,0.000466658,-0.000466658,0.000466658,-6.89E-12,7.29E-12,-0.00047738,0.00047738,-9.05E-14,5.19E-13,-0.00048618,0.00048618,-0.00048618,0.00048618,-0.00048618,0.00048618,-0.00048618,0.00048618,-0.000466658,0.000466658,-0.000466658,0.000466658,0.760602731,0.480441872,1368840,32768,0.001987098,0.001987098,0.001987098,40.33373363,40.36621156,0.00023787,0.00023787,0.00023787,980701.8885,0.005979128
7323246,0.338635462,0.005686568,0.001895523,0.001895523,0.001895523,-0.000512704,0.000512704,6.90E-12,-7.10E-12,6.92E-14,-2.77E-13,-0.000522892,0.000522892,-0.000522892,0.000522892,-0.000522892,0.000522892,-0.000522892,0.000522892,-0.000500407,0.000500407,-0.000500407,0.000500407,4.06E-13,7.53E-13,1.20E-12,5.85E-13,-0.000512704,0.000512704,-0.000522892,0.000522892,-0.000522892,0.000522892,-0.000522892,0.000522892,-0.000522892,0.000522892,-0.000500407,0.000500407,-0.000500407,0.000500407,-0.000500407,0.000500407,-0.000500407,0.000500407,-6.79E-12,7.23E-12,-0.000512704,0.000512704,-9.61E-14,5.19E-13,-0.000522892,0.000522892,-0.000522892,0.000522892,-0.000522892,0.000522892,-0.000522892,0.000522892,-0.000500407,0.000500407,-0.000500407,0.000500407,0.756166677,0.437983508,1368840,32768,0.002133979,0.002133979,0.002133979,40.72392626,40.75119274,0.000240991,0.000240991,0.000240991,1115118.296,0.006422511
7409646,0.364940198,0.006115175,0.002038392,0.002038392,0.002038392,-0.00054698,0.00054698,6.83E-12,-7.05E-12,7.11E-14,-2.84E-13,-0.000558702,0.000558702,-0.000558702,0.000558702,-0.000558702,0.000558702,-0.000558702,0.000558702,-0.000532947,0.000532947,-0.000532947,0.000532947,4.78E-13,8.35E-13,1.28E-12,6.54E-13,-0.00054698,0.00054698,-0.000558702,0.000558702,-0.000558702,0.000558702,-0.000558702,0.000558702,-0.000558702,0.000558702,-0.000532947,0.000532947,-0.000532947,0.000532947,-0.000532947,0.000532947,-0.000532947,0.000532947,-6.73E-12,7.17E-12,-0.00054698,0.00054698,-9.27E-14,5.31E-13,-0.000558702,0.000558702,-0.000558702,0.000558702,-0.000558702,0.000558702,-0.000558702,0.000558702,-0.000532947,0.000532947,-0.000532947,0.000532947,0.752578822,0.40844197,1368840,32768,0.002276478,0.002276478,0.002276478,40.77669568,40.78119478,0.000241414,0.000241414,0.000241414,1243091.356,0.006852854
7496046,0.390999213,0.006537245,0.002179082,0.002179082,0.002179082,-0.0005807,0.0005807,6.78E-12,-7.01E-12,7.00E-14,-3.05E-13,-0.000594068,0.000594068,-0.000594068,0.000594068,-0.000594068,0.000594068,-0.000594068,0.000594068,-0.000564807,0.000564807,-0.000564807,0.000564807,4.09E-13,7.87E-13,1.22E-12,5.99E-13,-0.0005807,0.0005807,-0.000594068,0.000594068,-0.000594068,0.000594068,-0.000594068,0.000594068,-0.000594068,0.000594068,-0.000564807,0.000564807,-0.000564807,0.000564807,-0.000564807,0.000564807,-0.000564807,0.000564807,-6.68E-12,7.12E-12,-0.0005807,0.0005807,-8.47E-14,5.29E-13,-0.000594068,0.000594068,-0.000594068,0.000594068,-0.000594068,0.000594068,-0.000594068,0.000594068,-0.000564807,0.000564807,-0.000564807,0.000564807,0.74953715,0.386553595,1368840,32768,0.002416647,0.002416647,0.002416647,40.80886752,40.81119683,0.000241671,0.000241671,0.000241671,1361721.376,0.007276344
7582446,0.416746203,0.006951948,0.002317316,0.002317316,0.002317316,-0.000613832,0.000613832,6.74E-12,-6.99E-12,6.66E-14,-3.23E-13,-0.00062895,0.00062895,-0.00062895,0.00062895,-0.00062895,0.00062895,-0.00062895,0.00062895,-0.000595966,0.000595966,-0.000595966,0.000595966,4.41E-13,8.34E-13,1.25E-12,6.38E-13,-0.000613832,0.000613832,-0.00062895,0.00062895,-0.00062895,0.00062895,-0.00062895,0.00062895,-0.00062895,0.00062895,-0.000595966,0.000595966,-0.000595966,0.000595966,-0.000595966,0.000595966,-0.000595966,0.000595966,-6.65E-12,7.10E-12,-0.000613832,0.000613832,-7.82E-14,5.28E-13,-0.00062895,0.00062895,-0.00062895,0.00062895,-0.00062895,0.00062895,-0.00062895,0.00062895,-0.000595966,0.000595966,-0.000595966,0.000595966,0.746734756,0.367594296,1368840,32768,0.002554348,0.002554348,0.002554348,40.83909039,40.84119887,0.000241913,0.000241913,0.000241913,1471307.183,0.007692552
7668846,0.442120783,0.007359111,0.002453037,0.002453037,0.002453037,-0.000646361,0.000646361,6.70E-12,-6.98E-12,6.88E-14,-3.42E-13,-0.000663307,0.000663307,-0.000663307,0.000663307,-0.000663307,0.000663307,-0.000663307,0.000663307,-0.000626455,0.000626455,-0.000626455,0.000626455,4.77E-13,8.93E-13,1.29E-12,6.86E-13,-0.000646361,0.000646361,-0.000663307,0.000663307,-0.000663307,0.000663307,-0.000663307,0.000663307,-0.000663307,0.000663307,-0.000626455,0.000626455,-0.000626455,0.000626455,-0.000626455,0.000626455,-0.000626455,0.000626455,-6.62E-12,7.07E-12,-0.000646361,0.000646361,-7.30E-14,5.24E-13,-0.000663307,0.000663307,-0.000663307,0.000663307,-0.000663307,0.000663307,-0.000663307,0.000663307,-0.000626455,0.000626455,-0.000626455,0.000626455,0.745153763,0.365818576,1368840,32768,0.002689526,0.002689526,0.002689526,40.86911504,40.87120091,0.000242153,0.000242153,0.000242153,1566844.774,0.008101304
7755246,0.467066687,0.007758024,0.002586008,0.002586008,0.002586008,-0.000678291,0.000678291,6.68E-12,-6.97E-12,7.06E-14,-3.64E-13,-0.000697092,0.000697092,-0.000697092,0.000697092,-0.000697092,0.000697092,-0.000697092,0.000697092,-0.000656327,0.000656327,-0.000656327,0.000656327,5.18E-13,9.59E-13,1.34E-12,7.36E-13,-0.000678291,0.000678291,-0.000697092,0.000697092,-0.000697092,0.000697092,-0.000697092,0.000697092,-0.000697092,0.000697092,-0.000656327,0.000656327,-0.000656327,0.000656327,-0.000656327,0.000656327,-0.000656327,0.000656327,-6.59E-12,7.05E-12,-0.000678291,0.000678291,-7.18E-14,5.30E-13,-0.000697092,0.000697092,-0.000697092,0.000697092,-0.000697092,0.000697092,-0.000697092,0.000697092,-0.000656327,0.000656327,-0.000656327,0.000656327,0.743662834,0.364042857,1368840,32768,0.0028222,0.0028222,0.0028222,40.89911919,40.90120295,0.000242393,0.000242393,0.000242393,1638427.089,0.008502648
7841646,0.491531991,0.00814809,0.00271603,0.00271603,0.00271603,-0.000709519,0.000709519,6.64E-12,-6.95E-12,7.45E-14,-3.88E-13,-0.000730206,0.000730206,-0.000730206,0.000730206,-0.000730206,0.000730206,-0.000730206,0.000730206,-0.000685475,0.000685475,-0.000685475,0.000685475,5.64E-13,1.03E-12,1.40E-12,7.93E-13,-0.000709519,0.000709519,-0.000730206,0.000730206,-0.000730206,0.000730206,-0.000730206,0.000730206,-0.000730206,0.000730206,-0.000685475,0.000685475,-0.000685475,0.000685475,-0.000685475,0.000685475,-0.000685475,0.000685475,-6.57E-12,7.03E-12,-0.000709519,0.000709519,-6.89E-14,5.29E-13,-0.000730206,0.000730206,-0.000730206,0.000730206,-0.000730206,0.000730206,-0.000730206,0.000730206,-0.000685475,0.000685475,-0.000685475,0.000685475,0.742240517,0.362267138,1368840,32768,0.002951933,0.002951933,0.002951933,40.92912121,40.931205,0.000242633,0.000242633,0.000242633,1698257.305,0.008895254
7928046,0.515468466,0.008528689,0.002842896,0.002842896,0.002842896,-0.000739992,0.000739992,6.61E-12,-6.95E-12,8.16E-14,-4.20E-13,-0.000762583,0.000762583,-0.000762583,0.000762583,-0.000762583,0.000762583,-0.000762583,0.000762583,-0.000713864,0.000713864,-0.000713864,0.000713864,6.21E-13,1.13E-12,1.48E-12,8.67E-13,-0.000739992,0.000739992,-0.000762583,0.000762583,-0.000762583,0.000762583,-0.000762583,0.000762583,-0.000762583,0.000762583,-0.000713864,0.000713864,-0.000713864,0.000713864,-0.000713864,0.000713864,-0.000713864,0.000713864,-6.55E-12,7.01E-12,-0.000739992,0.000739992,-6.92E-14,5.37E-13,-0.000762583,0.000762583,-0.000762583,0.000762583,-0.000762583,0.000762583,-0.000762583,0.000762583,-0.000713864,0.000713864,-0.000713864,0.000713864,0.740872224,0.360491418,1368840,32768,0.003078519,0.003078519,0.003078519,40.95912301,40.96120704,0.000242873,0.000242873,0.000242873,1747284.875,0.009278483
8014446,0.538832494,0.008899264,0.002966421,0.002966421,0.002966421,-0.000769667,0.000769667,6.61E-12,-6.96E-12,8.11E-14,-4.32E-13,-0.000794165,0.000794165,-0.000794165,0.000794165,-0.000794165,0.000794165,-0.000794165,0.000794165,-0.000741462,0.000741462,-0.000741462,0.000741462,4.01E-13,9.23E-13,1.26E-12,6.46E-13,-0.000769667,0.000769667,-0.000794165,0.000794165,-0.000794165,0.000794165,-0.000794165,0.000794165,-0.000794165,0.000794165,-0.000741462,0.000741462,-0.000741462,0.000741462,-0.000741462,0.000741462,-0.000741462,0.000741462,-6.55E-12,7.02E-12,-0.000769667,0.000769667,-6.78E-14,5.40E-13,-0.000794165,0.000794165,-0.000794165,0.000794165,-0.000794165,0.000794165,-0.000794165,0.000794165,-0.000741462,0.000741462,-0.000741462,0.000741462,0.739547697,0.358715699,1368840,32768,0.003201771,0.003201771,0.003201771,40.9891248,40.99120908,0.000243113,0.000243113,0.000243113,1786391.031,0.009651758
8100846,0.561605623,0.00925964,0.003086547,0.003086547,0.003086547,-0.000798558,0.000798558,6.60E-12,-6.96E-12,7.87E-14,-4.44E-13,-0.000824956,0.000824956,-0.000824956,0.000824956,-0.000824956,0.000824956,-0.000824956,0.000824956,-0.000768297,0.000768297,-0.000768297,0.000768297,3.86E-13,9.17E-13,1.24E-12,6.38E-13,-0.000798558,0.000798558,-0.000824956,0.000824956,-0.000824956,0.000824956,-0.000824956,0.000824956,-0.000824956,0.000824956,-0.000768297,0.000768297,-0.000768297,0.000768297,-0.000768297,0.000768297,-0.000768297,0.000768297,-6.55E-12,7.02E-12,-0.000798558,0.000798558,-6.22E-14,5.34E-13,-0.000824956,0.000824956,-0.000824956,0.000824956,-0.000824956,0.000824956,-0.000824956,0.000824956,-0.000768297,0.000768297,-0.000768297,0.000768297,0.738258751,0.35693998,1368840,32768,0.003321753,0.003321753,0.003321753,41.03473035,41.03786089,0.000243478,0.000243478,0.000243478,1816364.835,0.010015269
8187246,0.583825996,0.009610524,0.003203508,0.003203508,0.003203508,-0.000826806,0.000826806,6.59E-12,-6.98E-12,8.77E-14,-4.75E-13,-0.000855088,0.000855088,-0.000855088,0.000855088,-0.000855088,0.000855088,-0.000855088,0.000855088,-0.000794512,0.000794512,-0.000794512,0.000794512,3.64E-13,9.35E-13,1.24E-12,6.31E-13,-0.000826806,0.000826806,-0.000855088,0.000855088,-0.000855088,0.000855088,-0.000855088,0.000855088,-0.000855088,0.000855088,-0.000794512,0.000794512,-0.000794512,0.000794512,-0.000794512,0.000794512,-0.000794512,0.000794512,-6.55E-12,7.02E-12,-0.000826806,0.000826806,-6.33E-14,5.40E-13,-0.000855088,0.000855088,-0.000855088,0.000855088,-0.000855088,0.000855088,-0.000855088,0.000855088,-0.000794512,0.000794512,-0.000794512,0.000794512,0.736997149,0.35516426,1368840,32768,0.003439047,0.003439047,0.003439047,41.13911333,41.14622228,0.000244313,0.000244313,0.000244313,1837906.766,0.01037076
8273646,0.605459453,0.009951611,0.003317204,0.003317204,0.003317204,-0.000854279,0.000854279,6.59E-12,-6.99E-12,8.49E-14,-4.84E-13,-0.000884421,0.000884421,-0.000884421,0.000884421,-0.000884421,0.000884421,-0.000884421,0.000884421,-0.000819992,0.000819992,-0.000819992,0.000819992,3.51E-13,9.30E-13,1.22E-12,6.25E-13,-0.000854279,0.000854279,-0.000884421,0.000884421,-0.000884421,0.000884421,-0.000884421,0.000884421,-0.000884421,0.000884421,-0.000819992,0.000819992,-0.000819992,0.000819992,-0.000819992,0.000819992,-0.000819992,0.000819992,-6.55E-12,7.02E-12,-0.000854279,0.000854279,-5.74E-14,5.35E-13,-0.000884421,0.000884421,-0.000884421,0.000884421,-0.000884421,0.000884421,-0.000884421,0.000884421,-0.000819992,0.000819992,-0.000819992,0.000819992,0.736049035,0.357663534,1368840,32768,0.003553113,0.003553113,0.003553113,41.2470925,41.25458368,0.000245177,0.000245177,0.000245177,1850934.774,0.01071659
8360046,0.626472113,0.010282563,0.003427521,0.003427521,0.003427521,-0.000880971,0.000880971,6.60E-12,-7.00E-12,8.30E-14,-4.93E-13,-0.00091292,0.00091292,-0.00091292,0.00091292,-0.00091292,0.00091292,-0.00091292,0.00091292,-0.00084476,0.00084476,-0.00084476,0.00084476,3.43E-13,9.28E-13,1.21E-12,6.20E-13,-0.000880971,0.000880971,-0.00091292,0.00091292,-0.00091292,0.00091292,-0.00091292,0.00091292,-0.00091292,0.00091292,-0.00084476,0.00084476,-0.00084476,0.00084476,-0.00084476,0.00084476,-0.00084476,0.00084476,-6.55E-12,7.03E-12,-0.000880971,0.000880971,-5.50E-14,5.33E-13,-0.00091292,0.00091292,-0.00091292,0.00091292,-0.00091292,0.00091292,-0.00091292,0.00091292,-0.00084476,0.00084476,-0.00084476,0.00084476,0.735367252,0.363535448,1368840,32768,0.003663924,0.003663924,0.003663924,41.35541246,41.36294507,0.000246043,0.000246043,0.000246043,1851839.748,0.011052667
8446446,0.646834575,0.010603019,0.00353434,0.00353434,0.00353434,-0.00090685,0.00090685,6.60E-12,-7.02E-12,7.81E-14,-4.92E-13,-0.000940543,0.000940543,-0.000940543,0.000940543,-0.000940543,0.000940543,-0.000940543,0.000940543,-0.000868791,0.000868791,-0.000868791,0.000868791,3.38E-13,9.17E-13,1.20E-12,6.08E-13,-0.00090685,0.00090685,-0.000940543,0.000940543,-0.000940543,0.000940543,-0.000940543,0.000940543,-0.000940543,0.000940543,-0.000868791,0.000868791,-0.000868791,0.000868791,-0.000868791,0.000868791,-0.000868791,0.000868791,-6.56E-12,7.04E-12,-0.00090685,0.00090685,-5.61E-14,5.36E-13,-0.000940543,0.000940543,-0.000940543,0.000940543,-0.000940543,0.000940543,-0.000940543,0.000940543,-0.000868791,0.000868791,-0.000868791,0.000868791,0.73473318,0.369407362,1368840,32768,0.003771347,0.003771347,0.003771347,41.46376714,41.47130647,0.00024691,0.00024691,0.00024691,1842353.456,0.011378574
8532846,0.666522187,0.010912674,0.003637558,0.003637558,0.003637558,-0.000931871,0.000931871,6.60E-12,-7.02E-12,7.37E-14,-4.91E-13,-0.000967246,0.000967246,-0.000967246,0.000967246,-0.000967246,0.000967246,-0.000967246,0.000967246,-0.00089204,0.00089204,-0.00089204,0.00089204,3.34E-13,9.08E-13,1.20E-12,5.97E-13,-0.000931871,0.000931871,-0.000967246,0.000967246,-0.000967246,0.000967246,-0.000967246,0.000967246,-0.000967246,0.000967246,-0.00089204,0.00089204,-0.00089204,0.00089204,-0.00089204,0.00089204,-0.00089204,0.00089204,-6.56E-12,7.04E-12,-0.000931871,0.000931871,-5.75E-14,5.39E-13,-0.000967246,0.000967246,-0.000967246,0.000967246,-0.000967246,0.000967246,-0.000967246,0.000967246,-0.00089204,0.00089204,-0.00089204,0.00089204,0.73414144,0.375279276,1368840,32768,0.003875196,0.003875196,0.003875196,41.57212544,41.57966786,0.000247777,0.000247777,0.000247777,1826219.104,0.011693743
8619246,0.685515039,0.011211272,0.003737091,0.003737091,0.003737091,-0.000956013,0.000956013,6.62E-12,-7.03E-12,6.86E-14,-4.88E-13,-0.000993003,0.000993003,-0.000993003,0.000993003,-0.000993003,0.000993003,-0.000993003,0.000993003,-0.000914491,0.000914491,-0.000914491,0.000914491,3.31E-13,8.97E-13,1.20E-12,5.81E-13,-0.000956013,0.000956013,-0.000993003,0.000993003,-0.000993003,0.000993003,-0.000993003,0.000993003,-0.000993003,0.000993003,-0.000914491,0.000914491,-0.000914491,0.000914491,-0.000914491,0.000914491,-0.000914491,0.000914491,-6.57E-12,7.06E-12,-0.000956013,0.000956013,-6.29E-14,5.52E-13,-0.000993003,0.000993003,-0.000993003,0.000993003,-0.000993003,0.000993003,-0.000993003,0.000993003,-0.000914491,0.000914491,-0.000914491,0.000914491,0.733588036,0.381151191,1368840,32768,0.003975387,0.003975387,0.003975387,41.68048413,41.68802926,0.000248644,0.000248644,0.000248644,1804345.59,0.0119979
8705646,0.703797954,0.011498622,0.003832874,0.003832874,0.003832874,-0.00097926,0.00097926,6.63E-12,-7.03E-12,5.01E-14,-4.53E-13,-0.001017794,0.001017794,-0.001017794,0.001017794,-0.001017794,0.001017794,-0.001017794,0.001017794,-0.000936129,0.000936129,-0.000936129,0.000936129,3.43E-13,8.56E-13,1.18E-12,5.72E-13,-0.00097926,0.00097926,-0.001017794,0.001017794,-0.001017794,0.001017794,-0.001017794,0.001017794,-0.001017794,0.001017794,-0.000936129,0.000936129,-0.000936129,0.000936129,-0.000936129,0.000936129,-0.000936129,0.000936129,-6.58E-12,7.06E-12,-0.00097926,0.00097926,-5.74E-14,5.44E-13,-0.001017794,0.001017794,-0.001017794,0.001017794,-0.001017794,0.001017794,-0.001017794,0.001017794,-0.000936129,0.000936129,-0.000936129,0.000936129,0.733069914,0.387023105,1368840,32768,0.004071852,0.004071852,0.004071852,41.78884286,41.79639065,0.000249511,0.000249511,0.000249511,1777578.163,0.012290836
8792046,0.72136033,0.011773281,0.003924427,0.003924427,0.003924427,-0.001001483,0.001001483,6.61E-12,-7.03E-12,5.73E-14,-4.64E-13,-0.001041529,0.001041529,-0.001041529,0.001041529,-0.001041529,0.001041529,-0.001041529,0.001041529,-0.00095676,0.00095676,-0.00095676,0.00095676,3.29E-13,8.61E-13,1.15E-12,6.01E-13,-0.001001483,0.001001483,-0.001041529,0.001041529,-0.001041529,0.001041529,-0.001041529,0.001041529,-0.001041529,0.001041529,-0.00095676,0.00095676,-0.00095676,0.00095676,-0.00095676,0.00095676,-0.00095676,0.00095676,-6.58E-12,7.04E-12,-0.001001483,0.001001483,-4.48E-14,5.01E-13,-0.001041529,0.001041529,-0.001041529,0.001041529,-0.001041529,0.001041529,-0.001041529,0.001041529,-0.00095676,0.00095676,-0.00095676,0.00095676,0.729141795,0.341919244,1368840,32768,0.004164064,0.004164064,0.004164064,41.89720157,41.90475205,0.000250378,0.000250378,0.000250378,1754621.227,0.012570935
8878446,0.738148629,0.012033794,0.004011265,0.004011265,0.004011265,-0.001022089,0.001022089,6.58E-12,-7.03E-12,6.87E-14,-5.13E-13,-0.001063829,0.001063829,-0.001063829,0.001063829,-0.001063829,0.001063829,-0.001063829,0.001063829,-0.000975579,0.000975579,-0.000975579,0.000975579,3.08E-13,8.99E-13,1.14E-12,6.06E-13,-0.001022089,0.001022089,-0.001063829,0.001063829,-0.001063829,0.001063829,-0.001063829,0.001063829,-0.001063829,0.001063829,-0.000975579,0.000975579,-0.000975579,0.000975579,-0.000975579,0.000975579,-0.000975579,0.000975579,-6.57E-12,7.02E-12,-0.001022089,0.001022089,-3.47E-14,4.98E-13,-0.001063829,0.001063829,-0.001063829,0.001063829,-0.001063829,0.001063829,-0.001063829,0.001063829,-0.000975579,0.000975579,-0.000975579,0.000975579,0.723240024,0.271380355,1368840,32768,0.004249555,0.004249555,0.004249555,41.95327675,41.95731395,0.000250826,0.000250826,0.000250826,1777627.964,0.012830695
8964846,0.754018649,0.012280336,0.004093445,0.004093445,0.004093445,-0.001041001,0.001041001,6.57E-12,-7.03E-12,8.27E-14,-5.52E-13,-0.001084487,0.001084487,-0.001084487,0.001084487,-0.001084487,0.001084487,-0.001084487,0.001084487,-0.000992693,0.000992693,-0.000992693,0.000992693,2.89E-13,9.34E-13,1.14E-12,6.25E-13,-0.001041001,0.001041001,-0.001084487,0.001084487,-0.001084487,0.001084487,-0.001084487,0.001084487,-0.001084487,0.001084487,-0.000992693,0.000992693,-0.000992693,0.000992693,-0.000992693,0.000992693,-0.000992693,0.000992693,-6.56E-12,7.01E-12,-0.001041001,0.001041001,-3.37E-14,4.76E-13,-0.001084487,0.001084487,-0.001084487,0.001084487,-0.001084487,0.001084487,-0.001084487,0.001084487,-0.000992693,0.000992693,-0.000992693,0.000992693,0.724201289,0.305526834,1368840,32768,0.00432801,0.00432801,0.00432801,41.83512705,41.82733232,0.000249881,0.000249881,0.000249881,1814512.635,0.01306914
9051246,0.768994312,0.012512725,0.004170908,0.004170908,0.004170908,-0.001059587,0.001059587,6.57E-12,-7.02E-12,7.74E-14,-5.39E-13,-0.001104321,0.001104321,-0.001104321,0.001104321,-0.001104321,0.001104321,-0.001104321,0.001104321,-0.00100996,0.00100996,-0.00100996,0.00100996,2.91E-13,9.18E-13,1.12E-12,6.30E-13,-0.001059587,0.001059587,-0.001104321,0.001104321,-0.001104321,0.001104321,-0.001104321,0.001104321,-0.001104321,0.001104321,-0.00100996,0.00100996,-0.00100996,0.00100996,-0.00100996,0.00100996,-0.00100996,0.00100996,-6.56E-12,7.00E-12,-0.001059587,0.001059587,-2.32E-14,4.61E-13,-0.001104321,0.001104321,-0.001104321,0.001104321,-0.001104321,0.001104321,-0.001104321,0.001104321,-0.00100996,0.00100996,-0.00100996,0.00100996,0.723732982,0.315275696,1368840,32768,0.004405108,0.004405108,0.004405108,41.70627456,41.69735068,0.00024885,0.00024885,0.00024885,1761883.682,0.013303509
9137646,0.783111237,0.012731561,0.004243854,0.004243854,0.004243854,-0.001076896,0.001076896,6.58E-12,-7.03E-12,6.94E-14,-5.22E-13,-0.001122885,0.001122885,-0.001122885,0.001122885,-0.001122885,0.001122885,-0.001122885,0.001122885,-0.001025953,0.001025953,-0.001025953,0.001025953,2.97E-13,8.99E-13,1.12E-12,6.16E-13,-0.001076896,0.001076896,-0.001122885,0.001122885,-0.001122885,0.001122885,-0.001122885,0.001122885,-0.001122885,0.001122885,-0.001025953,0.001025953,-0.001025953,0.001025953,-0.001025953,0.001025953,-0.001025953,0.001025953,-6.57E-12,7.01E-12,-0.001076896,0.001076896,-2.57E-14,4.71E-13,-0.001122885,0.001122885,-0.001122885,0.001122885,-0.001122885,0.001122885,-0.001122885,0.001122885,-0.001025953,0.001025953,-0.001025953,0.001025953,0.72239135,0.310838355,1368840,32768,0.004476903,0.004476903,0.004476903,41.57640519,41.56736905,0.000247811,0.000247811,0.000247811,1727539.083,0.013521807
9224046,0.796405828,0.012937383,0.004312461,0.004312461,0.004312461,-0.001093047,0.001093047,6.57E-12,-7.02E-12,6.58E-14,-5.19E-13,-0.001140274,0.001140274,-0.001140274,0.001140274,-0.001140274,0.001140274,-0.001140274,0.001140274,-0.001040816,0.001040816,-0.001040816,0.001040816,2.98E-13,8.93E-13,1.10E-12,6.20E-13,-0.001093047,0.001093047,-0.001140274,0.001140274,-0.001140274,0.001140274,-0.001140274,0.001140274,-0.001140274,0.001140274,-0.001040816,0.001040816,-0.001040816,0.001040816,-0.001040816,0.001040816,-0.001040816,0.001040816,-6.57E-12,7.00E-12,-0.001093047,0.001093047,-2.21E-14,4.58E-13,-0.001140274,0.001140274,-0.001140274,0.001140274,-0.001140274,0.001140274,-0.001140274,0.001140274,-0.001040816,0.001040816,-0.001040816,0.001040816,0.721058476,0.306401014,1368840,32768,0.00454389,0.00454389,0.00454389,41.44643207,41.43738742,0.000246771,0.000246771,0.000246771,1702847.204,0.01372553
9310446,0.808915198,0.013130771,0.004376924,0.004376924,0.004376924,-0.001108201,0.001108201,6.55E-12,-7.00E-12,6.57E-14,-5.22E-13,-0.001156596,0.001156596,-0.001156596,0.001156596,-0.001156596,0.001156596,-0.001156596,0.001156596,-0.001054755,0.001054755,-0.001054755,0.001054755,2.94E-13,8.92E-13,1.12E-12,6.07E-13,-0.001108201,0.001108201,-0.001156596,0.001156596,-0.001156596,0.001156596,-0.001156596,0.001156596,-0.001156596,0.001156596,-0.001054755,0.001054755,-0.001054755,0.001054755,-0.001054755,0.001054755,-0.001054755,0.001054755,-6.54E-12,6.99E-12,-0.001108201,0.001108201,-2.99E-14,4.76E-13,-0.001156596,0.001156596,-0.001156596,0.001156596,-0.001156596,0.001156596,-0.001156596,0.001156596,-0.001054755,0.001054755,-0.001054755,0.001054755,0.719734093,0.301963672,1368840,32768,0.004606735,0.004606735,0.004606735,41.31644817,41.30740578,0.000245732,0.000245732,0.000245732,1677128.443,0.013916695
9396846,0.820676665,0.013312341,0.004437447,0.004437447,0.004437447,-0.001122406,0.001122406,6.57E-12,-7.02E-12,7.04E-14,-5.34E-13,-0.001171903,0.001171903,-0.001171903,0.001171903,-0.001171903,0.001171903,-0.001171903,0.001171903,-0.001067818,0.001067818,-0.001067818,0.001067818,2.88E-13,9.02E-13,1.10E-12,6.17E-13,-0.001122406,0.001122406,-0.001171903,0.001171903,-0.001171903,0.001171903,-0.001171903,0.001171903,-0.001171903,0.001171903,-0.001067818,0.001067818,-0.001067818,0.001067818,-0.001067818,0.001067818,-0.001067818,0.001067818,-6.56E-12,7.00E-12,-0.001122406,0.001122406,-2.45E-14,4.60E-13,-0.001171903,0.001171903,-0.001171903,0.001171903,-0.001171903,0.001171903,-0.001171903,0.001171903,-0.001067818,0.001067818,-0.001067818,0.001067818,0.718417781,0.297526331,1368840,32768,0.004665643,0.004665643,0.004665643,41.18646314,41.17742415,0.000244692,0.000244692,0.000244692,1650714.692,0.014095919
9483246,0.83172732,0.013482699,0.004494233,0.004494233,0.004494233,-0.001135711,0.001135711,6.55E-12,-7.04E-12,8.99E-14,-5.81E-13,-0.001186247,0.001186247,-0.001186247,0.001186247,-0.001186247,0.001186247,-0.001186247,0.001186247,-0.001080048,0.001080048,-0.001080048,0.001080048,2.64E-13,9.46E-13,1.09E-12,6.50E-13,-0.001135711,0.001135711,-0.001186247,0.001186247,-0.001186247,0.001186247,-0.001186247,0.001186247,-0.001186247,0.001186247,-0.001080048,0.001080048,-0.001080048,0.001080048,-0.001080048,0.001080048,-0.001080048,0.001080048,-6.57E-12,6.99E-12,-0.001135711,0.001135711,-1.09E-14,4.30E-13,-0.001186247,0.001186247,-0.001186247,0.001186247,-0.001186247,0.001186247,-0.001186247,0.001186247,-0.001080048,0.001080048,-0.001080048,0.001080048,0.717109061,0.29308899,1368840,32768,0.004720817,0.004720817,0.004720817,41.05647799,41.04744251,0.000243652,0.000243652,0.000243652,1623894.41,0.014263811
9569646,0.84210375,0.013642443,0.004547481,0.004547481,0.004547481,-0.001148165,0.001148165,6.53E-12,-7.03E-12,9.65E-14,-5.99E-13,-0.001199678,0.001199678,-0.001199678,0.001199678,-0.001199678,0.001199678,-0.001199678,0.001199678,-0.001091491,0.001091491,-0.001091491,0.001091491,2.57E-13,9.63E-13,1.07E-12,6.76E-13,-0.001148165,0.001148165,-0.001199678,0.001199678,-0.001199678,0.001199678,-0.001199678,0.001199678,-0.001199678,0.001199678,-0.001091491,0.001091491,-0.001091491,0.001091491,-0.001091491,0.001091491,-0.001091491,0.001091491,-6.57E-12,6.97E-12,-0.001148165,0.001148165,2.89E-15,3.98E-13,-0.001199678,0.001199678,-0.001199678,0.001199678,-0.001199678,0.001199678,-0.001199678,0.001199678,-0.001091491,0.001091491,-0.001091491,0.001091491,0.715807442,0.288651648,1368840,32768,0.004772456,0.004772456,0.004772456,40.92649282,40.91746088,0.000242612,0.000242612,0.000242612,1596916.713,0.014420972
9656046,0.85182029,0.013791823,0.004597274,0.004597274,0.004597274,-0.001159706,0.001159706,6.56E-12,-7.02E-12,6.04E-14,-5.20E-13,-0.00121214,0.00121214,-0.00121214,0.00121214,-0.00121214,0.00121214,-0.00121214,0.00121214,-0.001102083,0.001102083,-0.001102083,0.001102083,2.91E-13,8.82E-13,1.05E-12,6.48E-13,-0.001159706,0.001159706,-0.00121214,0.00121214,-0.00121214,0.00121214,-0.00121214,0.00121214,-0.00121214,0.00121214,-0.001102083,0.001102083,-0.001102083,0.001102083,-0.001102083,0.001102083,-0.001102083,0.001102083,-6.58E-12,6.98E-12,-0.001159706,0.001159706,8.21E-16,4.02E-13,-0.00121214,0.00121214,-0.00121214,0.00121214,-0.00121214,0.00121214,-0.00121214,0.00121214,-0.001102083,0.001102083,-0.001102083,0.001102083,0.714514409,0.284214307,1368840,32768,0.004820309,0.004820309,0.004820309,40.75463835,40.74280605,0.000241237,0.000241237,0.000241237,1570129.663,0.014566633
9742446,0.860856201,0.013930767,0.004643589,0.004643589,0.004643589,-0.001170172,0.001170172,6.63E-12,-7.06E-12,2.66E-14,-4.56E-13,-0.001223462,0.001223462,-0.001223462,0.001223462,-0.001223462,0.001223462,-0.001223462,0.001223462,-0.001111673,0.001111673,-0.001111673,0.001111673,3.11E-13,8.04E-13,1.08E-12,5.71E-13,-0.001170172,0.001170172,-0.001223462,0.001223462,-0.001223462,0.001223462,-0.001223462,0.001223462,-0.001223462,0.001223462,-0.001111673,0.001111673,-0.001111673,0.001111673,-0.001111673,0.001111673,-0.001111673,0.001111673,-6.61E-12,7.06E-12,-0.001170172,0.001170172,-3.41E-14,4.75E-13,-0.001223462,0.001223462,-0.001223462,0.001223462,-0.001223462,0.001223462,-0.001223462,0.001223462,-0.001111673,0.001111673,-0.001111673,0.001111673,0.71431758,0.296019116,1368840,32768,0.004863702,0.004863702,0.004863702,40.45839341,40.43814837,0.000238867,0.000238867,0.000238867,1543107.164,0.014698737
9828846,0.869256646,0.014060141,0.004686714,0.004686714,0.004686714,-0.00118002,0.00118002,6.66E-12,-7.08E-12,3.70E-14,-4.83E-13,-0.001234011,0.001234011,-0.001234011,0.001234011,-0.001234011,0.001234011,-0.001234011,0.001234011,-0.001120803,0.001120803,-0.001120803,0.001120803,3.05E-13,8.37E-13,1.14E-12,5.38E-13,-0.00118002,0.00118002,-0.001234011,0.001234011,-0.001234011,0.001234011,-0.001234011,0.001234011,-0.001234011,0.001234011,-0.001120803,0.001120803,-0.001120803,0.001120803,-0.001120803,0.001120803,-0.001120803,0.001120803,-6.61E-12,7.10E-12,-0.00118002,0.00118002,-6.77E-14,5.32E-13,-0.001234011,0.001234011,-0.001234011,0.001234011,-0.001234011,0.001234011,-0.001234011,0.001234011,-0.001120803,0.001120803,-0.001120803,0.001120803,0.715110067,0.321588807,1368840,32768,0.00490453,0.00490453,0.00490453,40.15452011,40.13349069,0.000236436,0.000236436,0.000236436,1504244.698,0.014823046
9915246,0.877067527,0.014180544,0.004726848,0.004726848,0.004726848,-0.001189286,0.001189286,6.67E-12,-7.07E-12,2.12E-14,-4.33E-13,-0.001243844,0.001243844,-0.001243844,0.001243844,-0.001243844,0.001243844,-0.001243844,0.001243844,-0.001129486,0.001129486,-0.001129486,0.001129486,3.23E-13,7.88E-13,1.13E-12,5.27E-13,-0.001189286,0.001189286,-0.001243844,0.001243844,-0.001243844,0.001243844,-0.001243844,0.001243844,-0.001243844,0.001243844,-0.001129486,0.001129486,-0.001129486,0.001129486,-0.001129486,0.001129486,-0.001129486,0.001129486,-6.62E-12,7.09E-12,-0.001189286,0.001189286,-6.02E-14,5.35E-13,-0.001243844,0.001243844,-0.001243844,0.001243844,-0.001243844,0.001243844,-0.001243844,0.001243844,-0.001129486,0.001129486,-0.001129486,0.001129486,0.715324489,0.336404964,1368840,32768,0.004942947,0.004942947,0.004942947,39.84992431,39.828833,0.000233999,0.000233999,0.000233999,1457090.87,0.014940029
10001646,0.884332004,0.014292649,0.004764216,0.004764216,0.004764216,-0.001197791,0.001197791,6.63E-12,-7.08E-12,5.58E-14,-5.22E-13,-0.001252907,0.001252907,-0.001252907,0.001252907,-0.001252907,0.001252907,-0.001252907,0.001252907,-0.001137423,0.001137423,-0.001137423,0.001137423,2.81E-13,8.69E-13,1.12E-12,5.63E-13,-0.001197791,0.001197791,-0.001252907,0.001252907,-0.001252907,0.001252907,-0.001252907,0.001252907,-0.001252907,0.001252907,-0.001137423,0.001137423,-0.001137423,0.001137423,-0.001137423,0.001137423,-0.001137423,0.001137423,-6.62E-12,7.07E-12,-0.001197791,0.001197791,-4.76E-14,5.10E-13,-0.001252907,0.001252907,-0.001252907,0.001252907,-0.001252907,0.001252907,-0.001252907,0.001252907,-0.001137423,0.001137423,-0.001137423,0.001137423,0.715610072,0.351221121,1368840,32768,0.004978203,0.004978203,0.004978203,39.54525505,39.52417532,0.000231562,0.000231562,0.000231562,1417871.63,0.015047395
10088046,0.891090288,0.014397056,0.004799019,0.004799019,0.004799019,-0.001205682,0.001205682,6.66E-12,-7.13E-12,7.20E-14,-5.41E-13,-0.001261303,0.001261303,-0.001261303,0.001261303,-0.001261303,0.001261303,-0.001261303,0.001261303,-0.001144806,0.001144806,-0.001144806,0.001144806,2.76E-13,9.00E-13,1.16E-12,5.34E-13,-0.001205682,0.001205682,-0.001261303,0.001261303,-0.001261303,0.001261303,-0.001261303,0.001261303,-0.001261303,0.001261303,-0.001144806,0.001144806,-0.001144806,0.001144806,-0.001144806,0.001144806,-0.001144806,0.001144806,-6.64E-12,7.12E-12,-0.001205682,0.001205682,-6.64E-14,5.59E-13,-0.001261303,0.001261303,-0.001261303,0.001261303,-0.001261303,0.001261303,-0.001261303,0.001261303,-0.001144806,0.001144806,-0.001144806,0.001144806,0.715961284,0.366037278,1368840,32768,0.005010916,0.005010916,0.005010916,39.24057818,39.21951764,0.000229125,0.000229125,0.000229125,1379734.663,0.015147032
10174446,0.897379794,0.014494334,0.004831445,0.004831445,0.004831445,-0.001213004,0.001213004,6.31E-12,-7.43E-12,-1.92E-13,-8.78E-13,-0.001269056,0.001269056,-0.001269056,0.001269056,-0.001269056,0.001269056,-0.001269056,0.001269056,-0.001151686,0.001151686,-0.001151686,0.001151686,5.91E-13,1.28E-12,1.65E-12,9.26E-13,-0.001213004,0.001213004,-0.001269056,0.001269056,-0.001269056,0.001269056,-0.001269056,0.001269056,-0.001269056,0.001269056,-0.001151686,0.001151686,-0.001151686,0.001151686,-0.001151686,0.001151686,-0.001151686,0.001151686,-6.25E-12,7.47E-12,-0.001213004,0.001213004,2.21E-13,9.45E-13,-0.001269056,0.001269056,-0.001269056,0.001269056,-0.001269056,0.001269056,-0.001269056,0.001269056,-0.001151686,0.001151686,-0.001151686,0.001151686,0.716373441,0.380853435,1368840,32768,0.005041268,0.005041268,0.005041268,38.93590051,38.91485995,0.000226687,0.000226687,0.000226687,1342049.516,0.015239482
10260846,0.903235264,0.014585008,0.004861669,0.004861669,0.004861669,-0.001219801,0.001219801,6.36E-12,-7.41E-12,-1.78E-13,-8.19E-13,-0.001276261,0.001276261,-0.001276261,0.001276261,-0.001276261,0.001276261,-0.001276261,0.001276261,-0.001158077,0.001158077,-0.001158077,0.001158077,6.38E-13,1.29E-12,1.67E-12,9.18E-13,-0.001219801,0.001219801,-0.001276261,0.001276261,-0.001276261,0.001276261,-0.001276261,0.001276261,-0.001276261,0.001276261,-0.001158077,0.001158077,-0.001158077,0.001158077,-0.001158077,0.001158077,-0.001158077,0.001158077,-6.30E-12,7.45E-12,-0.001219801,0.001219801,1.93E-13,9.47E-13,-0.001276261,0.001276261,-0.001276261,0.001276261,-0.001276261,0.001276261,-0.001276261,0.001276261,-0.001158077,0.001158077,-0.001158077,0.001158077,0.716842512,0.395669592,1368840,32768,0.005069443,0.005069443,0.005069443,38.63122273,38.61020227,0.00022425,0.00022425,0.00022425,1306381.283,0.015325311
10347246,0.908688916,0.014669567,0.004889856,0.004889856,0.004889856,-0.00122611,0.00122611,6.32E-12,-7.55E-12,-3.65E-13,-9.23E-13,-0.001282941,0.001282941,-0.001282941,0.001282941,-0.001282941,0.001282941,-0.001282941,0.001282941,-0.001164021,0.001164021,-0.001164021,0.001164021,6.77E-13,1.24E-12,1.60E-12,9.28E-13,-0.00122611,0.00122611,-0.001282941,0.001282941,-0.001282941,0.001282941,-0.001282941,0.001282941,-0.001282941,0.001282941,-0.001164021,0.001164021,-0.001164021,0.001164021,-0.001164021,0.001164021,-0.001164021,0.001164021,-6.35E-12,7.49E-12,-0.00122611,0.00122611,2.51E-13,9.22E-13,-0.001282941,0.001282941,-0.001282941,0.001282941,-0.001282941,0.001282941,-0.001282941,0.001282941,-0.001164021,0.001164021,-0.001164021,0.001164021,0.717364989,0.410485749,1368840,32768,0.005095595,0.005095595,0.005095595,38.32654494,38.30554459,0.000221812,0.000221812,0.000221812,1272115.388,0.015404983
10433646,0.913790472,0.014748768,0.004916256,0.004916256,0.004916256,-0.001232133,0.001232133,6.71E-12,-7.17E-12,7.81E-15,-4.65E-13,-0.001289317,0.001289317,-0.001289317,0.001289317,-0.001289317,0.001289317,-0.001289317,0.001289317,-0.001169706,0.001169706,-0.001169706,0.001169706,3.33E-13,8.17E-13,1.05E-12,6.43E-13,-0.001232133,0.001232133,-0.001289317,0.001289317,-0.001289317,0.001289317,-0.001289317,0.001289317,-0.001289317,0.001289317,-0.001169706,0.001169706,-0.001169706,0.001169706,-0.001169706,0.001169706,-0.001169706,0.001169706,-6.71E-12,7.15E-12,-0.001232133,0.001232133,1.60E-14,4.24E-13,-0.001289317,0.001289317,-0.001289317,0.001289317,-0.001289317,0.001289317,-0.001289317,0.001289317,-0.001169706,0.001169706,-0.001169706,0.001169706,0.717936545,0.425301906,1368840,32768,0.005120564,0.005120564,0.005120564,38.09490348,38.07877266,0.000219959,0.000219959,0.000219959,1239589.731,0.015481056
10520046,0.918613882,0.014823849,0.004941283,0.004941283,0.004941283,-0.001238204,0.001238204,6.72E-12,-7.18E-12,6.34E-15,-4.64E-13,-0.001295682,0.001295682,-0.001295682,0.001295682,-0.001295682,0.001295682,-0.001295682,0.001295682,-0.00117549,0.00117549,-0.00117549,0.00117549,3.36E-13,8.18E-13,1.06E-12,6.40E-13,-0.001238204,0.001238204,-0.001295682,0.001295682,-0.001295682,0.001295682,-0.001295682,0.001295682,-0.001295682,0.001295682,-0.00117549,0.00117549,-0.00117549,0.00117549,-0.00117549,0.00117549,-0.00117549,0.00117549,-6.72E-12,7.16E-12,-0.001238204,0.001238204,8.62E-15,4.23E-13,-0.001295682,0.001295682,-0.001295682,0.001295682,-0.001295682,0.001295682,-0.001295682,0.001295682,-0.00117549,0.00117549,-0.00117549,0.00117549,0.719510467,0.45536417,1368840,32768,0.005145725,0.005145725,0.005145725,38.05792839,38.05490265,0.000219663,0.000219663,0.000219663,1206973.677,0.01555772
10606446,0.923175931,0.014894408,0.004964803,0.004964803,0.004964803,-0.001244066,0.001244066,6.75E-12,-7.16E-12,5.96E-15,-4.44E-13,-0.001301762,0.001301762,-0.001301762,0.001301762,-0.001301762,0.001301762,-0.001301762,0.001301762,-0.001181127,0.001181127,-0.001181127,0.001181127,3.34E-13,7.96E-13,1.04E-12,6.18E-13,-0.001244066,0.001244066,-0.001301762,0.001301762,-0.001301762,0.001301762,-0.001301762,0.001301762,-0.001301762,0.001301762,-0.001181127,0.001181127,-0.001181127,0.001181127,-0.001181127,0.001181127,-0.001181127,0.001181127,-6.71E-12,7.17E-12,-0.001244066,0.001244066,1.88E-14,4.39E-13,-0.001301762,0.001301762,-0.001301762,0.001301762,-0.001301762,0.001301762,-0.001301762,0.001301762,-0.001181127,0.001181127,-0.001181127,0.001181127,0.714581202,0.382539463,1368840,32768,0.005170024,0.005170024,0.005170024,38.03281641,38.03103263,0.000219463,0.000219463,0.000219463,1170054.047,0.015631761
10692846,0.927489772,0.014961022,0.004987007,0.004987007,0.004987007,-0.001248687,0.001248687,6.72E-12,-7.18E-12,1.02E-14,-4.67E-13,-0.001307064,0.001307064,-0.001307064,0.001307064,-0.001307064,0.001307064,-0.001307064,0.001307064,-0.001185101,0.001185101,-0.001185101,0.001185101,3.32E-13,8.20E-13,1.06E-12,6.34E-13,-0.001248687,0.001248687,-0.001307064,0.001307064,-0.001307064,0.001307064,-0.001307064,0.001307064,-0.001307064,0.001307064,-0.001185101,0.001185101,-0.001185101,0.001185101,-0.001185101,0.001185101,-0.001185101,0.001185101,-6.71E-12,7.16E-12,-0.001248687,0.001248687,1.03E-14,4.31E-13,-0.001307064,0.001307064,-0.001307064,0.001307064,-0.001307064,0.001307064,-0.001307064,0.001307064,-0.001185101,0.001185101,-0.001185101,0.001185101,0.713053236,0.367724422,1368840,32768,0.005189174,0.005189174,0.005189174,38.0088206,38.00716262,0.000219271,0.000219271,0.000219271,1182697.462,0.015690123
10779246,0.931567772,0.015023843,0.005007948,0.005007948,0.005007948,-0.001253513,0.001253513,6.71E-12,-7.18E-12,1.68E-14,-4.83E-13,-0.001312294,0.001312294,-0.001312294,0.001312294,-0.001312294,0.001312294,-0.001312294,0.001312294,-0.001189534,0.001189534,-0.001189534,0.001189534,3.25E-13,8.35E-13,1.06E-12,6.34E-13,-0.001253513,0.001253513,-0.001312294,0.001312294,-0.001312294,0.001312294,-0.001312294,0.001312294,-0.001312294,0.001312294,-0.001189534,0.001189534,-0.001189534,0.001189534,-0.001189534,0.001189534,-0.001189534,0.001189534,-6.71E-12,7.15E-12,-0.001253513,0.001253513,7.40E-15,4.35E-13,-0.001312294,0.001312294,-0.001312294,0.001312294,-0.001312294,0.001312294,-0.001312294,0.001312294,-0.001189534,0.001189534,-0.001189534,0.001189534,0.71146404,0.352909381,1368840,32768,0.005209176,0.005209176,0.005209176,37.98493755,37.9832926,0.00021908,0.00021908,0.00021908,1169298.991,0.015751082
10865646,0.935421856,0.015083089,0.005027696,0.005027696,0.005027696,-0.001258047,0.001258047,6.71E-12,-7.18E-12,2.07E-14,-4.91E-13,-0.00131722,0.00131722,-0.00131722,0.00131722,-0.00131722,0.00131722,-0.00131722,0.00131722,-0.001193687,0.001193687,-0.001193687,0.001193687,3.20E-13,8.43E-13,1.08E-12,6.23E-13,-0.001258047,0.001258047,-0.00131722,0.00131722,-0.00131722,0.00131722,-0.00131722,0.00131722,-0.00131722,0.00131722,-0.001193687,0.001193687,-0.001193687,0.001193687,-0.001193687,0.001193687,-0.001193687,0.001193687,-6.71E-12,7.16E-12,-0.001258047,0.001258047,-5.57E-16,4.53E-13,-0.00131722,0.00131722,-0.00131722,0.00131722,-0.00131722,0.00131722,-0.00131722,0.00131722,-0.001193687,0.001193687,-0.001193687,0.001193687,0.709819379,0.338094341,1368840,32768,0.005227968,0.005227968,0.005227968,37.96106609,37.95942258,0.000218889,0.000218889,0.000218889,1156904.545,0.015808356
10952046,0.939063451,0.015138946,0.005046315,0.005046315,0.005046315,-0.001262304,0.001262304,6.71E-12,-7.18E-12,2.54E-14,-5.02E-13,-0.001321857,0.001321857,-0.001321857,0.001321857,-0.001321857,0.001321857,-0.001321857,0.001321857,-0.001197574,0.001197574,-0.001197574,0.001197574,3.15E-13,8.53E-13,1.08E-12,6.23E-13,-0.001262304,0.001262304,-0.001321857,0.001321857,-0.001321857,0.001321857,-0.001321857,0.001321857,-0.001321857,0.001321857,-0.001197574,0.001197574,-0.001197574,0.001197574,-0.001197574,0.001197574,-0.001197574,0.001197574,-6.70E-12,7.16E-12,-0.001262304,0.001262304,-1.06E-15,4.54E-13,-0.001321857,0.001321857,-0.001321857,0.001321857,-0.001321857,0.001321857,-0.001321857,0.001321857,-0.001197574,0.001197574,-0.001197574,0.001197574,0.708124093,0.3232793,1368840,32768,0.005245611,0.005245611,0.005245611,37.93719583,37.93555257,0.000218698,0.000218698,0.000218698,1145473.252,0.015862133
11038446,0.942503517,0.015191591,0.005063864,0.005063864,0.005063864,-0.001266298,0.001266298,6.71E-12,-7.19E-12,3.14E-14,-5.14E-13,-0.00132622,0.00132622,-0.00132622,0.00132622,-0.00132622,0.00132622,-0.00132622,0.00132622,-0.00120121,0.00120121,-0.00120121,0.00120121,3.08E-13,8.64E-13,1.08E-12,6.24E-13,-0.001266298,0.001266298,-0.00132622,0.00132622,-0.00132622,0.00132622,-0.00132622,0.00132622,-0.00132622,0.00132622,-0.00120121,0.00120121,-0.00120121,0.00120121,-0.00120121,0.00120121,-0.00120121,0.00120121,-6.71E-12,7.16E-12,-0.001266298,0.001266298,-2.19E-15,4.56E-13,-0.00132622,0.00132622,-0.00132622,0.00132622,-0.00132622,0.00132622,-0.00132622,0.00132622,-0.00120121,0.00120121,-0.00120121,0.00120121,0.706382261,0.30846426,1368840,32768,0.005262165,0.005262165,0.005262165,37.91332569,37.91168255,0.000218507,0.000218507,0.000218507,1134966.451,0.015912592
11124846,0.945752545,0.015241195,0.005080398,0.005080398,0.005080398,-0.001270044,0.001270044,6.71E-12,-7.19E-12,3.17E-14,-5.16E-13,-0.001330325,0.001330325,-0.001330325,0.001330325,-0.001330325,0.001330325,-0.001330325,0.001330325,-0.001204606,0.001204606,-0.001204606,0.001204606,3.07E-13,8.66E-13,1.08E-12,6.25E-13,-0.001270044,0.001270044,-0.001330325,0.001330325,-0.001330325,0.001330325,-0.001330325,0.001330325,-0.001330325,0.001330325,-0.001204606,0.001204606,-0.001204606,0.001204606,-0.001204606,0.001204606,-0.001204606,0.001204606,-6.71E-12,7.16E-12,-0.001270044,0.001270044,-2.03E-15,4.56E-13,-0.001330325,0.001330325,-0.001330325,0.001330325,-0.001330325,0.001330325,-0.001330325,0.001330325,-0.001204606,0.001204606,-0.001204606,0.001204606,0.704597334,0.293649219,1368840,32768,0.005277686,0.005277686,0.005277686,37.88945556,37.88781254,0.000218316,0.000218316,0.000218316,1125347.707,0.015959906
11211246,0.948817511,0.015288064,0.005096021,0.005096021,0.005096021,-0.00127353,0.00127353,6.71E-12,-7.20E-12,3.84E-14,-5.33E-13,-0.001334155,0.001334155,-0.001334155,0.001334155,-0.001334155,0.001334155,-0.001334155,0.001334155,-0.001207763,0.001207763,-0.001207763,0.001207763,3.00E-13,8.82E-13,1.09E-12,6.30E-13,-0.00127353,0.00127353,-0.001334155,0.001334155,-0.001334155,0.001334155,-0.001334155,0.001334155,-0.001334155,0.001334155,-0.001207763,0.001207763,-0.001207763,0.001207763,-0.001207763,0.001207763,-0.001207763,0.001207763,-6.71E-12,7.17E-12,-0.00127353,0.00127353,-3.55E-15,4.55E-13,-0.001334155,0.001334155,-0.001334155,0.001334155,-0.001334155,0.001334155,-0.001334155,0.001334155,-0.001207763,0.001207763,-0.001207763,0.001207763,0.705630058,0.32257528,1368840,32768,0.005292136,0.005292136,0.005292136,37.84681783,37.84392864,0.000217975,0.000217975,0.000217975,1116122.34,0.016003956
11297646,0.951701586,0.015332216,0.005110739,0.005110739,0.005110739,-0.001277164,0.001277164,6.72E-12,-7.20E-12,3.12E-14,-5.17E-13,-0.001337883,0.001337883,-0.001337883,0.001337883,-0.001337883,0.001337883,-0.001337883,0.001337883,-0.001211297,0.001211297,-0.001211297,0.001211297,3.03E-13,8.63E-13,1.08E-12,6.26E-13,-0.001277164,0.001277164,-0.001337883,0.001337883,-0.001337883,0.001337883,-0.001337883,0.001337883,-0.001337883,0.001337883,-0.001211297,0.001211297,-0.001211297,0.001211297,-0.001211297,0.001211297,-0.001211297,0.001211297,-6.72E-12,7.17E-12,-0.001277164,0.001277164,1.91E-15,4.58E-13,-0.001337883,0.001337883,-0.001337883,0.001337883,-0.001337883,0.001337883,-0.001337883,0.001337883,-0.001211297,0.001211297,-0.001211297,0.001211297,0.706289877,0.343578156,1368840,32768,0.005307194,0.005307194,0.005307194,37.75905399,37.75312669,0.000217272,0.000217272,0.000217272,1086866.167,0.016049861
11384046,0.954415162,0.015373778,0.005124593,0.005124593,0.005124593,-0.001280504,0.001280504,6.72E-12,-7.21E-12,1.28E-14,-5.08E-13,-0.001341337,0.001341337,-0.001341337,0.001341337,-0.001341337,0.001341337,-0.001341337,0.001341337,-0.00121452,0.00121452,-0.00121452,0.00121452,3.17E-13,8.45E-13,1.07E-12,6.26E-13,-0.001280504,0.001280504,-0.001341337,0.001341337,-0.001341337,0.001341337,-0.001341337,0.001341337,-0.001341337,0.001341337,-0.00121452,0.00121452,-0.00121452,0.00121452,-0.00121452,0.00121452,-0.00121452,0.00121452,-6.80E-12,7.10E-12,-0.001280504,0.001280504,-6.17E-14,3.76E-13,-0.001341337,0.001341337,-0.001341337,0.001341337,-0.001341337,0.001341337,-0.001341337,0.001341337,-0.00121452,0.00121452,-0.00121452,0.00121452,0.706345194,0.353678029,1368840,32768,0.005321037,0.005321037,0.005321037,37.6685382,37.66232474,0.000216548,0.000216548,0.000216548,1062123.545,0.016092061
11470446,0.956968438,0.015412905,0.005137635,0.005137635,0.005137635,-0.001283542,0.001283542,6.65E-12,-7.29E-12,-5.56E-14,-5.80E-13,-0.00134453,0.00134453,-0.00134453,0.00134453,-0.00134453,0.00134453,-0.00134453,0.00134453,-0.001217406,0.001217406,-0.001217406,0.001217406,1.58E-13,6.91E-13,9.32E-13,4.53E-13,-0.001283542,0.001283542,-0.00134453,0.00134453,-0.00134453,0.00134453,-0.00134453,0.00134453,-0.00134453,0.00134453,-0.001217406,0.001217406,-0.001217406,0.001217406,-0.001217406,0.001217406,-0.001217406,0.001217406,-6.82E-12,7.09E-12,-0.001283542,0.001283542,-8.06E-14,3.94E-13,-0.00134453,0.00134453,-0.00134453,0.00134453,-0.00134453,0.00134453,-0.00134453,0.00134453,-0.001217406,0.001217406,-0.001217406,0.001217406,0.706446121,0.363777902,1368840,32768,0.005333627,0.005333627,0.005333627,37.57776358,37.57152279,0.000215822,0.000215822,0.000215822,1043045.967,0.016130446
11556846,0.959371061,0.015449741,0.005149914,0.005149914,0.005149914,-0.001286398,0.001286398,6.71E-12,-7.25E-12,-3.54E-15,-5.23E-13,-0.00134753,0.00134753,-0.00134753,0.00134753,-0.00134753,0.00134753,-0.00134753,0.00134753,-0.001220122,0.001220122,-0.001220122,0.001220122,3.37E-13,8.70E-13,1.15E-12,6.64E-13,-0.001286398,0.001286398,-0.00134753,0.00134753,-0.00134753,0.00134753,-0.00134753,0.00134753,-0.00134753,0.00134753,-0.001220122,0.001220122,-0.001220122,0.001220122,-0.001220122,0.001220122,-0.001220122,0.001220122,-6.74E-12,7.19E-12,-0.001286398,0.001286398,-1.34E-14,4.76E-13,-0.00134753,0.00134753,-0.00134753,0.00134753,-0.00134753,0.00134753,-0.00134753,0.00134753,-0.001220122,0.001220122,-0.001220122,0.001220122,0.706589677,0.373877776,1368840,32768,0.005345462,0.005345462,0.005345462,37.48696283,37.48072084,0.000215096,0.000215096,0.000215096,1024757.279,0.01616653
11643246,0.961632119,0.015484425,0.005161475,0.005161475,0.005161475,-0.001289083,0.001289083,6.61E-12,-7.38E-12,-1.26E-13,-6.82E-13,-0.001350346,0.001350346,-0.001350346,0.001350346,-0.001350346,0.001350346,-0.001350346,0.001350346,-0.00122268,0.00122268,-0.00122268,0.00122268,3.02E-13,8.65E-13,1.10E-12,6.23E-13,-0.001289083,0.001289083,-0.001350346,0.001350346,-0.001350346,0.001350346,-0.001350346,0.001350346,-0.001350346,0.001350346,-0.00122268,0.00122268,-0.00122268,0.00122268,-0.00122268,0.00122268,-0.00122268,0.00122268,-6.66E-12,7.30E-12,-0.001289083,0.001289083,9.11E-14,5.73E-13,-0.001350346,0.001350346,-0.001350346,0.001350346,-0.001350346,0.001350346,-0.001350346,0.001350346,-0.00122268,0.00122268,-0.00122268,0.00122268,0.706773305,0.383977649,1368840,32768,0.005356587,0.005356587,0.005356587,37.39615939,37.3899189,0.000214369,0.000214369,0.000214369,1007168.223,0.016200448
11729646,0.963760162,0.015517087,0.005172362,0.005172362,0.005172362,-0.001291606,0.001291606,6.73E-12,-7.28E-12,-9.43E-16,-5.73E-13,-0.00135299,0.00135299,-0.00135299,0.00135299,-0.00135299,0.00135299,-0.00135299,0.00135299,-0.001225088,0.001225088,-0.001225088,0.001225088,2.46E-13,8.28E-13,1.04E-12,5.79E-13,-0.001291606,0.001291606,-0.00135299,0.00135299,-0.00135299,0.00135299,-0.00135299,0.00135299,-0.00135299,0.00135299,-0.001225088,0.001225088,-0.001225088,0.001225088,-0.001225088,0.001225088,-0.001225088,0.001225088,-6.80E-12,7.17E-12,-0.001291606,0.001291606,-2.05E-14,4.43E-13,-0.00135299,0.00135299,-0.00135299,0.00135299,-0.00135299,0.00135299,-0.00135299,0.00135299,-0.001225088,0.001225088,-0.001225088,0.001225088,0.706994792,0.394077522,1368840,32768,0.005367044,0.005367044,0.005367044,37.30535568,37.29911695,0.000213643,0.000213643,0.000213643,990247.1075,0.016232332
11816046,0.965763237,0.015547853,0.005182618,0.005182618,0.005182618,-0.001293978,0.001293978,6.76E-12,-7.19E-12,7.19E-14,-5.32E-13,-0.00135547,0.00135547,-0.00135547,0.00135547,-0.00135547,0.00135547,-0.00135547,0.00135547,-0.001227358,0.001227358,-0.001227358,0.001227358,3.08E-13,9.23E-13,1.12E-12,6.56E-13,-0.001293978,0.001293978,-0.00135547,0.00135547,-0.00135547,0.00135547,-0.00135547,0.00135547,-0.00135547,0.00135547,-0.001227358,0.001227358,-0.001227358,0.001227358,-0.001227358,0.001227358,-0.001227358,0.001227358,-6.83E-12,7.09E-12,-0.001293978,0.001293978,-6.34E-14,4.02E-13,-0.00135547,0.00135547,-0.00135547,0.00135547,-0.00135547,0.00135547,-0.00135547,0.00135547,-0.001227358,0.001227358,-0.001227358,0.001227358,0.707334354,0.40547584,1368840,32768,0.005376875,0.005376875,0.005376875,37.21455193,37.208315,0.000212916,0.000212916,0.000212916,973961.6199,0.016262307
11902446,0.967648905,0.015576905,0.005192302,0.005192302,0.005192302,-0.001296227,0.001296227,6.74E-12,-7.24E-12,2.25E-14,-5.10E-13,-0.001357813,0.001357813,-0.001357813,0.001357813,-0.001357813,0.001357813,-0.001357813,0.001357813,-0.001229521,0.001229521,-0.001229521,0.001229521,2.98E-13,8.42E-13,1.05E-12,6.32E-13,-0.001296227,0.001296227,-0.001357813,0.001357813,-0.001357813,0.001357813,-0.001357813,0.001357813,-0.001357813,0.001357813,-0.001229521,0.001229521,-0.001229521,0.001229521,-0.001229521,0.001229521,-0.001229521,0.001229521,-6.76E-12,7.20E-12,-0.001296227,0.001296227,1.11E-14,4.32E-13,-0.001357813,0.001357813,-0.001357813,0.001357813,-0.001357813,0.001357813,-0.001357813,0.001357813,-0.001229521,0.001229521,-0.001229521,0.001229521,0.709321439,0.442645577,1368840,32768,0.005386193,0.005386193,0.005386193,37.12374811,37.11751305,0.00021219,0.00021219,0.00021219,957761.5446,0.016290721
11988846,0.969425486,0.015604363,0.005201454,0.005201454,0.005201454,-0.001298611,0.001298611,6.73E-12,-7.21E-12,3.57E-14,-5.03E-13,-0.001360152,0.001360152,-0.001360152,0.001360152,-0.001360152,0.001360152,-0.001360152,0.001360152,-0.001231946,0.001231946,-0.001231946,0.001231946,3.04E-13,8.54E-13,1.04E-12,6.60E-13,-0.001298611,0.001298611,-0.001360152,0.001360152,-0.001360152,0.001360152,-0.001360152,0.001360152,-0.001360152,0.001360152,-0.001231946,0.001231946,-0.001231946,0.001231946,-0.001231946,0.001231946,-0.001231946,0.001231946,-6.75E-12,7.16E-12,-0.001298611,0.001298611,2.27E-14,4.01E-13,-0.001360152,0.001360152,-0.001360152,0.001360152,-0.001360152,0.001360152,-0.001360152,0.001360152,-0.001231946,0.001231946,-0.001231946,0.001231946,0.71143579,0.479815315,1368840,32768,0.005396073,0.005396073,0.005396073,37.04570888,37.04032109,0.000211566,0.000211566,0.000211566,932496.3976,0.016320847
12075246,0.971101942,0.015630364,0.005210121,0.005210121,0.005210121,-0.001300925,0.001300925,6.73E-12,-7.21E-12,2.91E-14,-5.04E-13,-0.001362413,0.001362414,-0.001362414,0.001362413,-0.001362413,0.001362414,-0.001362414,0.001362413,-0.00123431,0.00123431,-0.00123431,0.00123431,3.12E-13,8.56E-13,1.03E-12,6.69E-13,-0.001300925,0.001300925,-0.001362413,0.001362414,-0.001362413,0.001362414,-0.001362413,0.001362414,-0.001362413,0.001362414,-0.00123431,0.00123431,-0.00123431,0.00123431,-0.00123431,0.00123431,-0.00123431,0.00123431,-6.74E-12,7.16E-12,-0.001300925,0.001300925,2.98E-14,3.93E-13,-0.001362414,0.001362413,-0.001362414,0.001362413,-0.001362413,0.001362414,-0.001362413,0.001362414,-0.00123431,0.00123431,-0.00123431,0.00123431,0.713670359,0.516985052,1368840,32768,0.005405663,0.005405663,0.005405663,36.99547961,36.99196379,0.000211164,0.000211164,0.000211164,908210.4906,0.016350089
12161646,0.972684094,0.015654992,0.005218331,0.005218331,0.005218331,-0.001303125,0.001303125,6.71E-12,-7.21E-12,1.82E-14,-5.28E-13,-0.001364556,0.001364556,-0.001364556,0.001364556,-0.001364556,0.001364556,-0.001364556,0.001364556,-0.001236565,0.001236565,-0.001236565,0.001236565,3.04E-13,8.60E-13,1.04E-12,6.64E-13,-0.001303125,0.001303125,-0.001364556,0.001364556,-0.001364556,0.001364556,-0.001364556,0.001364556,-0.001364556,0.001364556,-0.001236565,0.001236565,-0.001236565,0.001236565,-0.001236565,0.001236565,-0.001236565,0.001236565,-6.74E-12,7.15E-12,-0.001303125,0.001303125,2.31E-14,4.00E-13,-0.001364556,0.001364556,-0.001364556,0.001364556,-0.001364556,0.001364556,-0.001364556,0.001364556,-0.001236565,0.001236565,-0.001236565,0.001236565,0.716024256,0.55415479,1368840,32768,0.00541478,0.00541478,0.00541478,36.94694478,36.94360648,0.000210776,0.000210776,0.000210776,884935.7852,0.016377887
12248046,0.974177298,0.015678323,0.005226108,0.005226108,0.005226108,-0.001305214,0.001305214,6.72E-12,-7.19E-12,3.41E-14,-5.04E-13,-0.001366581,0.001366581,-0.001366581,0.001366581,-0.001366581,0.001366581,-0.001366581,0.001366581,-0.001238715,0.001238715,-0.001238715,0.001238715,3.05E-13,8.54E-13,1.02E-12,6.76E-13,-0.001305214,0.001305214,-0.001366581,0.001366581,-0.001366581,0.001366581,-0.001366581,0.001366581,-0.001366581,0.001366581,-0.001238715,0.001238715,-0.001238715,0.001238715,-0.001238715,0.001238715,-0.001238715,0.001238715,-6.72E-12,7.16E-12,-0.001305214,0.001305214,4.12E-14,3.84E-13,-0.001366581,0.001366581,-0.001366581,0.001366581,-0.001366581,0.001366581,-0.001366581,0.001366581,-0.001238715,0.001238715,-0.001238715,0.001238715,0.718505969,0.591324527,1368840,32768,0.005423436,0.005423436,0.005423436,36.89856901,36.89524917,0.000210389,0.000210389,0.000210389,862580.934,0.016404283
12334446,0.975586601,0.015700311,0.005233437,0.005233437,0.005233437,-0.001307187,0.001307187,6.71E-12,-7.21E-12,2.93E-14,-5.27E-13,-0.001368487,0.001368487,-0.001368487,0.001368487,-0.001368487,0.001368487,-0.001368487,0.001368487,-0.001240751,0.001240751,-0.001240751,0.001240751,3.02E-13,8.69E-13,1.03E-12,6.78E-13,-0.001307187,0.001307187,-0.001368487,0.001368487,-0.001368487,0.001368487,-0.001368487,0.001368487,-0.001368487,0.001368487,-0.001240751,0.001240751,-0.001240751,0.001240751,-0.001240751,0.001240751,-0.001240751,0.001240751,-6.74E-12,7.15E-12,-0.001307187,0.001307187,2.84E-14,3.75E-13,-0.001368487,0.001368487,-0.001368487,0.001368487,-0.001368487,0.001368487,-0.001368487,0.001368487,-0.001240751,0.001240751,-0.001240751,0.001240751,0.717215008,0.562859531,1368840,32768,0.005431614,0.005431614,0.005431614,36.85020939,36.84689186,0.000210002,0.000210002,0.000210002,841316.7557,0.01642922
12420846,0.976916767,0.01572092,0.005240307,0.005240307,0.005240307,-0.001308524,0.001308524,6.71E-12,-7.22E-12,2.10E-14,-5.42E-13,-0.001370019,0.001370019,-0.001370019,0.001370019,-0.001370019,0.001370019,-0.001370019,0.001370019,-0.001241906,0.001241906,-0.001241906,0.001241906,3.28E-13,9.02E-13,1.07E-12,7.08E-13,-0.001308524,0.001308524,-0.001370019,0.001370019,-0.001370019,0.001370019,-0.001370019,0.001370019,-0.001370019,0.001370019,-0.001241906,0.001241906,-0.001241906,0.001241906,-0.001241906,0.001241906,-0.001241906,0.001241906,-6.74E-12,7.16E-12,-0.001308524,0.001308524,3.26E-14,3.91E-13,-0.001370019,0.001370019,-0.001370019,0.001370019,-0.001370019,0.001370019,-0.001370019,0.001370019,-0.001241906,0.001241906,-0.001241906,0.001241906,0.711982634,0.476219296,1368840,32768,0.005437153,0.005437153,0.005437153,36.80185152,36.79853455,0.000209615,0.000209615,0.000209615,840244.402,0.016446116
12507246,0.978172294,0.015740365,0.005246788,0.005246788,0.005246788,-0.001309262,0.001309262,6.68E-12,-7.23E-12,-2.59E-15,-5.74E-13,-0.001371185,0.001371185,-0.001371185,0.001371185,-0.001371185,0.001371185,-0.001371185,0.001371185,-0.001242249,0.001242249,-0.001242249,0.001242249,3.43E-13,9.26E-13,1.07E-12,7.01E-13,-0.001309262,0.001309262,-0.001371185,0.001371185,-0.001371185,0.001371185,-0.001371185,0.001371185,-0.001371185,0.001371185,-0.001242249,0.001242249,-0.001242249,0.001242249,-0.001242249,0.001242249,-0.001242249,0.001242249,-6.73E-12,7.15E-12,-0.001309262,0.001309262,2.24E-14,3.92E-13,-0.001371185,0.001371185,-0.001371185,0.001371185,-0.001371185,0.001371185,-0.001371185,0.001371185,-0.001242249,0.001242249,-0.001242249,0.001242249,0.711700054,0.475910615,1368840,32768,0.005440209,0.005440209,0.005440209,36.75349369,36.75017725,0.000209228,0.000209228,0.000209228,857830.6007,0.016455438
12593646,0.979357429,0.015758458,0.005252819,0.005252819,0.005252819,-0.001310607,0.001310607,6.78E-12,-7.18E-12,6.41E-14,-5.09E-13,-0.001372649,0.001372649,-0.001372649,0.001372649,-0.001372649,0.001372649,-0.001372649,0.001372649,-0.001243486,0.001243486,-0.001243486,0.001243486,3.16E-13,9.00E-13,1.09E-12,6.31E-13,-0.001310607,0.001310607,-0.001372649,0.001372649,-0.001372649,0.001372649,-0.001372649,0.001372649,-0.001372649,0.001372649,-0.001243486,0.001243486,-0.001243486,0.001243486,-0.001243486,0.001243486,-0.001243486,0.001243486,-6.76E-12,7.17E-12,-0.001310607,0.001310607,-4.84E-14,4.14E-13,-0.001372649,0.001372649,-0.001372649,0.001372649,-0.001372649,0.001372649,-0.001372649,0.001372649,-0.001243486,0.001243486,-0.001243486,0.001243486,0.701725639,0.327381097,1368840,32768,0.005445783,0.005445783,0.005445783,36.70513603,36.70181994,0.000208841,0.000208841,0.000208841,850674.87,0.016472438
12680046,0.980476184,0.015775577,0.005258526,0.005258526,0.005258526,-0.001310487,0.001310487,6.72E-12,-7.20E-12,3.68E-14,-5.35E-13,-0.001373328,0.001373328,-0.001373328,0.001373328,-0.001373328,0.001373328,-0.001373328,0.001373328,-0.001242641,0.001242641,-0.001242641,0.001242641,2.97E-13,8.80E-13,1.10E-12,6.19E-13,-0.001310487,0.001310487,-0.001373328,0.001373328,-0.001373328,0.001373328,-0.001373328,0.001373328,-0.001373328,0.001373328,-0.001242641,0.001242641,-0.001242641,0.001242641,-0.001242641,0.001242641,-0.001242641,0.001242641,-6.71E-12,7.17E-12,-0.001310487,0.001310487,-1.57E-14,4.62E-13,-0.001373328,0.001373328,-0.001373328,0.001373328,-0.001373328,0.001373328,-0.001373328,0.001373328,-0.001242641,0.001242641,-0.001242641,0.001242641,0.703220437,0.364366945,1368840,32768,0.005445283,0.005445283,0.005445283,36.65677821,36.65346263,0.000208454,0.000208454,0.000208454,894260.3133,0.016470922
12766446,0.981529,0.015791673,0.005263891,0.005263891,0.005263891,-0.001311904,0.001311904,6.72E-12,-7.20E-12,2.59E-14,-5.15E-13,-0.001374654,0.001374654,-0.001374654,0.001374654,-0.001374654,0.001374654,-0.001374654,0.001374654,-0.001244141,0.001244141,-0.001244141,0.001244141,3.04E-13,8.56E-13,1.09E-12,6.08E-13,-0.001311904,0.001311904,-0.001374654,0.001374654,-0.001374654,0.001374654,-0.001374654,0.001374654,-0.001374654,0.001374654,-0.001244141,0.001244141,-0.001244141,0.001244141,-0.001244141,0.001244141,-0.001244141,0.001244141,-6.72E-12,7.18E-12,-0.001311904,0.001311904,-9.79E-15,4.69E-13,-0.001374654,0.001374654,-0.001374654,0.001374654,-0.001374654,0.001374654,-0.001374654,0.001374654,-0.001244141,0.001244141,-0.001244141,0.001244141,0.703057932,0.372530427,1368840,32768,0.005451157,0.005451157,0.005451157,36.54919539,36.54196329,0.000207594,0.000207594,0.000207594,874336.7959,0.016488835
12852846,0.982513804,0.015806731,0.00526891,0.00526891,0.00526891,-0.001312734,0.001312734,6.75E-12,-7.15E-12,2.99E-14,-4.96E-13,-0.001375529,0.001375529,-0.001375529,0.001375529,-0.001375529,0.001375529,-0.001375529,0.001375529,-0.001244931,0.001244931,-0.001244931,0.001244931,3.81E-13,9.13E-13,1.16E-12,6.76E-13,-0.001312734,0.001312734,-0.001375529,0.001375529,-0.001375529,0.001375529,-0.001375529,0.001375529,-0.001375529,0.001375529,-0.001244931,0.001244931,-0.001244931,0.001244931,-0.001244931,0.001244931,-0.001244931,0.001244931,-6.76E-12,7.11E-12,-0.001312734,0.001312734,-6.57E-14,4.22E-13,-0.001375529,0.001375529,-0.001375529,0.001375529,-0.001375529,0.001375529,-0.001375529,0.001375529,-0.001244931,0.001244931,-0.001244931,0.001244931,0.702959913,0.380693909,1368840,32768,0.005454595,0.005454595,0.005454595,36.32425393,36.30913499,0.000205794,0.000205794,0.000205794,865006.5401,0.016499323
12939246,0.983435165,0.015820821,0.005273607,0.005273607,0.005273607,-0.001313475,0.001313475,6.65E-12,-7.27E-12,-1.74E-14,-5.61E-13,-0.001376307,0.001376307,-0.001376307,0.001376307,-0.001376307,0.001376307,-0.001376307,0.001376307,-0.001245638,0.001245638,-0.001245638,0.001245638,1.26E-13,6.79E-13,9.65E-13,4.92E-13,-0.001313475,0.001313475,-0.001376307,0.001376307,-0.001376307,0.001376307,-0.001376307,0.001376307,-0.001376307,0.001376307,-0.001245638,0.001245638,-0.001245638,0.001245638,-0.001245638,0.001245638,-0.001245638,0.001245638,-6.85E-12,7.03E-12,-0.001313475,0.001313475,-1.35E-13,3.35E-13,-0.001376307,0.001376307,-0.001376307,0.001376307,-0.001376307,0.001376307,-0.001376307,0.001376307,-0.001245638,0.001245638,-0.001245638,0.001245638,0.702918928,0.388857392,1368840,32768,0.005457663,0.005457663,0.005457663,36.09215965,36.07630668,0.000203937,0.000203937,0.000203937,855938.9458,0.016508679
13025646,0.984297654,0.015834012,0.005278004,0.005278004,0.005278004,-0.001314143,0.001314143,6.79E-12,-7.10E-12,1.68E-13,-4.54E-13,-0.001377007,0.001377007,-0.001377007,0.001377007,-0.001377007,0.001377007,-0.001377007,0.001377007,-0.001246278,0.001246278,-0.001246278,0.001246278,2.06E-13,8.31E-13,1.13E-12,5.40E-13,-0.001314143,0.001314143,-0.001377007,0.001377007,-0.001377007,0.001377007,-0.001377007,0.001377007,-0.001377007,0.001377007,-0.001246278,0.001246278,-0.001246278,0.001246278,-0.001246278,0.001246278,-0.001246278,0.001246278,-6.96E-12,6.89E-12,-0.001314143,0.001314143,-2.50E-13,3.46E-13,-0.001377007,0.001377007,-0.001377007,0.001377007,-0.001377007,0.001377007,-0.001377007,0.001377007,-0.001246278,0.001246278,-0.001246278,0.001246278,0.70292892,0.397020874,1368840,32768,0.005460432,0.005460432,0.005460432,35.85939474,35.84347838,0.000202075,0.000202075,0.000202075,847159.9728,0.016517126
13112046,0.98510551,0.015846371,0.005282124,0.005282124,0.005282124,-0.001314746,0.001314746,6.90E-12,-7.12E-12,1.55E-13,-4.68E-13,-0.001377637,0.001377637,-0.001377637,0.001377637,-0.001377637,0.001377637,-0.001377637,0.001377637,-0.001246858,0.001246858,-0.001246858,0.001246858,4.53E-13,1.08E-12,1.39E-12,7.85E-13,-0.001314746,0.001314746,-0.001377637,0.001377637,-0.001377637,0.001377637,-0.001377637,0.001377637,-0.001377637,0.001377637,-0.001246858,0.001246858,-0.001246858,0.001246858,-0.001246858,0.001246858,-0.001246858,0.001246858,-6.50E-12,7.48E-12,-0.001314746,0.001314746,2.25E-13,8.19E-13,-0.001377637,0.001377637,-0.001377637,0.001377637,-0.001377637,0.001377637,-0.001377637,0.001377637,-0.001246858,0.001246858,-0.001246858,0.001246858,0.702984923,0.405184356,1368840,32768,0.005462929,0.005462929,0.005462929,35.62656241,35.61065007,0.000200212,0.000200212,0.000200212,838661.7382,0.016524741
13198446,0.985862644,0.015857956,0.005285985,0.005285985,0.005285985,-0.001315287,0.001315287,6.79E-12,-7.27E-12,-2.73E-14,-6.44E-13,-0.0013782,0.0013782,-0.0013782,0.0013782,-0.0013782,0.0013782,-0.0013782,0.0013782,-0.00124738,0.00124738,-0.00124738,0.00124738,3.13E-13,9.42E-13,1.28E-12,6.45E-13,-0.001315287,0.001315287,-0.0013782,0.0013782,-0.0013782,0.0013782,-0.0013782,0.0013782,-0.0013782,0.0013782,-0.00124738,0.00124738,-0.00124738,0.00124738,-0.00124738,0.00124738,-0.00124738,0.00124738,-6.81E-12,7.21E-12,-0.001315287,0.001315287,-4.81E-14,5.94E-13,-0.0013782,0.0013782,-0.0013782,0.0013782,-0.0013782,0.0013782,-0.0013782,0.0013782,-0.00124738,0.00124738,-0.00124738,0.00124738,0.70308282,0.413347839,1368840,32768,0.005465172,0.005465172,0.005465172,35.39372319,35.37782177,0.00019835,0.00019835,0.00019835,830432.5179,0.016531583
13284846,0.986572659,0.015868817,0.005289606,0.005289606,0.005289606,-0.001315771,0.001315771,6.88E-12,-7.20E-12,8.37E-14,-4.73E-13,-0.001378703,0.001378703,-0.001378703,0.001378703,-0.001378703,0.001378703,-0.001378703,0.001378703,-0.001247848,0.001247848,-0.001247848,0.001247848,2.66E-13,8.30E-13,1.11E-12,5.02E-13,-0.001315771,0.001315771,-0.001378703,0.001378703,-0.001378703,0.001378703,-0.001378703,0.001378703,-0.001378703,0.001378703,-0.001247848,0.001247848,-0.001247848,0.001247848,-0.001247848,0.001247848,-0.001247848,0.001247848,-7.13E-12,6.93E-12,-0.001315771,0.001315771,-3.66E-13,2.47E-13,-0.001378703,0.001378703,-0.001378703,0.001378703,-0.001378703,0.001378703,-0.001378703,0.001378703,-0.001247848,0.001247848,-0.001247848,0.001247848,0.702809749,0.414988948,1368840,32768,0.005467177,0.005467177,0.005467177,35.16088329,35.14499346,0.000196487,0.000196487,0.000196487,822471.4878,0.016537699
13371246,0.98723888,0.015878985,0.005292995,0.005292995,0.005292995,-0.00131614,0.00131614,6.84E-12,-7.29E-12,2.75E-14,-5.49E-13,-0.001379118,0.001379118,-0.001379118,0.001379118,-0.001379118,0.001379118,-0.001379118,0.001379118,-0.001248176,0.001248176,-0.001248176,0.001248176,2.91E-13,8.78E-13,1.13E-12,5.68E-13,-0.00131614,0.00131614,-0.001379118,0.001379118,-0.001379118,0.001379118,-0.001379118,0.001379118,-0.001379118,0.001379118,-0.001248176,0.001248176,-0.001248176,0.001248176,-0.001248176,0.001248176,-0.001248176,0.001248176,-6.81E-12,7.28E-12,-0.00131614,0.00131614,-4.68E-14,5.16E-13,-0.001379118,0.001379118,-0.001379118,0.001379118,-0.001379118,0.001379118,-0.001379118,0.001379118,-0.001248176,0.001248176,-0.001248176,0.001248176,0.701083954,0.393526475,1368840,32768,0.005468707,0.005468707,0.005468707,34.92804344,34.91216516,0.000194624,0.000194624,0.000194624,816877.0657,0.016542364
13457646,0.987864373,0.015888507,0.005296169,0.005296169,0.005296169,-0.001316244,0.001316244,6.87E-12,-7.37E-12,4.03E-14,-5.86E-13,-0.001379374,0.001379374,-0.001379374,0.001379374,-0.001379374,0.001379374,-0.001379374,0.001379374,-0.001248143,0.001248143,-0.001248143,0.001248143,2.75E-13,9.12E-13,1.18E-12,5.75E-13,-0.001316244,0.001316244,-0.001379374,0.001379374,-0.001379374,0.001379374,-0.001379374,0.001379374,-0.001379374,0.001379374,-0.001248143,0.001248143,-0.001248143,0.001248143,-0.001248143,0.001248143,-0.001248143,0.001248143,-6.87E-12,7.34E-12,-0.001316244,0.001316244,-5.16E-14,5.52E-13,-0.001379374,0.001379374,-0.001379374,0.001379374,-0.001379374,0.001379374,-0.001379374,0.001379374,-0.001248143,0.001248143,-0.001248143,0.001248143,0.699267717,0.372064003,1368840,32768,0.005469138,0.005469138,0.005469138,34.69520359,34.67933686,0.000192762,0.000192762,0.000192762,818909.9764,0.01654368
13544046,0.988452861,0.015897445,0.005299148,0.005299148,0.005299148,-0.001316349,0.001316349,6.89E-12,-7.36E-12,5.02E-14,-6.27E-13,-0.001379623,0.001379623,-0.001379623,0.001379623,-0.001379623,0.001379623,-0.001379623,0.001379623,-0.001248116,0.001248116,-0.001248116,0.001248116,2.30E-13,9.24E-13,1.14E-12,5.51E-13,-0.001316349,0.001316349,-0.001379623,0.001379623,-0.001379623,0.001379623,-0.001379623,0.001379623,-0.001379623,0.001379623,-0.001248116,0.001248116,-0.001248116,0.001248116,-0.001248116,0.001248116,-0.001248116,0.001248116,-6.75E-12,7.47E-12,-0.001316349,0.001316349,2.94E-14,6.22E-13,-0.001379623,0.001379623,-0.001379623,0.001379623,-0.001379623,0.001379623,-0.001379623,0.001379623,-0.001248116,0.001248116,-0.001248116,0.001248116,0.697686342,0.355514732,1368840,32768,0.005469571,0.005469571,0.005469571,34.49023767,34.47621349,0.000191122,0.000191122,0.000191122,821205.3839,0.016545006
13630446,0.989008336,0.015905877,0.005301959,0.005301959,0.005301959,-0.001316552,0.001316552,6.87E-12,-7.37E-12,6.69E-14,-6.75E-13,-0.001379955,0.001379955,-0.001379955,0.001379955,-0.001379955,0.001379955,-0.001379955,0.001379955,-0.001248203,0.001248203,-0.001248203,0.001248203,2.06E-13,9.58E-13,1.12E-12,5.03E-13,-0.001316552,0.001316552,-0.001379955,0.001379955,-0.001379955,0.001379955,-0.001379955,0.001379955,-0.001379955,0.001379955,-0.001248203,0.001248203,-0.001248203,0.001248203,-0.001248203,0.001248203,-0.001248203,0.001248203,-7.00E-12,7.21E-12,-0.001316552,0.001316552,-1.59E-13,4.58E-13,-0.001379955,0.001379955,-0.001379955,0.001379955,-0.001379955,0.001379955,-0.001379955,0.001379955,-0.001248203,0.001248203,-0.001248203,0.001248203,0.697382012,0.359748268,1368840,32768,0.005470413,0.005470413,0.005470413,34.33565404,34.32500953,0.000189885,0.000189885,0.000189885,822361.8086,0.016547573
13716846,0.989532935,0.015913838,0.005304613,0.005304613,0.005304613,-0.001316921,0.001316921,6.87E-12,-7.42E-12,1.27E-14,-5.85E-13,-0.001380357,0.001380357,-0.001380357,0.001380357,-0.001380357,0.001380357,-0.001380357,0.001380357,-0.001248544,0.001248544,-0.001248544,0.001248544,9.59E-14,6.93E-13,1.03E-12,4.18E-13,-0.001316921,0.001316921,-0.001380357,0.001380357,-0.001380357,0.001380357,-0.001380357,0.001380357,-0.001380357,0.001380357,-0.001248544,0.001248544,-0.001248544,0.001248544,-0.001248544,0.001248544,-0.001248544,0.001248544,-7.03E-12,7.23E-12,-0.001316921,0.001316921,-1.99E-13,4.09E-13,-0.001380357,0.001380357,-0.001380357,0.001380357,-0.001380357,0.001380357,-0.001380357,0.001380357,-0.001248544,0.001248544,-0.001248544,0.001248544,0.697111567,0.363981803,1368840,32768,0.005471941,0.005471941,0.005471941,34.18412825,34.17380558,0.000188673,0.000188673,0.000188673,817011.6502,0.016552235
13803246,0.990028563,0.015921357,0.005307119,0.005307119,0.005307119,-0.001317256,0.001317256,7.00E-12,-7.37E-12,1.08E-13,-5.17E-13,-0.001380717,0.001380717,-0.001380717,0.001380717,-0.001380717,0.001380717,-0.001380717,0.001380717,-0.001248858,0.001248858,-0.001248858,0.001248858,2.88E-13,9.29E-13,1.20E-12,5.62E-13,-0.001317256,0.001317256,-0.001380717,0.001380717,-0.001380717,0.001380717,-0.001380717,0.001380717,-0.001380717,0.001380717,-0.001248858,0.001248858,-0.001248858,0.001248858,-0.001248858,0.001248858,-0.001248858,0.001248858,-7.01E-12,7.34E-12,-0.001317256,0.001317256,-1.66E-13,4.65E-13,-0.001380717,0.001380717,-0.001380717,0.001380717,-0.001380717,0.001380717,-0.001380717,0.001380717,-0.001248858,0.001248858,-0.001248858,0.001248858,0.696871687,0.368215338,1368840,32768,0.005473328,0.005473328,0.005473328,34.03288763,34.02260162,0.000187463,0.000187463,0.000187463,811719.7547,0.016556467
13889646,0.990496993,0.015928462,0.005309487,0.005309487,0.005309487,-0.001317558,0.001317558,6.97E-12,-7.48E-12,-1.59E-14,-5.36E-13,-0.001381042,0.001381042,-0.001381042,0.001381042,-0.001381042,0.001381042,-0.001381042,0.001381042,-0.001249142,0.001249142,-0.001249142,0.001249142,-5.28E-14,4.78E-13,8.29E-13,1.07E-13,-0.001317558,0.001317558,-0.001381042,0.001381042,-0.001381042,0.001381042,-0.001381042,0.001381042,-0.001381042,0.001381042,-0.001249142,0.001249142,-0.001249142,0.001249142,-0.001249142,0.001249142,-0.001249142,0.001249142,-7.06E-12,7.35E-12,-0.001317558,0.001317558,-2.45E-13,4.75E-13,-0.001381042,0.001381042,-0.001381042,0.001381042,-0.001381042,0.001381042,-0.001381042,0.001381042,-0.001249142,0.001249142,-0.001249142,0.001249142,0.696659631,0.372448873,1368840,32768,0.005474582,0.005474582,0.005474582,33.88167553,33.87139767,0.000186253,0.000186253,0.000186253,806551.0491,0.01656029
13976046,0.990939878,0.015935178,0.005311726,0.005311726,0.005311726,-0.00131783,0.00131783,6.91E-12,-7.57E-12,-8.70E-14,-6.36E-13,-0.001381333,0.001381333,-0.001381333,0.001381333,-0.001381333,0.001381333,-0.001381333,0.001381333,-0.001249399,0.001249399,-0.001249399,0.001249399,4.24E-13,9.82E-13,1.36E-12,6.28E-13,-0.00131783,0.00131783,-0.001381333,0.001381333,-0.001381333,0.001381333,-0.001381333,0.001381333,-0.001381333,0.001381333,-0.001249399,0.001249399,-0.001249399,0.001249399,-0.001249399,0.001249399,-0.001249399,0.001249399,-7.14E-12,7.31E-12,-0.00131783,0.00131783,-3.09E-13,4.25E-13,-0.001381333,0.001381333,-0.001381333,0.001381333,-0.001381333,0.001381333,-0.001381333,0.001381333,-0.001249399,0.001249399,-0.001249399,0.001249399,0.696473111,0.376682408,1368840,32768,0.005475709,0.005475709,0.005475709,33.73046633,33.72019372,0.000185044,0.000185044,0.000185044,801510.5959,0.016563728
14062446,0.991358763,0.015941528,0.005313843,0.005313843,0.005313843,-0.001318074,0.001318074,6.91E-12,-7.47E-12,-7.23E-14,-6.43E-13,-0.001381594,0.001381594,-0.001381594,0.001381594,-0.001381594,0.001381594,-0.001381594,0.001381594,-0.001249628,0.001249628,-0.001249628,0.001249628,6.00E-13,1.18E-12,1.44E-12,8.18E-13,-0.001318074,0.001318074,-0.001381594,0.001381594,-0.001381594,0.001381594,-0.001381594,0.001381594,-0.001381594,0.001381594,-0.001249628,0.001249628,-0.001249628,0.001249628,-0.001249628,0.001249628,-0.001249628,0.001249628,-6.82E-12,7.53E-12,-0.001318074,0.001318074,4.94E-14,6.71E-13,-0.001381594,0.001381594,-0.001381594,0.001381594,-0.001381594,0.001381594,-0.001381594,0.001381594,-0.001249628,0.001249628,-0.001249628,0.001249628,0.696205444,0.379251919,1368840,32768,0.005476717,0.005476717,0.005476717,33.57925742,33.56898976,0.000183834,0.000183834,0.000183834,796596.7033,0.016566803
14148846,0.991755092,0.015947508,0.005315836,0.005315836,0.005315836,-0.001318272,0.001318272,6.94E-12,-7.42E-12,-1.71E-14,-5.94E-13,-0.001381817,0.001381817,-0.001381817,0.001381817,-0.001381817,0.001381817,-0.001381817,0.001381817,-0.001249806,0.001249806,-0.001249806,0.001249806,3.29E-13,9.19E-13,1.17E-12,6.42E-13,-0.001318272,0.001318272,-0.001381817,0.001381817,-0.001381817,0.001381817,-0.001381817,0.001381817,-0.001381817,0.001381817,-0.001249806,0.001249806,-0.001249806,0.001249806,-0.001249806,0.001249806,-0.001249806,0.001249806,-6.96E-12,7.37E-12,-0.001318272,0.001318272,-5.88E-14,4.65E-13,-0.001381817,0.001381817,-0.001381817,0.001381817,-0.001381817,0.001381817,-0.001381817,0.001381817,-0.001249806,0.001249806,-0.001249806,0.001249806,0.692974823,0.33507912,1368840,32768,0.005477539,0.005477539,0.005477539,33.42804868,33.41778581,0.000182624,0.000182624,0.000182624,792380.1271,0.016569311
14235246,0.992130217,0.015953141,0.005317714,0.005317714,0.005317714,-0.001317997,0.001317997,6.94E-12,-7.41E-12,3.40E-14,-5.48E-13,-0.001381793,0.001381793,-0.001381793,0.001381793,-0.001381793,0.001381793,-0.001381793,0.001381793,-0.001249303,0.001249303,-0.001249303,0.001249303,2.87E-13,8.82E-13,1.14E-12,5.86E-13,-0.001317997,0.001317997,-0.001381793,0.001381793,-0.001381793,0.001381793,-0.001381793,0.001381793,-0.001381793,0.001381793,-0.001249303,0.001249303,-0.001249303,0.001249303,-0.001249303,0.001249303,-0.001249303,0.001249303,-6.91E-12,7.41E-12,-0.001317997,0.001317997,-2.44E-14,5.25E-13,-0.001381793,0.001381793,-0.001381793,0.001381793,-0.001381793,0.001381793,-0.001381793,0.001381793,-0.001249303,0.001249303,-0.001249303,0.001249303,0.689560638,0.290906321,1368840,32768,0.005476398,0.005476398,0.005476398,33.27683994,33.26658185,0.000181415,0.000181415,0.000181415,803315.1958,0.016565833
14321646,0.992483938,0.015958456,0.005319485,0.005319485,0.005319485,-0.001317529,0.001317529,6.88E-12,-7.38E-12,2.94E-14,-5.35E-13,-0.001381589,0.001381589,-0.001381589,0.001381589,-0.001381589,0.001381589,-0.001381589,0.001381589,-0.001248599,0.001248599,-0.001248599,0.001248599,3.11E-13,8.84E-13,1.17E-12,5.68E-13,-0.001317529,0.001317529,-0.001381589,0.001381589,-0.001381589,0.001381589,-0.001381589,0.001381589,-0.001381589,0.001381589,-0.001248599,0.001248599,-0.001248599,0.001248599,-0.001248599,0.001248599,-0.001248599,0.001248599,-6.87E-12,7.36E-12,-0.001317529,0.001317529,-6.66E-14,5.32E-13,-0.001381589,0.001381589,-0.001381589,0.001381589,-0.001381589,0.001381589,-0.001381589,0.001381589,-0.001248599,0.001248599,-0.001248599,0.001248599,0.689989487,0.30884249,1368840,32768,0.005474458,0.005474458,0.005474458,33.0508097,33.03566184,0.000179606,0.000179606,0.000179606,815203.9369,0.016559921
14408046,0.992815386,0.015963444,0.005321148,0.005321148,0.005321148,-0.001317411,0.001317411,6.84E-12,-7.41E-12,8.88E-14,-6.25E-13,-0.00138142,0.00138142,-0.00138142,0.00138142,-0.00138142,0.00138142,-0.00138142,0.00138142,-0.001248532,0.001248532,-0.001248532,0.001248532,2.72E-13,9.96E-13,1.19E-12,5.65E-13,-0.001317411,0.001317411,-0.00138142,0.00138142,-0.00138142,0.00138142,-0.00138142,0.00138142,-0.00138142,0.00138142,-0.001248532,0.001248532,-0.001248532,0.001248532,-0.001248532,0.001248532,-0.001248532,0.001248532,-6.87E-12,7.35E-12,-0.001317411,0.001317411,-8.24E-14,5.40E-13,-0.00138142,0.00138142,-0.00138142,0.00138142,-0.00138142,0.00138142,-0.00138142,0.00138142,-0.001248532,0.001248532,-0.001248532,0.001248532,0.691221103,0.338071058,1368840,32768,0.005473971,0.005473971,0.005473971,32.70108638,32.67770216,0.000176809,0.000176809,0.000176809,806484.7239,0.016558435
14494446,0.993126085,0.015968121,0.005322707,0.005322707,0.005322707,-0.001317365,0.001317365,6.66E-12,-7.77E-12,-1.90E-13,-7.20E-13,-0.001381268,0.001381268,-0.001381268,0.001381268,-0.001381268,0.001381268,-0.001381268,0.001381268,-0.001248586,0.001248586,-0.001248586,0.001248586,4.18E-13,9.73E-13,1.26E-12,7.00E-13,-0.001317365,0.001317365,-0.001381268,0.001381268,-0.001381268,0.001381268,-0.001381268,0.001381268,-0.001381268,0.001381268,-0.001248586,0.001248586,-0.001248586,0.001248586,-0.001248586,0.001248586,-0.001248586,0.001248586,-6.63E-12,7.77E-12,-0.001317365,0.001317365,2.88E-13,8.56E-13,-0.001381268,0.001381268,-0.001381268,0.001381268,-0.001381268,0.001381268,-0.001381268,0.001381268,-0.001248586,0.001248586,-0.001248586,0.001248586,0.691388487,0.348476162,1368840,32768,0.005473779,0.005473779,0.005473779,32.34387208,32.31974249,0.000173951,0.000173951,0.000173951,794262.0706,0.016557848
14580846,0.993417563,0.015972511,0.00532417,0.00532417,0.00532417,-0.001317111,0.001317111,7.16E-12,-7.26E-12,2.85E-13,-2.64E-13,-0.001380987,0.001380987,-0.001380987,0.001380987,-0.001380987,0.001380987,-0.001380987,0.001380987,-0.001248357,0.001248357,-0.001248357,0.001248357,4.05E-13,9.68E-13,1.17E-12,4.89E-13,-0.001317111,0.001317111,-0.001380987,0.001380987,-0.001380987,0.001380987,-0.001380987,0.001380987,-0.001380987,0.001380987,-0.001248357,0.001248357,-0.001248357,0.001248357,-0.001248357,0.001248357,-0.001248357,0.001248357,-6.89E-12,7.51E-12,-0.001317111,0.001317111,-7.44E-14,6.19E-13,-0.001380987,0.001380987,-0.001380987,0.001380987,-0.001380987,0.001380987,-0.001380987,0.001380987,-0.001248357,0.001248357,-0.001248357,0.001248357,0.691604422,0.358881266,1368840,32768,0.005472726,0.005472726,0.005472726,31.98596194,31.96178281,0.000171088,0.000171088,0.000171088,788092.7959,0.016554638
14667246,0.993691227,0.015976635,0.005325545,0.005325545,0.005325545,-0.001316836,0.001316836,6.92E-12,-7.58E-12,2.27E-13,-4.83E-13,-0.001380688,0.001380688,-0.001380688,0.001380688,-0.001380688,0.001380688,-0.001380688,0.001380688,-0.001248106,0.001248106,-0.001248106,0.001248106,3.36E-13,1.05E-12,1.21E-12,5.14E-13,-0.001316836,0.001316836,-0.001380688,0.001380688,-0.001380688,0.001380688,-0.001380688,0.001380688,-0.001380688,0.001380688,-0.001248106,0.001248106,-0.001248106,0.001248106,-0.001248106,0.001248106,-0.001248106,0.001248106,-6.84E-12,7.62E-12,-0.001316836,0.001316836,1.03E-13,7.88E-13,-0.001380688,0.001380688,-0.001380688,0.001380688,-0.001380688,0.001380688,-0.001380688,0.001380688,-0.001248106,0.001248106,-0.001248106,0.001248106,0.691865069,0.36928637,1368840,32768,0.005471586,0.005471586,0.005471586,31.62798257,31.60382313,0.000168224,0.000168224,0.000168224,782084.6096,0.016551162
14753646,0.993948368,0.015980512,0.005326837,0.005326837,0.005326837,-0.001316541,0.001316541,6.75E-12,-7.72E-12,1.41E-13,-8.56E-13,-0.001380368,0.001380368,-0.001380368,0.001380368,-0.001380368,0.001380368,-0.001380368,0.001380368,-0.001247836,0.001247836,-0.001247836,0.001247836,-1.05E-13,9.00E-13,1.03E-12,2.38E-13,-0.001316541,0.001316541,-0.001380368,0.001380368,-0.001380368,0.001380368,-0.001380368,0.001380368,-0.001380368,0.001380368,-0.001247836,0.001247836,-0.001247836,0.001247836,-0.001247836,0.001247836,-0.001247836,0.001247836,-6.60E-12,7.82E-12,-0.001316541,0.001316541,1.02E-13,8.91E-13,-0.001380368,0.001380368,-0.001380368,0.001380368,-0.001380368,0.001380368,-0.001380368,0.001380368,-0.001247836,0.001247836,-0.001247836,0.001247836,0.692167084,0.379691474,1368840,32768,0.005470365,0.005470365,0.005470365,31.26999619,31.24586345,0.00016536,0.00016536,0.00016536,776182.3168,0.016547437
14840046,0.994190172,0.015984159,0.005328053,0.005328053,0.005328053,-0.001316228,0.001316228,6.75E-12,-7.51E-12,2.56E-13,-8.92E-13,-0.001380029,0.001380029,-0.001380029,0.001380029,-0.001380029,0.001380029,-0.001380029,0.001380029,-0.001247549,0.001247549,-0.001247549,0.001247549,-3.39E-14,1.12E-12,1.25E-12,3.05E-13,-0.001316228,0.001316228,-0.001380029,0.001380029,-0.001380029,0.001380029,-0.001380029,0.001380029,-0.001380029,0.001380029,-0.001247549,0.001247549,-0.001247549,0.001247549,-0.001247549,0.001247549,-0.001247549,0.001247549,-6.49E-12,7.74E-12,-0.001316228,0.001316228,1.52E-13,1.10E-12,-0.001380029,0.001380029,-0.001380029,0.001380029,-0.001380029,0.001380029,-0.001380029,0.001380029,-0.001247549,0.001247549,-0.001247549,0.001247549,0.69250753,0.390096578,1368840,32768,0.005469068,0.005469068,0.005469068,30.91200912,30.88790377,0.000162496,0.000162496,0.000162496,770376.6081,0.016543482
14926446,0.994417608,0.015987592,0.005329197,0.005329197,0.005329197,-0.00131588,0.00131588,6.96E-12,-7.12E-12,6.04E-13,-7.66E-13,-0.001379653,0.001379653,-0.001379653,0.001379653,-0.001379653,0.001379653,-0.001379653,0.001379653,-0.001247227,0.001247227,-0.001247227,0.001247227,3.52E-13,1.75E-12,1.75E-12,9.03E-13,-0.00131588,0.00131588,-0.001379653,0.001379653,-0.001379653,0.001379653,-0.001379653,0.001379653,-0.001379653,0.001379653,-0.001247227,0.001247227,-0.001247227,0.001247227,-0.001247227,0.001247227,-0.001247227,0.001247227,-6.62E-12,7.42E-12,-0.00131588,0.00131588,-4.70E-14,8.05E-13,-0.001379653,0.001379653,-0.001379653,0.001379653,-0.001379653,0.001379653,-0.001379653,0.001379653,-0.001247227,0.001247227,-0.001247227,0.001247227,0.692883926,0.400501682,1368840,32768,0.005467624,0.005467624,0.005467624,30.54462545,30.51993795,0.000159557,0.000159557,0.000159557,764670.7764,0.016539079
15012846,0.994628946,0.015990779,0.00533026,0.00533026,0.00533026,-0.001315071,0.001315071,6.70E-12,-7.38E-12,3.52E-13,-1.01E-12,-0.001378823,0.001378823,-0.001378823,0.001378823,-0.001378823,0.001378823,-0.001378823,0.001378823,-0.00124644,0.00124644,-0.00124644,0.00124644,2.45E-14,1.40E-12,1.42E-12,5.67E-13,-0.001315071,0.001315071,-0.001378823,0.001378823,-0.001378823,0.001378823,-0.001378823,0.001378823,-0.001378823,0.001378823,-0.00124644,0.00124644,-0.00124644,0.00124644,-0.00124644,0.00124644,-0.00124644,0.00124644,-6.72E-12,7.33E-12,-0.001315071,0.001315071,-1.30E-13,7.18E-13,-0.001378823,0.001378823,-0.001378823,0.001378823,-0.001378823,0.001378823,-0.001378823,0.001378823,-0.00124644,0.00124644,-0.00124644,0.00124644,0.69197267,0.389468521,1368840,32768,0.005464273,0.005464273,0.005464273,29.94890103,29.9094352,0.000154791,0.000154791,0.000154791,759266.3231,0.016528859
15099246,0.994825402,0.015993724,0.005331241,0.005331241,0.005331241,-0.001314021,0.001314021,6.73E-12,-7.61E-12,2.23E-13,-9.90E-13,-0.001377838,0.001377838,-0.001377838,0.001377838,-0.001377838,0.001377838,-0.001377838,0.001377838,-0.001245332,0.001245332,-0.001245332,0.001245332,-8.39E-14,1.14E-12,8.74E-13,7.37E-13,-0.001314021,0.001314021,-0.001377838,0.001377838,-0.001377838,0.001377838,-0.001377838,0.001377838,-0.001377838,0.001377838,-0.001245332,0.001245332,-0.001245332,0.001245332,-0.001245332,0.001245332,-0.001245332,0.001245332,-7.00E-12,7.31E-12,-0.001314021,0.001314021,2.45E-14,1.62E-13,-0.001377838,0.001377838,-0.001377838,0.001377838,-0.001377838,0.001377838,-0.001377838,0.001377838,-0.001245332,0.001245332,-0.001245332,0.001245332,0.687909288,0.329153669,1368840,32768,0.005459923,0.005459923,0.005459923,29.33969345,29.29893246,0.000149918,0.000149918,0.000149918,760059.7877,0.016515594
15185646,0.995008219,0.01599643,0.005332143,0.005332143,0.005332143,-0.001312484,0.001312484,6.82E-12,-7.63E-12,1.93E-13,-7.79E-13,-0.001376604,0.001376604,-0.001376604,0.001376604,-0.001376604,0.001376604,-0.001376604,0.001376604,-0.001243519,0.001243519,-0.001243519,0.001243519,2.27E-13,1.21E-12,1.01E-12,8.97E-13,-0.001312484,0.001312484,-0.001376604,0.001376604,-0.001376604,0.001376604,-0.001376604,0.001376604,-0.001376604,0.001376604,-0.001243519,0.001243519,-0.001243519,0.001243519,-0.001243519,0.001243519,-0.001243519,0.001243519,-6.97E-12,7.45E-12,-0.001312484,0.001312484,1.59E-13,2.67E-13,-0.001376604,0.001376604,-0.001376604,0.001376604,-0.001376604,0.001376604,-0.001376604,0.001376604,-0.001243519,0.001243519,-0.001243519,0.001243519,0.679424333,0.203923115,1368840,32768,0.005453551,0.005453551,0.005453551,28.72924784,28.68842971,0.000145034,0.000145034,0.000145034,776373.9177,0.016496166
15272046,0.995178529,0.015998996,0.005332999,0.005332999,0.005332999,-0.001310211,0.001310211,6.84E-12,-7.59E-12,1.59E-13,-5.97E-13,-0.001375004,0.001375004,-0.001375004,0.001375004,-0.001375004,0.001375004,-0.001375004,0.001375004,-0.001240638,0.001240638,-0.001240638,0.001240638,-2.36E-15,7.65E-13,7.07E-13,9.14E-13,-0.001310211,0.001310211,-0.001375004,0.001375004,-0.001375004,0.001375004,-0.001375004,0.001375004,-0.001375004,0.001375004,-0.001240638,0.001240638,-0.001240638,0.001240638,-0.001240638,0.001240638,-0.001240638,0.001240638,-7.28E-12,7.11E-12,-0.001310211,0.001310211,-9.69E-15,-2.14E-13,-0.001375004,0.001375004,-0.001375004,0.001375004,-0.001375004,0.001375004,-0.001375004,0.001375004,-0.001240638,0.001240638,-0.001240638,0.001240638,0.69144085,0.415224297,1368840,32768,0.005444132,0.005444132,0.005444132,28.11867796,28.07792697,0.000140149,0.000140149,0.000140149,816891.7333,0.016467449
15358446,0.995337357,0.016001412,0.005333804,0.005333804,0.005333804,-0.001311273,0.001311273,6.84E-12,-7.72E-12,1.86E-13,-8.36E-13,-0.001375063,0.001375063,-0.001375063,0.001375063,-0.001375063,0.001375063,-0.001375063,0.001375063,-0.001242624,0.001242624,-0.001242624,0.001242624,2.76E-13,1.31E-12,9.49E-13,1.17E-12,-0.001311273,0.001311273,-0.001375063,0.001375063,-0.001375063,0.001375063,-0.001375063,0.001375063,-0.001375063,0.001375063,-0.001242624,0.001242624,-0.001242624,0.001242624,-0.001242624,0.001242624,-0.001242624,0.001242624,-7.26E-12,7.26E-12,-0.001311273,0.001311273,1.05E-13,-1.14E-13,-0.001375063,0.001375063,-0.001375063,0.001375063,-0.001375063,0.001375063,-0.001375063,0.001375063,-0.001242624,0.001242624,-0.001242624,0.001242624,0.69896071,0.548808347,1368840,32768,0.005448533,0.005448533,0.005448533,27.50809552,27.46742422,0.000135265,0.000135265,0.000135265,747567.1838,0.016480862
15444846,0.995485629,0.016003686,0.005334562,0.005334562,0.005334562,-0.001311384,0.001311384,6.97E-12,-7.54E-12,3.91E-13,-6.74E-13,-0.001374613,0.001374613,-0.001374613,0.001374613,-0.001374613,0.001374613,-0.001374613,0.001374613,-0.001243248,0.001243248,-0.001243248,0.001243248,1.99E-13,1.28E-12,5.75E-13,1.23E-12,-0.001311384,0.001311384,-0.001374613,0.001374613,-0.001374613,0.001374613,-0.001374613,0.001374613,-0.001374613,0.001374613,-0.001243248,0.001243248,-0.001243248,0.001243248,-0.001243248,0.001243248,-0.001243248,0.001243248,-7.30E-12,7.18E-12,-0.001311384,0.001311384,3.75E-13,-2.80E-13,-0.001374613,0.001374613,-0.001374613,0.001374613,-0.001374613,0.001374613,-0.001374613,0.001374613,-0.001243248,0.001243248,-0.001243248,0.001243248,0.703825089,0.630485639,1368840,32768,0.005448998,0.005448998,0.005448998,26.89751202,26.85692147,0.00013038,0.00013038,0.00013038,709393.3404,0.016482274
15531246,0.995624183,0.016005818,0.005335273,0.005335273,0.005335273,-0.001310999,0.001310999,7.05E-12,-7.61E-12,1.54E-13,-6.92E-13,-0.001373908,0.001373908,-0.001373908,0.001373908,-0.001373908,0.001373908,-0.001373908,0.001373908,-0.001243151,0.001243151,-0.001243151,0.001243151,2.05E-13,1.06E-12,4.82E-13,1.25E-12,-0.001310999,0.001310999,-0.001373908,0.001373908,-0.001373908,0.001373908,-0.001373908,0.001373908,-0.001373908,0.001373908,-0.001243151,0.001243151,-0.001243151,0.001243151,-0.001243151,0.001243151,-0.001243151,0.001243151,-7.31E-12,7.32E-12,-0.001310999,0.001310999,4.06E-13,-3.55E-13,-0.001373908,0.001373908,-0.001373908,0.001373908,-0.001373908,0.001373908,-0.001373908,0.001373908,-0.001243151,0.001243151,-0.001243151,0.001243151,0.70555614,0.64840598,1368840,32768,0.005447403,0.005447403,0.005447403,26.28692945,26.24641873,0.000125495,0.000125495,0.000125495,687034.0585,0.016477407
15617646,0.995755969,0.01600785,0.00533595,0.00533595,0.00533595,-0.001310675,0.001310675,7.09E-12,-7.77E-12,2.31E-13,-8.79E-13,-0.00137351,0.00137351,-0.00137351,0.00137351,-0.00137351,0.00137351,-0.00137351,0.00137351,-0.001242889,0.001242889,-0.001242889,0.001242889,1.26E-13,1.25E-12,5.17E-13,1.34E-12,-0.001310675,0.001310675,-0.00137351,0.00137351,-0.00137351,0.00137351,-0.00137351,0.00137351,-0.00137351,0.00137351,-0.001242889,0.001242889,-0.001242889,0.001242889,-0.001242889,0.001242889,-0.001242889,0.001242889,-7.38E-12,7.44E-12,-0.001310675,0.001310675,4.24E-13,-4.00E-13,-0.00137351,0.00137351,-0.00137351,0.00137351,-0.00137351,0.00137351,-0.00137351,0.00137351,-0.001242889,0.001242889,-0.001242889,0.001242889,0.707337388,0.666326321,1368840,32768,0.005446059,0.005446059,0.005446059,25.96198051,25.93980365,0.000122896,0.000122896,0.000122896,679921.4096,0.01647331
15704046,0.995882441,0.01600982,0.005336607,0.005336607,0.005336607,-0.001310619,0.001310619,7.06E-12,-7.78E-12,2.17E-13,-8.68E-13,-0.001373384,0.001373384,-0.001373384,0.001373384,-0.001373384,0.001373384,-0.001373384,0.001373384,-0.001242891,0.001242891,-0.001242891,0.001242891,9.50E-14,1.19E-12,5.32E-13,1.33E-12,-0.001310619,0.001310619,-0.001373384,0.001373384,-0.001373384,0.001373384,-0.001373384,0.001373384,-0.001373384,0.001373384,-0.001242891,0.001242891,-0.001242891,0.001242891,-0.001242891,0.001242891,-0.001242891,0.001242891,-7.29E-12,7.52E-12,-0.001310619,0.001310619,4.60E-13,-3.39E-13,-0.001373384,0.001373384,-0.001373384,0.001373384,-0.001373384,0.001373384,-0.001373384,0.001373384,-0.001242891,0.001242891,-0.001242891,0.001242891,0.714067189,0.770229652,1368840,32768,0.005445827,0.005445827,0.005445827,25.77979565,25.76737738,0.000121438,0.000121438,0.000121438,673003.0825,0.016472602
15790446,0.996003912,0.016011731,0.005337244,0.005337244,0.005337244,-0.001311151,0.001311151,7.15E-12,-7.77E-12,2.17E-13,-8.02E-13,-0.001373562,0.001373562,-0.001373562,0.001373562,-0.001373562,0.001373562,-0.001373562,0.001373562,-0.00124374,0.00124374,-0.00124374,0.00124374,2.14E-13,1.24E-12,5.82E-13,1.33E-12,-0.001311151,0.001311151,-0.001373562,0.001373562,-0.001373562,0.001373562,-0.001373562,0.001373562,-0.001373562,0.001373562,-0.00124374,0.00124374,-0.00124374,0.00124374,-0.00124374,0.00124374,-0.00124374,0.00124374,-7.43E-12,7.45E-12,-0.001311151,0.001311151,3.70E-13,-3.75E-13,-0.001373562,0.001373562,-0.001373562,0.001373562,-0.001373562,0.001373562,-0.001373562,0.001373562,-0.00124374,0.00124374,-0.00124374,0.00124374,0.721551602,0.84655146,1368840,32768,0.005448033,0.005448033,0.005448033,25.60645914,25.59495112,0.000120052,0.000120052,0.000120052,648267.9014,0.016479326
15876846,0.996120622,0.016013576,0.005337859,0.005337859,0.005337859,-0.001311474,0.001311474,7.30E-12,-7.88E-12,1.28E-13,-7.17E-13,-0.001373622,0.001373622,-0.001373622,0.001373622,-0.001373622,0.001373622,-0.001373622,0.001373622,-0.001244278,0.001244278,-0.001244278,0.001244278,2.07E-13,1.06E-12,6.28E-13,1.19E-12,-0.001311474,0.001311474,-0.001373622,0.001373622,-0.001373622,0.001373622,-0.001373622,0.001373622,-0.001373622,0.001373622,-0.001244278,0.001244278,-0.001244278,0.001244278,-0.001244278,0.001244278,-0.001244278,0.001244278,-7.53E-12,7.62E-12,-0.001311474,0.001311474,3.25E-13,-2.32E-13,-0.001373622,0.001373622,-0.001373622,0.001373622,-0.001373622,0.001373622,-0.001373622,0.001373622,-0.001244278,0.001244278,-0.001244278,0.001244278,0.72462081,0.830206747,1368840,32768,0.00544937,0.00544937,0.00544937,25.43393834,25.42252485,0.000118672,0.000118672,0.000118672,629241.2183,0.016483402
15963246,0.996232788,0.016015355,0.005338452,0.005338452,0.005338452,-0.001311218,0.001311218,7.19E-12,-8.00E-12,1.15E-13,-8.53E-13,-0.001373392,0.001373392,-0.001373392,0.001373392,-0.001373392,0.001373392,-0.001373392,0.001373392,-0.001243973,0.001243973,-0.001243973,0.001243973,1.34E-13,1.11E-12,6.73E-13,1.20E-12,-0.001311218,0.001311218,-0.001373392,0.001373392,-0.001373392,0.001373392,-0.001373392,0.001373392,-0.001373392,0.001373392,-0.001243973,0.001243973,-0.001243973,0.001243973,-0.001243973,0.001243973,-0.001243973,0.001243973,-7.53E-12,7.63E-12,-0.001311218,0.001311218,2.70E-13,-2.50E-13,-0.001373392,0.001373392,-0.001373392,0.001373392,-0.001373392,0.001373392,-0.001373392,0.001373392,-0.001243973,0.001243973,-0.001243973,0.001243973,0.726782133,0.813862035,1368840,32768,0.00544831,0.00544831,0.00544831,25.26149721,25.25009858,0.000117292,0.000117292,0.000117292,627797.584,0.01648017
16049646,0.996340618,0.016017068,0.005339023,0.005339023,0.005339023,-0.001310949,0.001310949,7.30E-12,-7.88E-12,1.95E-13,-8.39E-13,-0.001373154,0.001373154,-0.001373154,0.001373154,-0.001373154,0.001373154,-0.001373154,0.001373154,-0.001243657,0.001243657,-0.001243657,0.001243657,1.20E-13,1.17E-12,6.87E-13,1.19E-12,-0.001310949,0.001310949,-0.001373154,0.001373154,-0.001373154,0.001373154,-0.001373154,0.001373154,-0.001373154,0.001373154,-0.001243657,0.001243657,-0.001243657,0.001243657,-0.001243657,0.001243657,-0.001243657,0.001243657,-7.49E-12,7.66E-12,-0.001310949,0.001310949,2.94E-13,-2.02E-13,-0.001373154,0.001373154,-0.001373154,0.001373154,-0.001373154,0.001373154,-0.001373154,0.001373154,-0.001243657,0.001243657,-0.001243657,0.001243657,0.728228346,0.797517323,1368840,32768,0.005447194,0.005447194,0.005447194,25.08906399,25.07767231,0.000115913,0.000115913,0.000115913,627001.7014,0.016476768
16136046,0.996444309,0.016018718,0.005339573,0.005339573,0.005339573,-0.001310667,0.001310667,7.34E-12,-7.91E-12,1.74E-13,-7.65E-13,-0.00137291,0.00137291,-0.00137291,0.00137291,-0.00137291,0.00137291,-0.00137291,0.00137291,-0.001243329,0.001243329,-0.001243329,0.001243329,2.38E-13,1.19E-12,7.11E-13,1.24E-12,-0.001310667,0.001310667,-0.00137291,0.00137291,-0.00137291,0.00137291,-0.00137291,0.00137291,-0.00137291,0.00137291,-0.001243329,0.001243329,-0.001243329,0.001243329,-0.001243329,0.001243329,-0.001243329,0.001243329,-7.57E-12,7.65E-12,-0.001310667,0.001310667,3.02E-13,-2.20E-13,-0.00137291,0.00137291,-0.00137291,0.00137291,-0.00137291,0.00137291,-0.00137291,0.00137291,-0.001243329,0.001243329,-0.001243329,0.001243329,0.72910706,0.781172611,1368840,32768,0.005446027,0.005446027,0.005446027,24.91663157,24.90524604,0.000114533,0.000114533,0.000114533,626720.0615,0.016473213
16222446,0.996544048,0.016020306,0.005340102,0.005340102,0.005340102,-0.001310375,0.001310375,7.25E-12,-8.06E-12,1.63E-14,-8.79E-13,-0.00137266,0.00137266,-0.00137266,0.00137266,-0.00137266,0.00137266,-0.00137266,0.00137266,-0.001242989,0.001242989,-0.001242989,0.001242989,1.68E-13,1.07E-12,6.97E-13,1.21E-12,-0.001310375,0.001310375,-0.00137266,0.00137266,-0.00137266,0.00137266,-0.00137266,0.00137266,-0.00137266,0.00137266,-0.001242989,0.001242989,-0.001242989,0.001242989,-0.001242989,0.001242989,-0.001242989,0.001242989,-7.64E-12,7.64E-12,-0.001310375,0.001310375,2.81E-13,-2.27E-13,-0.00137266,0.00137266,-0.00137266,0.00137266,-0.00137266,0.00137266,-0.00137266,0.00137266,-0.001242989,0.001242989,-0.001242989,0.001242989,0.729533209,0.764827898,1368840,32768,0.005444816,0.005444816,0.005444816,24.74419925,24.73281977,0.000113154,0.000113154,0.000113154,626853.3432,0.016469519
16308846,0.996640012,0.016021834,0.005340611,0.005340611,0.005340611,-0.001310073,0.001310073,7.26E-12,-8.03E-12,6.42E-14,-8.54E-13,-0.001372404,0.001372404,-0.001372404,0.001372404,-0.001372404,0.001372404,-0.001372404,0.001372404,-0.001242638,0.001242638,-0.001242638,0.001242638,1.85E-13,1.12E-12,6.45E-13,1.22E-12,-0.001310073,0.001310073,-0.001372404,0.001372404,-0.001372404,0.001372404,-0.001372404,0.001372404,-0.001372404,0.001372404,-0.001242638,0.001242638,-0.001242638,0.001242638,-0.001242638,0.001242638,-0.001242638,0.001242638,-7.59E-12,7.68E-12,-0.001310073,0.001310073,3.15E-13,-2.62E-13,-0.001372404,0.001372404,-0.001372404,0.001372404,-0.001372404,0.001372404,-0.001372404,0.001372404,-0.001242638,0.001242638,-0.001242638,0.001242638,0.729597824,0.748483186,1368840,32768,0.005443563,0.005443563,0.005443563,24.57176693,24.56039351,0.000111774,0.000111774,0.000111774,627348.6515,0.0164657
16395246,0.996732603,0.016023311,0.005341104,0.005341104,0.005341104,-0.001309845,0.001309845,7.35E-12,-7.97E-12,1.22E-13,-7.29E-13,-0.001372225,0.001372225,-0.001372225,0.001372225,-0.001372225,0.001372225,-0.001372225,0.001372225,-0.00124236,0.00124236,-0.00124236,0.00124236,2.03E-13,1.06E-12,6.21E-13,1.17E-12,-0.001309845,0.001309845,-0.001372225,0.001372225,-0.001372225,0.001372225,-0.001372225,0.001372225,-0.001372225,0.001372225,-0.00124236,0.00124236,-0.00124236,0.00124236,-0.00124236,0.00124236,-0.00124236,0.00124236,-7.62E-12,7.68E-12,-0.001309845,0.001309845,3.12E-13,-2.38E-13,-0.001372225,0.001372225,-0.001372225,0.001372225,-0.001372225,0.001372225,-0.001372225,0.001372225,-0.00124236,0.00124236,-0.00124236,0.00124236,0.731132473,0.759956675,1368840,32768,0.005442617,0.005442617,0.005442617,24.44215006,24.43350952,0.000110737,0.000110737,0.000110737,628102.5443,0.016462817
16481646,0.996822063,0.016024729,0.005341576,0.005341576,0.005341576,-0.001309824,0.001309824,7.44E-12,-8.09E-12,6.34E-14,-7.48E-13,-0.001372167,0.001372167,-0.001372167,0.001372167,-0.001372167,0.001372167,-0.001372167,0.001372167,-0.001242368,0.001242368,-0.001242368,0.001242368,1.88E-13,1.01E-12,5.62E-13,1.15E-12,-0.001309824,0.001309824,-0.001372167,0.001372167,-0.001372167,0.001372167,-0.001372167,0.001372167,-0.001372167,0.001372167,-0.001242368,0.001242368,-0.001242368,0.001242368,-0.001242368,0.001242368,-0.001242368,0.001242368,-7.70E-12,7.80E-12,-0.001309824,0.001309824,3.75E-13,-2.07E-13,-0.001372167,0.001372167,-0.001372167,0.001372167,-0.001372167,0.001372167,-0.001372167,0.001372167,-0.001242368,0.001242368,-0.001242368,0.001242368,0.726365449,0.670669458,1368840,32768,0.005442532,0.005442532,0.005442532,24.3320552,24.32475021,0.000109856,0.000109856,0.000109856,623582.8932,0.016462556
16568046,0.996908518,0.016026122,0.005342041,0.005342041,0.005342041,-0.001309147,0.001309147,7.49E-12,-8.09E-12,1.23E-13,-7.34E-13,-0.00137178,0.00137178,-0.00137178,0.00137178,-0.00137178,0.00137178,-0.00137178,0.00137178,-0.001241426,0.001241426,-0.001241426,0.001241426,2.14E-13,1.08E-12,6.17E-13,1.21E-12,-0.001309147,0.001309147,-0.00137178,0.00137178,-0.00137178,0.00137178,-0.00137178,0.00137178,-0.00137178,0.00137178,-0.001241426,0.001241426,-0.001241426,0.001241426,-0.001241426,0.001241426,-0.001241426,0.001241426,-7.73E-12,7.82E-12,-0.001309147,0.001309147,3.24E-13,-2.69E-13,-0.00137178,0.00137178,-0.00137178,0.00137178,-0.00137178,0.00137178,-0.00137178,0.00137178,-0.001241426,0.001241426,-0.001241426,0.001241426,0.738406575,0.892468776,1368840,32768,0.005439723,0.005439723,0.005439723,24.22316695,24.21599089,0.000108985,0.000108985,0.000108985,639447.3347,0.016453995
16654446,0.996992085,0.01602748,0.005342493,0.005342493,0.005342493,-0.001310409,0.001310408,7.54E-12,-8.10E-12,1.05E-13,-7.05E-13,-0.001372367,0.001372367,-0.001372367,0.001372367,-0.001372367,0.001372367,-0.001372367,0.001372367,-0.001243302,0.001243302,-0.001243302,0.001243302,2.33E-13,1.05E-12,6.64E-13,1.15E-12,-0.001310408,0.001310409,-0.001372367,0.001372367,-0.001372367,0.001372367,-0.001372367,0.001372367,-0.001372367,0.001372367,-0.001243302,0.001243302,-0.001243302,0.001243302,-0.001243302,0.001243302,-0.001243302,0.001243302,-7.75E-12,7.86E-12,-0.001310408,0.001310408,3.03E-13,-1.83E-13,-0.001372367,0.001372367,-0.001372367,0.001372367,-0.001372367,0.001372367,-0.001372367,0.001372367,-0.001243302,0.001243302,-0.001243302,0.001243302,0.744434467,0.933914083,1368840,32768,0.005444955,0.005444955,0.005444955,24.11439141,24.10723158,0.000108115,0.000108115,0.000108115,596079.6648,0.016469942
16740846,0.997072873,0.016028798,0.005342933,0.005342933,0.005342933,-0.001310564,0.001310564,7.54E-12,-8.10E-12,1.56E-13,-7.00E-13,-0.001372386,0.001372386,-0.001372386,0.001372386,-0.001372386,0.001372386,-0.001372386,0.001372386,-0.001243563,0.001243563,-0.001243563,0.001243563,1.99E-13,1.07E-12,6.71E-13,1.12E-12,-0.001310564,0.001310564,-0.001372386,0.001372386,-0.001372386,0.001372386,-0.001372386,0.001372386,-0.001372386,0.001372386,-0.001243563,0.001243563,-0.001243563,0.001243563,-0.001243563,0.001243563,-0.001243563,0.001243563,-7.74E-12,7.87E-12,-0.001310564,0.001310564,3.03E-13,-1.43E-13,-0.001372386,0.001372386,-0.001372386,0.001372386,-0.001372386,0.001372386,-0.001372386,0.001372386,-0.001243563,0.001243563,-0.001243563,0.001243563,0.747764242,0.918737991,1368840,32768,0.005445598,0.005445598,0.005445598,24.00562785,23.99847227,0.000107245,0.000107245,0.000107245,585348.745,0.016471901
16827246,0.997150989,0.016030078,0.005343359,0.005343359,0.005343359,-0.001310403,0.001310403,7.53E-12,-8.10E-12,1.33E-13,-7.37E-13,-0.001372243,0.001372243,-0.001372243,0.001372243,-0.001372243,0.001372243,-0.001372243,0.001372243,-0.00124337,0.00124337,-0.00124337,0.00124337,1.98E-13,1.08E-12,7.87E-13,1.05E-12,-0.001310403,0.001310403,-0.001372243,0.001372243,-0.001372243,0.001372243,-0.001372243,0.001372243,-0.001372243,0.001372243,-0.00124337,0.00124337,-0.00124337,0.00124337,-0.00124337,0.00124337,-0.00124337,0.00124337,-7.69E-12,7.91E-12,-0.001310403,0.001310403,2.44E-13,-2.18E-14,-0.001372243,0.001372243,-0.001372243,0.001372243,-0.001372243,0.001372243,-0.001372243,0.001372243,-0.00124337,0.00124337,-0.00124337,0.00124337,0.750333308,0.903561899,1368840,32768,0.005444934,0.005444934,0.005444934,23.89686557,23.88971295,0.000106375,0.000106375,0.000106375,583950.1791,0.016469878
16913646,0.997226534,0.016031319,0.005343773,0.005343773,0.005343773,-0.001310233,0.001310233,7.53E-12,-8.07E-12,1.39E-13,-7.28E-13,-0.001372095,0.001372095,-0.001372095,0.001372095,-0.001372095,0.001372095,-0.001372095,0.001372095,-0.001243164,0.001243164,-0.001243164,0.001243164,2.48E-13,1.13E-12,8.29E-13,1.03E-12,-0.001310233,0.001310233,-0.001372095,0.001372095,-0.001372095,0.001372095,-0.001372095,0.001372095,-0.001372095,0.001372095,-0.001243164,0.001243164,-0.001243164,0.001243164,-0.001243164,0.001243164,-0.001243164,0.001243164,-7.69E-12,7.88E-12,-0.001310233,0.001310233,2.09E-13,8.82E-15,-0.001372095,0.001372095,-0.001372095,0.001372095,-0.001372095,0.001372095,-0.001372095,0.001372095,-0.001243164,0.001243164,-0.001243164,0.001243164,0.752264075,0.888385808,1368840,32768,0.005444225,0.005444225,0.005444225,23.78810357,23.78095364,0.000105505,0.000105505,0.000105505,583066.8964,0.016467719
17000046,0.997299603,0.016032516,0.005344172,0.005344172,0.005344172,-0.001310051,0.001310051,7.53E-12,-8.11E-12,7.37E-14,-6.58E-13,-0.001371943,0.001371943,-0.001371943,0.001371943,-0.001371943,0.001371943,-0.001371943,0.001371943,-0.001242945,0.001242945,-0.001242945,0.001242945,2.27E-13,9.69E-13,8.52E-13,8.86E-13,-0.001310051,0.001310051,-0.001371943,0.001371943,-0.001371943,0.001371943,-0.001371943,0.001371943,-0.001371943,0.001371943,-0.001242945,0.001242945,-0.001242945,0.001242945,-0.001242945,0.001242945,-0.001242945,0.001242945,-7.68E-12,7.92E-12,-0.001310051,0.001310051,1.70E-13,1.36E-13,-0.001371943,0.001371943,-0.001371943,0.001371943,-0.001371943,0.001371943,-0.001371943,0.001371943,-0.001242945,0.001242945,-0.001242945,0.001242945,0.750306405,0.824441478,1368840,32768,0.005443473,0.005443473,0.005443473,23.67934321,23.67219432,0.000104635,0.000104635,0.000104635,582632.4578,0.016465426
17086446,0.997370292,0.016033672,0.005344557,0.005344557,0.005344557,-0.001309577,0.001309577,7.45E-12,-8.13E-12,6.87E-14,-7.18E-13,-0.001371644,0.001371644,-0.001371644,0.001371644,-0.001371644,0.001371644,-0.001371644,0.001371644,-0.001242305,0.001242305,-0.001242305,0.001242305,2.25E-13,1.02E-12,8.44E-13,8.86E-13,-0.001309577,0.001309577,-0.001371644,0.001371644,-0.001371644,0.001371644,-0.001371644,0.001371644,-0.001371644,0.001371644,-0.001242305,0.001242305,-0.001242305,0.001242305,-0.001242305,0.001242305,-0.001242305,0.001242305,-7.63E-12,7.92E-12,-0.001309577,0.001309577,1.57E-13,1.14E-13,-0.001371644,0.001371644,-0.001371644,0.001371644,-0.001371644,0.001371644,-0.001371644,0.001371644,-0.001242305,0.001242305,-0.001242305,0.001242305,0.749228109,0.792785126,1368840,32768,0.005441507,0.005441507,0.005441507,23.57058221,23.56343501,0.000103765,0.000103765,0.000103765,591255.468,0.016459433
17172846,0.997437762,0.016034772,0.005344924,0.005344924,0.005344924,-0.001308827,0.001308827,7.49E-12,-7.91E-12,8.40E-14,-5.65E-13,-0.001370997,0.001370997,-0.001370997,0.001370997,-0.001370997,0.001370997,-0.001370997,0.001370997,-0.001241457,0.001241457,-0.001241457,0.001241457,2.84E-13,9.44E-13,6.95E-13,9.37E-13,-0.001308827,0.001308827,-0.001370997,0.001370997,-0.001370997,0.001370997,-0.001370997,0.001370997,-0.001370997,0.001370997,-0.001241457,0.001241457,-0.001241457,0.001241457,-0.001241457,0.001241457,-0.001241457,0.001241457,-7.66E-12,7.71E-12,-0.001308827,0.001308827,1.35E-13,-1.08E-13,-0.001370997,0.001370997,-0.001370997,0.001370997,-0.001370997,0.001370997,-0.001370997,0.001370997,-0.001241457,0.001241457,-0.001241457,0.001241457,0.746858568,0.749785711,1368840,32768,0.005438398,0.005438398,0.005438398,23.23431703,23.21274091,0.000101075,0.000101075,0.000101075,595281.9579,0.016449955
17259246,0.997501827,0.016035812,0.005345271,0.005345271,0.005345271,-0.001307811,0.001307811,7.31E-12,-8.14E-12,-3.18E-14,-7.57E-13,-0.001370122,0.001370122,-0.001370122,0.001370122,-0.001370122,0.001370122,-0.001370122,0.001370122,-0.001240312,0.001240312,-0.001240312,0.001240312,2.21E-13,9.59E-13,6.83E-13,9.63E-13,-0.001307811,0.001307811,-0.001370122,0.001370122,-0.001370122,0.001370122,-0.001370122,0.001370122,-0.001370122,0.001370122,-0.001240312,0.001240312,-0.001240312,0.001240312,-0.001240312,0.001240312,-0.001240312,0.001240312,-7.58E-12,7.83E-12,-0.001307811,0.001307811,2.37E-13,-4.07E-14,-0.001370122,0.001370122,-0.001370122,0.001370122,-0.001370122,0.001370122,-0.001370122,0.001370122,-0.001240312,0.001240312,-0.001240312,0.001240312,0.743120841,0.693101272,1368840,32768,0.005434187,0.005434187,0.005434187,22.80369644,22.77569176,9.76E-05,9.76E-05,9.76E-05,601834.9921,0.016437115
17345646,0.997562672,0.016036793,0.005345598,0.005345598,0.005345598,-0.001306678,0.001306678,7.12E-12,-8.35E-12,-7.86E-14,-9.76E-13,-0.00136918,0.00136918,-0.00136918,0.00136918,-0.00136918,0.00136918,-0.00136918,0.00136918,-0.001239003,0.001239004,-0.001239004,0.001239003,3.07E-13,1.22E-12,9.37E-13,1.08E-12,-0.001306678,0.001306678,-0.00136918,0.00136918,-0.00136918,0.00136918,-0.00136918,0.00136918,-0.00136918,0.00136918,-0.001239004,0.001239004,-0.001239004,0.001239004,-0.001239004,0.001239004,-0.001239004,0.001239004,-7.85E-12,7.59E-12,-0.001306678,0.001306678,5.08E-14,-8.61E-14,-0.00136918,0.00136918,-0.00136918,0.00136918,-0.00136918,0.00136918,-0.00136918,0.00136918,-0.001239003,0.001239004,-0.001239004,0.001239003,0.738952915,0.635705834,1368840,32768,0.005429492,0.005429492,0.005429492,22.36720348,22.33864262,9.41E-05,9.41E-05,9.41E-05,611631.5895,0.016422799
17432046,0.99762049,0.016037721,0.005345907,0.005345907,0.005345907,-0.001305515,0.001305515,7.21E-12,-8.39E-12,-1.27E-13,-9.62E-13,-0.001368221,0.001368221,-0.001368221,0.001368221,-0.001368221,0.001368221,-0.001368221,0.001368221,-0.001237654,0.001237654,-0.001237654,0.001237654,2.36E-13,1.08E-12,1.01E-12,1.09E-12,-0.001305515,0.001305515,-0.001368221,0.001368221,-0.001368221,0.001368221,-0.001368221,0.001368221,-0.001368221,0.001368221,-0.001237654,0.001237654,-0.001237654,0.001237654,-0.001237654,0.001237654,-0.001237654,0.001237654,-7.81E-12,7.76E-12,-0.001305515,0.001305515,6.34E-14,-9.68E-15,-0.001368221,0.001368221,-0.001368221,0.001368221,-0.001368221,0.001368221,-0.001368221,0.001368221,-0.001237654,0.001237654,-0.001237654,0.001237654,0.734524433,0.578310397,1368840,32768,0.00542467,0.00542467,0.00542467,21.93017358,21.90159347,9.06E-05,9.06E-05,9.06E-05,622353.3992,0.0164081
17518446,0.997675461,0.016038601,0.0053462,0.0053462,0.0053462,-0.001304327,0.001304327,7.55E-12,-8.06E-12,2.12E-13,-8.18E-13,-0.001367248,0.001367248,-0.001367248,0.001367248,-0.001367248,0.001367248,-0.001367248,0.001367248,-0.001236271,0.001236271,-0.001236271,0.001236271,1.50E-14,1.06E-12,8.52E-13,9.26E-13,-0.001304327,0.001304327,-0.001367248,0.001367248,-0.001367248,0.001367248,-0.001367248,0.001367248,-0.001367248,0.001367248,-0.001236271,0.001236271,-0.001236271,0.001236271,-0.001236271,0.001236271,-0.001236271,0.001236271,-7.67E-12,7.91E-12,-0.001304327,0.001304327,1.92E-13,1.19E-13,-0.001367248,0.001367248,-0.001367248,0.001367248,-0.001367248,0.001367248,-0.001367248,0.001367248,-0.001236271,0.001236271,-0.001236271,0.001236271,0.733792801,0.580370216,1368840,32768,0.005419747,0.005419747,0.005419747,21.49309054,21.46454433,8.71E-05,8.71E-05,8.71E-05,633832.8673,0.016393088
17604846,0.997727755,0.016039431,0.005346477,0.005346477,0.005346477,-0.001303544,0.001303544,7.39E-12,-7.74E-12,3.09E-13,-8.68E-13,-0.00136648,0.00136648,-0.00136648,0.00136648,-0.00136648,0.00136648,-0.00136648,0.00136648,-0.001235475,0.001235475,-0.001235475,0.001235475,4.81E-14,1.24E-12,1.06E-12,8.08E-13,-0.001303544,0.001303544,-0.00136648,0.00136648,-0.00136648,0.00136648,-0.00136648,0.00136648,-0.00136648,0.00136648,-0.001235475,0.001235475,-0.001235475,0.001235475,-0.001235475,0.001235475,-0.001235475,0.001235475,-7.03E-12,8.06E-12,-0.001303544,0.001303544,4.20E-13,6.72E-13,-0.00136648,0.00136648,-0.00136648,0.00136648,-0.00136648,0.00136648,-0.00136648,0.00136648,-0.001235475,0.001235475,-0.001235475,0.001235475,0.726936763,0.487766337,1368840,32768,0.005416502,0.005416502,0.005416502,21.05600276,21.02749518,8.36E-05,8.36E-05,8.36E-05,632739.446,0.016383193
17691246,0.997777526,0.016040217,0.005346739,0.005346739,0.005346739,-0.001302065,0.001302065,7.20E-12,-7.70E-12,4.13E-13,-8.53E-13,-0.001365354,0.001365354,-0.001365354,0.001365354,-0.001365354,0.001365354,-0.001365354,0.001365354,-0.001233677,0.001233677,-0.001233677,0.001233677,-6.57E-15,1.27E-12,1.10E-12,9.33E-13,-0.001302065,0.001302065,-0.001365354,0.001365354,-0.001365354,0.001365354,-0.001365354,0.001365354,-0.001365354,0.001365354,-0.001233677,0.001233677,-0.001233677,0.001233677,-0.001233677,0.001233677,-0.001233677,0.001233677,-7.35E-12,7.52E-12,-0.001302065,0.001302065,1.31E-14,1.80E-13,-0.001365354,0.001365354,-0.001365354,0.001365354,-0.001365354,0.001365354,-0.001365354,0.001365354,-0.001233677,0.001233677,-0.001233677,0.001233677,0.723625647,0.452125126,1368840,32768,0.005410375,0.005410375,0.005410375,20.61891398,20.59044604,8.02E-05,8.02E-05,8.02E-05,653120.8754,0.016364516
17777646,0.997824961,0.016040962,0.005346987,0.005346987,0.005346987,-0.001301008,0.001301008,7.07E-12,-7.85E-12,3.33E-13,-1.07E-12,-0.001364459,0.001364459,-0.001364459,0.001364459,-0.001364459,0.001364459,-0.001364459,0.001364459,-0.001232473,0.001232473,-0.001232473,0.001232473,5.41E-14,1.47E-12,1.24E-12,7.71E-13,-0.001301008,0.001301008,-0.001364459,0.001364459,-0.001364459,0.001364459,-0.001364459,0.001364459,-0.001364459,0.001364459,-0.001232473,0.001232473,-0.001232473,0.001232473,-0.001232473,0.001232473,-0.001232473,0.001232473,-7.09E-12,7.79E-12,-0.001301008,0.001301008,1.02E-13,5.72E-13,-0.001364459,0.001364459,-0.001364459,0.001364459,-0.001364459,0.001364459,-0.001364459,0.001364459,-0.001232473,0.001232473,-0.001232473,0.001232473,0.720309468,0.416483916,1368840,32768,0.005405991,0.005405991,0.005405991,20.19506263,20.1674657,7.68E-05,7.68E-05,7.68E-05,661295.2366,0.01635115
17864046,0.997870177,0.016041669,0.005347223,0.005347223,0.005347223,-0.00129993,0.00129993,7.07E-12,-7.93E-12,2.73E-13,-1.02E-12,-0.001363541,0.001363541,-0.001363541,0.001363541,-0.001363541,0.001363541,-0.001363541,0.001363541,-0.001231251,0.001231251,-0.001231251,0.001231251,8.59E-14,1.39E-12,1.09E-12,8.42E-13,-0.00129993,0.00129993,-0.001363541,0.001363541,-0.001363541,0.001363541,-0.001363541,0.001363541,-0.001363541,0.001363541,-0.001231251,0.001231251,-0.001231251,0.001231251,-0.001231251,0.001231251,-0.001231251,0.001231251,-7.42E-12,7.55E-12,-0.00129993,0.00129993,-2.18E-14,2.21E-13,-0.001363541,0.001363541,-0.001363541,0.001363541,-0.001363541,0.001363541,-0.001363541,0.001363541,-0.001231251,0.001231251,-0.001231251,0.001231251,0.716990707,0.380842706,1368840,32768,0.005401525,0.005401525,0.005401525,19.76702183,19.74802178,7.33E-05,7.33E-05,7.33E-05,669661.7087,0.016337533
17950446,0.997913322,0.016042342,0.005347447,0.005347447,0.005347447,-0.001298855,0.001298855,7.19E-12,-7.82E-12,3.55E-13,-9.43E-13,-0.001362635,0.001362635,-0.001362635,0.001362635,-0.001362635,0.001362635,-0.001362635,0.001362635,-0.001230025,0.001230025,-0.001230025,0.001230025,3.64E-13,1.67E-12,1.30E-12,9.63E-13,-0.001298855,0.001298855,-0.001362635,0.001362635,-0.001362635,0.001362635,-0.001362635,0.001362635,-0.001362635,0.001362635,-0.001230025,0.001230025,-0.001230025,0.001230025,-0.001230025,0.001230025,-0.001230025,0.001230025,-7.31E-12,7.67E-12,-0.001298855,0.001298855,-3.89E-15,3.32E-13,-0.001362635,0.001362635,-0.001362635,0.001362635,-0.001362635,0.001362635,-0.001362635,0.001362635,-0.001230025,0.001230025,-0.001230025,0.001230025,0.715418105,0.371257469,1368840,32768,0.005397071,0.005397071,0.005397071,19.34703813,19.32857786,7.00E-05,7.00E-05,7.00E-05,678439.0887,0.016323955
18036846,0.997954509,0.016042987,0.005347662,0.005347662,0.005347662,-0.001297993,0.001297993,7.06E-12,-7.87E-12,2.01E-13,-1.00E-12,-0.001361834,0.001361834,-0.001361834,0.001361834,-0.001361834,0.001361834,-0.001361834,0.001361834,-0.00122911,0.00122911,-0.00122911,0.00122911,9.12E-14,1.30E-12,1.11E-12,7.79E-13,-0.001297993,0.001297993,-0.001361834,0.001361834,-0.001361834,0.001361834,-0.001361834,0.001361834,-0.001361834,0.001361834,-0.00122911,0.00122911,-0.00122911,0.00122911,-0.00122911,0.00122911,-0.00122911,0.00122911,-7.21E-12,7.68E-12,-0.001297993,0.001297993,5.61E-15,3.33E-13,-0.001361834,0.001361834,-0.001361834,0.001361834,-0.001361834,0.001361834,-0.001361834,0.001361834,-0.00122911,0.00122911,-0.00122911,0.00122911,0.717885781,0.422616413,1368840,32768,0.005393496,0.005393496,0.005393496,18.9275581,18.90913394,6.66E-05,6.66E-05,6.66E-05,680491.6131,0.016313053
18123246,0.997993845,0.016043605,0.005347868,0.005347868,0.005347868,-0.001297635,0.001297635,7.72E-12,-7.37E-12,6.07E-13,-2.67E-13,-0.001361286,0.001361286,-0.001361286,0.001361286,-0.001361286,0.001361286,-0.001361286,0.001361286,-0.001228929,0.001228929,-0.001228929,0.001228929,-6.68E-14,8.17E-13,8.41E-13,3.29E-13,-0.001297635,0.001297635,-0.001361286,0.001361286,-0.001361286,0.001361286,-0.001361286,0.001361286,-0.001361286,0.001361286,-0.001228929,0.001228929,-0.001228929,0.001228929,-0.001228929,0.001228929,-0.001228929,0.001228929,-7.06E-12,8.00E-12,-0.001297635,0.001297635,1.46E-13,6.56E-13,-0.001361286,0.001361286,-0.001361286,0.001361286,-0.001361286,0.001361286,-0.001361286,0.001361286,-0.001228929,0.001228929,-0.001228929,0.001228929,0.719889532,0.464770972,1368840,32768,0.005392013,0.005392013,0.005392013,18.50811171,18.48969001,6.33E-05,6.33E-05,6.33E-05,666578.257,0.016308529
18209646,0.99803143,0.016044195,0.005348065,0.005348065,0.005348065,-0.00129719,0.00129719,7.28E-12,-7.89E-12,1.59E-13,-8.97E-13,-0.001360675,0.001360675,-0.001360675,0.001360675,-0.001360675,0.001360675,-0.001360675,0.001360675,-0.001228638,0.001228638,-0.001228638,0.001228638,1.11E-13,1.18E-12,1.32E-12,6.94E-13,-0.00129719,0.00129719,-0.001360675,0.001360675,-0.001360675,0.001360675,-0.001360675,0.001360675,-0.001360675,0.001360675,-0.001228638,0.001228638,-0.001228638,0.001228638,-0.001228638,0.001228638,-0.001228638,0.001228638,-7.30E-12,7.84E-12,-0.00129719,0.00129719,-7.73E-14,5.46E-13,-0.001360675,0.001360675,-0.001360675,0.001360675,-0.001360675,0.001360675,-0.001360675,0.001360675,-0.001228638,0.001228638,-0.001228638,0.001228638,0.720105785,0.476751373,1368840,32768,0.005390171,0.005390171,0.005390171,18.08866756,18.07024609,5.99E-05,5.99E-05,5.99E-05,655121.0781,0.016302911
18296046,0.998067356,0.01604476,0.005348253,0.005348253,0.005348253,-0.001296507,0.001296507,7.30E-12,-7.92E-12,1.77E-13,-8.49E-13,-0.001359954,0.001359954,-0.001359954,0.001359954,-0.001359954,0.001359954,-0.001359954,0.001359954,-0.001227992,0.001227992,-0.001227992,0.001227992,1.52E-13,1.19E-12,1.26E-12,6.33E-13,-0.001296507,0.001296507,-0.001359954,0.001359954,-0.001359954,0.001359954,-0.001359954,0.001359954,-0.001359954,0.001359954,-0.001227992,0.001227992,-0.001227992,0.001227992,-0.001227992,0.001227992,-0.001227992,0.001227992,-7.33E-12,7.85E-12,-0.001296507,0.001296507,-7.37E-14,5.52E-13,-0.001359954,0.001359954,-0.001359954,0.001359954,-0.001359954,0.001359954,-0.001359954,0.001359954,-0.001227992,0.001227992,-0.001227992,0.001227992,0.720374103,0.488731775,1368840,32768,0.00538734,0.00538734,0.00538734,17.66922355,17.65080217,5.66E-05,5.66E-05,5.66E-05,651234.9768,0.016294281
18382446,0.998102281,0.016045309,0.005348436,0.005348436,0.005348436,-0.001296329,0.001296329,7.20E-12,-7.85E-12,1.37E-13,-8.24E-13,-0.001359732,0.001359732,-0.001359732,0.001359732,-0.001359732,0.001359732,-0.001359732,0.001359732,-0.001227855,0.001227855,-0.001227855,0.001227855,1.45E-13,1.12E-12,1.20E-12,6.76E-13,-0.001296329,0.001296329,-0.001359732,0.001359732,-0.001359732,0.001359732,-0.001359732,0.001359732,-0.001359732,0.001359732,-0.001227855,0.001227855,-0.001227855,0.001227855,-0.001227855,0.001227855,-0.001227855,0.001227855,-7.27E-12,7.74E-12,-0.001296329,0.001296329,-5.11E-14,4.68E-13,-0.001359732,0.001359732,-0.001359732,0.001359732,-0.001359732,0.001359732,-0.001359732,0.001359732,-0.001227855,0.001227855,-0.001227855,0.001227855,0.72068472,0.500712176,1368840,32768,0.005386603,0.005386603,0.005386603,17.5117535,17.50457508,5.53E-05,5.53E-05,5.53E-05,647241.7574,0.016292031
18468846,0.99813635,0.016045845,0.005348615,0.005348615,0.005348615,-0.001296252,0.001296252,7.17E-12,-7.84E-12,1.74E-13,-8.41E-13,-0.001359615,0.001359615,-0.001359615,0.001359615,-0.001359615,0.001359615,-0.001359615,0.001359615,-0.001227816,0.001227816,-0.001227816,0.001227816,1.51E-13,1.18E-12,1.24E-12,6.30E-13,-0.001296252,0.001296252,-0.001359615,0.001359615,-0.001359615,0.001359615,-0.001359615,0.001359615,-0.001359615,0.001359615,-0.001227816,0.001227816,-0.001227816,0.001227816,-0.001227816,0.001227816,-0.001227816,0.001227816,-7.23E-12,7.74E-12,-0.001296252,0.001296252,-6.00E-14,5.53E-13,-0.001359615,0.001359615,-0.001359615,0.001359615,-0.001359615,0.001359615,-0.001359615,0.001359615,-0.001227816,0.001227816,-0.001227816,0.001227816,0.721033317,0.512692578,1368840,32768,0.005386282,0.005386282,0.005386282,17.4070081,17.40234573,5.45E-05,5.45E-05,5.45E-05,643334.6278,0.016291055
18555246,0.998169595,0.016046369,0.00534879,0.00534879,0.00534879,-0.001296178,0.001296178,7.15E-12,-7.86E-12,1.38E-13,-8.75E-13,-0.001359503,0.001359503,-0.001359503,0.001359503,-0.001359503,0.001359503,-0.001359503,0.001359503,-0.00122778,0.00122778,-0.00122778,0.00122778,1.23E-13,1.15E-12,1.28E-12,5.93E-13,-0.001296178,0.001296178,-0.001359503,0.001359503,-0.001359503,0.001359503,-0.001359503,0.001359503,-0.001359503,0.001359503,-0.00122778,0.00122778,-0.00122778,0.00122778,-0.00122778,0.00122778,-0.00122778,0.00122778,-7.07E-12,7.92E-12,-0.001296178,0.001296178,7.10E-14,7.51E-13,-0.001359503,0.001359503,-0.001359503,0.001359503,-0.001359503,0.001359503,-0.001359503,0.001359503,-0.00122778,0.00122778,-0.00122778,0.00122778,0.723353442,0.55681741,1368840,32768,0.005385977,0.005385977,0.005385977,17.30461777,17.30011638,5.36E-05,5.36E-05,5.36E-05,639479.9324,0.016290124
18641646,0.998202038,0.01604688,0.00534896,0.00534896,0.00534896,-0.001296335,0.001296335,7.21E-12,-7.87E-12,1.42E-13,-8.32E-13,-0.001359506,0.001359506,-0.001359506,0.001359506,-0.001359506,0.001359506,-0.001359506,0.001359506,-0.00122808,0.00122808,-0.00122808,0.00122808,2.30E-13,1.21E-12,1.35E-12,6.72E-13,-0.001296335,0.001296335,-0.001359506,0.001359506,-0.001359506,0.001359506,-0.001359506,0.001359506,-0.001359506,0.001359506,-0.00122808,0.00122808,-0.00122808,0.00122808,-0.00122808,0.00122808,-0.00122808,0.00122808,-7.22E-12,7.83E-12,-0.001296335,0.001296335,-3.33E-14,6.39E-13,-0.001359506,0.001359506,-0.001359506,0.001359506,-0.001359506,0.001359506,-0.001359506,0.001359506,-0.00122808,0.00122808,-0.00122808,0.00122808,0.720673014,0.517241561,1368840,32768,0.005386628,0.005386628,0.005386628,17.20237758,17.19788703,5.28E-05,5.28E-05,5.28E-05,628469.9321,0.016292108
18728046,0.998233702,0.016047382,0.005349127,0.005349127,0.005349127,-0.001295889,0.001295889,7.23E-12,-7.87E-12,1.71E-13,-8.29E-13,-0.001359204,0.001359204,-0.001359204,0.001359204,-0.001359204,0.001359204,-0.001359204,0.001359204,-0.001227503,0.001227503,-0.001227503,0.001227503,1.52E-13,1.16E-12,1.28E-12,5.67E-13,-0.001295889,0.001295889,-0.001359204,0.001359204,-0.001359204,0.001359204,-0.001359204,0.001359204,-0.001359204,0.001359204,-0.001227503,0.001227503,-0.001227503,0.001227503,-0.001227503,0.001227503,-0.001227503,0.001227503,-7.27E-12,7.79E-12,-0.001295889,0.001295889,-8.41E-14,6.28E-13,-0.001359204,0.001359204,-0.001359204,0.001359204,-0.001359204,0.001359204,-0.001359204,0.001359204,-0.001227503,0.001227503,-0.001227503,0.001227503,0.727080631,0.634239932,1368840,32768,0.005384778,0.005384778,0.005384778,17.10014741,17.09565768,5.20E-05,5.20E-05,5.20E-05,636091.7996,0.016286467
18814446,0.99826461,0.016047873,0.005349291,0.005349291,0.005349291,-0.00129654,0.00129654,7.25E-12,-7.86E-12,1.50E-13,-7.93E-13,-0.001359448,0.001359448,-0.001359448,0.001359448,-0.001359448,0.001359448,-0.001359448,0.001359448,-0.00122853,0.00122853,-0.00122853,0.00122853,1.67E-13,1.12E-12,1.25E-12,5.56E-13,-0.00129654,0.00129654,-0.001359448,0.001359448,-0.001359448,0.001359448,-0.001359448,0.001359448,-0.001359448,0.001359448,-0.00122853,0.00122853,-0.00122853,0.00122853,-0.00122853,0.00122853,-0.00122853,0.00122853,-7.27E-12,7.80E-12,-0.00129654,0.00129654,-7.98E-14,6.12E-13,-0.001359448,0.001359448,-0.001359448,0.001359448,-0.001359448,0.001359448,-0.001359448,0.001359448,-0.00122853,0.00122853,-0.00122853,0.00122853,0.728892276,0.665042261,1368840,32768,0.005387477,0.005387477,0.005387477,16.99791796,16.99342833,5.12E-05,5.12E-05,5.12E-05,609898.9644,0.016294692
18900846,0.998294782,0.016048355,0.005349452,0.005349452,0.005349452,-0.001296584,0.001296584,7.25E-12,-7.87E-12,1.49E-13,-7.68E-13,-0.001359391,0.001359391,-0.001359391,0.001359391,-0.001359391,0.001359391,-0.001359391,0.001359391,-0.001228669,0.001228669,-0.001228669,0.001228669,1.74E-13,1.10E-12,1.27E-12,5.53E-13,-0.001296584,0.001296584,-0.001359391,0.001359391,-0.001359391,0.001359391,-0.001359391,0.001359391,-0.001359391,0.001359391,-0.001228669,0.001228669,-0.001228669,0.001228669,-0.001228669,0.001228669,-0.001228669,0.001228669,-7.25E-12,7.83E-12,-0.001296584,0.001296584,-8.46E-14,6.34E-13,-0.001359391,0.001359391,-0.001359391,0.001359391,-0.001359391,0.001359391,-0.001359391,0.001359391,-0.001228669,0.001228669,-0.001228669,0.001228669,0.730573032,0.691556544,1368840,32768,0.005387662,0.005387662,0.005387662,16.89568855,16.89119898,5.04E-05,5.04E-05,5.04E-05,602331.4517,0.016295254
18987246,0.99832424,0.016048826,0.005349609,0.005349609,0.005349609,-0.001296597,0.001296597,7.23E-12,-7.86E-12,1.45E-13,-7.29E-13,-0.001359316,0.001359317,-0.001359317,0.001359316,-0.001359317,0.001359317,-0.001359317,0.001359316,-0.001228761,0.001228761,-0.001228762,0.001228761,1.96E-13,1.08E-12,1.27E-12,5.55E-13,-0.001296597,0.001296597,-0.001359317,0.001359317,-0.001359317,0.001359317,-0.001359317,0.001359317,-0.001359317,0.001359317,-0.001228761,0.001228761,-0.001228761,0.001228761,-0.001228761,0.001228761,-0.001228761,0.001228761,-7.25E-12,7.82E-12,-0.001296597,0.001296597,-9.05E-14,6.20E-13,-0.001359317,0.001359316,-0.001359317,0.001359317,-0.001359316,0.001359317,-0.001359316,0.001359317,-0.001228761,0.001228762,-0.001228761,0.001228761,0.732387448,0.718070828,1368840,32768,0.005387715,0.005387715,0.005387715,16.79345912,16.78896963,4.95E-05,4.95E-05,4.95E-05,595713.8535,0.016295416
19073646,0.998353004,0.016049289,0.005349763,0.005349763,0.005349763,-0.001296607,0.001296607,7.22E-12,-7.89E-12,1.83E-13,-6.86E-13,-0.001359241,0.001359241,-0.001359241,0.001359241,-0.001359241,0.001359241,-0.001359241,0.001359241,-0.001228849,0.001228849,-0.001228849,0.001228849,1.76E-13,1.06E-12,1.28E-12,5.60E-13,-0.001296607,0.001296607,-0.001359241,0.001359241,-0.001359241,0.001359241,-0.001359241,0.001359241,-0.001359241,0.001359241,-0.001228849,0.001228849,-0.001228849,0.001228849,-0.001228849,0.001228849,-0.001228849,0.001228849,-7.26E-12,7.81E-12,-0.001296607,0.001296607,-1.19E-13,5.95E-13,-0.001359241,0.001359241,-0.001359241,0.001359241,-0.001359241,0.001359241,-0.001359241,0.001359241,-0.001228849,0.001228849,-0.001228849,0.001228849,0.738241494,0.811881867,1368840,32768,0.005387756,0.005387756,0.005387756,16.6912294,16.68674028,4.87E-05,4.87E-05,4.87E-05,589176.6315,0.01629554
19160046,0.99838159,0.016049754,0.005349918,0.005349918,0.005349918,-0.001297547,0.001297547,7.24E-12,-7.92E-12,2.10E-13,-9.54E-13,-0.001359893,0.001359893,-0.001359893,0.001359893,-0.001359893,0.001359893,-0.001359893,0.001359893,-0.00123005,0.00123005,-0.00123005,0.00123005,4.46E-14,1.22E-12,1.38E-12,4.73E-13,-0.001297547,0.001297547,-0.001359893,0.001359893,-0.001359893,0.001359893,-0.001359893,0.001359893,-0.001359893,0.001359893,-0.00123005,0.00123005,-0.00123005,0.00123005,-0.00123005,0.00123005,-0.00123005,0.00123005,-7.23E-12,7.90E-12,-0.001297547,0.001297547,-1.06E-13,8.02E-13,-0.001359893,0.001359893,-0.001359893,0.001359893,-0.001359893,0.001359893,-0.001359893,0.001359893,-0.00123005,0.00123005,-0.00123005,0.00123005,0.745749003,0.923500529,1368840,32768,0.005391653,0.005391653,0.005391653,16.86679787,16.87422786,5.01E-05,5.01E-05,5.01E-05,570608.0043,0.016307419
19246446,0.998410079,0.016050219,0.005350073,0.005350073,0.005350073,-0.001298641,0.001298641,7.25E-12,-7.87E-12,1.47E-13,-7.75E-13,-0.001360669,0.001360669,-0.001360669,0.001360669,-0.001360669,0.001360669,-0.001360669,0.001360669,-0.001231427,0.001231428,-0.001231428,0.001231427,1.79E-13,1.11E-12,1.35E-12,4.56E-13,-0.001298641,0.001298641,-0.001360669,0.001360669,-0.001360669,0.001360669,-0.001360669,0.001360669,-0.001360669,0.001360669,-0.001231428,0.001231428,-0.001231428,0.001231428,-0.001231428,0.001231428,-0.001231428,0.001231428,-7.26E-12,7.84E-12,-0.001298641,0.001298641,-1.54E-13,7.41E-13,-0.001360669,0.001360669,-0.001360669,0.001360669,-0.001360669,0.001360669,-0.001360669,0.001360669,-0.001231427,0.001231428,-0.001231428,0.001231427,0.747131654,0.884992947,1368840,32768,0.005396188,0.005396188,0.005396188,17.09037004,17.10012827,5.19E-05,5.19E-05,5.19E-05,550274.7141,0.016321242
19332846,0.998438467,0.016050683,0.005350228,0.005350228,0.005350228,-0.001298937,0.001298937,7.31E-12,-7.91E-12,1.23E-13,-7.42E-13,-0.001361044,0.001361044,-0.001361044,0.001361044,-0.001361044,0.001361044,-0.001361044,0.001361044,-0.001231636,0.001231636,-0.001231636,0.001231636,1.80E-13,1.06E-12,1.41E-12,4.04E-13,-0.001298937,0.001298937,-0.001361044,0.001361044,-0.001361044,0.001361044,-0.001361044,0.001361044,-0.001361044,0.001361044,-0.001231636,0.001231636,-0.001231636,0.001231636,-0.001231636,0.001231636,-0.001231636,0.001231636,-7.29E-12,7.90E-12,-0.001298937,0.001298937,-1.99E-13,8.06E-13,-0.001361044,0.001361044,-0.001361044,0.001361044,-0.001361044,0.001361044,-0.001361044,0.001361044,-0.001231636,0.001231636,-0.001231636,0.001231636,0.747346275,0.846485365,1368840,32768,0.005397416,0.005397416,0.005397416,17.3161208,17.32602868,5.37E-05,5.37E-05,5.37E-05,553263.8777,0.016324989
19419246,0.998466748,0.016051144,0.005350381,0.005350381,0.005350381,-0.00129922,0.00129922,7.37E-12,-7.81E-12,1.73E-13,-7.70E-13,-0.001361414,0.001361414,-0.001361414,0.001361414,-0.001361414,0.001361414,-0.001361414,0.001361414,-0.001231829,0.001231829,-0.001231829,0.001231829,1.86E-13,1.14E-12,1.41E-12,4.47E-13,-0.00129922,0.00129922,-0.001361414,0.001361414,-0.001361414,0.001361414,-0.001361414,0.001361414,-0.001361414,0.001361414,-0.001231829,0.001231829,-0.001231829,0.001231829,-0.001231829,0.001231829,-0.001231829,0.001231829,-7.23E-12,7.91E-12,-0.00129922,0.00129922,-9.01E-14,8.68E-13,-0.001361414,0.001361414,-0.001361414,0.001361414,-0.001361414,0.001361414,-0.001361414,0.001361414,-0.001231829,0.001231829,-0.001231829,0.001231829,0.746603795,0.807977784,1368840,32768,0.005398589,0.005398589,0.005398589,17.54201073,17.55192909,5.55E-05,5.55E-05,5.55E-05,557010.7979,0.016328566
19505646,0.998494914,0.016051602,0.005350534,0.005350534,0.005350534,-0.00129949,0.00129949,7.01E-12,-8.15E-12,-1.49E-13,-9.35E-13,-0.00136178,0.00136178,-0.00136178,0.00136178,-0.00136178,0.00136178,-0.00136178,0.00136178,-0.001232005,0.001232005,-0.001232005,0.001232005,3.51E-13,1.15E-12,1.59E-12,4.70E-13,-0.00129949,0.00129949,-0.00136178,0.00136178,-0.00136178,0.00136178,-0.00136178,0.00136178,-0.00136178,0.00136178,-0.001232005,0.001232005,-0.001232005,0.001232005,-0.001232005,0.001232005,-0.001232005,0.001232005,-7.00E-12,8.13E-12,-0.00129949,0.00129949,-5.71E-14,1.06E-12,-0.00136178,0.00136178,-0.00136178,0.00136178,-0.00136178,0.00136178,-0.00136178,0.00136178,-0.001232005,0.001232005,-0.001232005,0.001232005,0.745120203,0.769470202,1368840,32768,0.005399706,0.005399706,0.005399706,17.76791003,17.7778295,5.73E-05,5.73E-05,5.73E-05,561455.0428,0.016331976
19592046,0.998522956,0.016052057,0.005350686,0.005350686,0.005350686,-0.001299748,0.001299748,7.31E-12,-7.79E-12,8.61E-14,-6.37E-13,-0.001362146,0.001362146,-0.001362146,0.001362146,-0.001362146,0.001362146,-0.001362146,0.001362146,-0.00123216,0.00123216,-0.00123216,0.00123216,2.53E-13,9.87E-13,1.41E-12,4.10E-13,-0.001299748,0.001299748,-0.001362146,0.001362146,-0.001362146,0.001362146,-0.001362146,0.001362146,-0.001362146,0.001362146,-0.00123216,0.00123216,-0.00123216,0.00123216,-0.00123216,0.00123216,-0.00123216,0.00123216,-7.27E-12,7.80E-12,-0.001299748,0.001299748,-2.03E-13,7.91E-13,-0.001362146,0.001362146,-0.001362146,0.001362146,-0.001362146,0.001362146,-0.001362146,0.001362146,-0.00123216,0.00123216,-0.00123216,0.00123216,0.743105825,0.73096262,1368840,32768,0.005400772,0.005400772,0.005400772,17.99381003,18.00372991,5.92E-05,5.92E-05,5.92E-05,566551.7546,0.016335228
19678446,0.998550868,0.016052509,0.005350836,0.005350836,0.005350836,-0.001299994,0.001299994,7.37E-12,-7.84E-12,8.49E-14,-5.74E-13,-0.001362507,0.001362507,-0.001362507,0.001362507,-0.001362507,0.001362507,-0.001362507,0.001362507,-0.001232301,0.001232301,-0.001232301,0.001232301,2.85E-13,9.54E-13,1.46E-12,3.59E-13,-0.001299994,0.001299994,-0.001362507,0.001362507,-0.001362507,0.001362507,-0.001362507,0.001362507,-0.001362507,0.001362507,-0.001232301,0.001232301,-0.001232301,0.001232301,-0.001232301,0.001232301,-0.001232301,0.001232301,-7.17E-12,8.01E-12,-0.001299994,0.001299994,-1.12E-13,9.86E-13,-0.001362507,0.001362507,-0.001362507,0.001362507,-0.001362507,0.001362507,-0.001362507,0.001362507,-0.001232301,0.001232301,-0.001232301,0.001232301,0.740726939,0.692455038,1368840,32768,0.005401791,0.005401791,0.005401791,18.21971014,18.22963032,6.10E-05,6.10E-05,6.10E-05,572125.4407,0.016338335
19764846,0.998578642,0.016052956,0.005350985,0.005350985,0.005350985,-0.001300229,0.001300229,7.36E-12,-7.89E-12,5.15E-14,-5.43E-13,-0.001362862,0.001362862,-0.001362862,0.001362862,-0.001362862,0.001362862,-0.001362862,0.001362862,-0.001232426,0.001232426,-0.001232426,0.001232426,2.27E-13,8.33E-13,1.44E-12,2.87E-13,-0.001300229,0.001300229,-0.001362862,0.001362862,-0.001362862,0.001362862,-0.001362862,0.001362862,-0.001362862,0.001362862,-0.001232426,0.001232426,-0.001232426,0.001232426,-0.001232426,0.001232426,-0.001232426,0.001232426,-7.39E-12,7.82E-12,-0.001300229,0.001300229,-3.08E-13,8.40E-13,-0.001362862,0.001362862,-0.001362862,0.001362862,-0.001362862,0.001362862,-0.001362862,0.001362862,-0.001232426,0.001232426,-0.001232426,0.001232426,0.73809247,0.653947457,1368840,32768,0.005402766,0.005402766,0.005402766,18.44561031,18.45553073,6.28E-05,6.28E-05,6.28E-05,578130.5966,0.016341309
19851246,0.99860627,0.016053399,0.005351133,0.005351133,0.005351133,-0.001300454,0.001300454,7.43E-12,-7.96E-12,-1.10E-14,-5.44E-13,-0.001363214,0.001363214,-0.001363214,0.001363214,-0.001363214,0.001363214,-0.001363214,0.001363214,-0.001232536,0.001232536,-0.001232536,0.001232536,2.52E-13,7.97E-13,1.39E-12,2.35E-13,-0.001300454,0.001300454,-0.001363214,0.001363214,-0.001363214,0.001363214,-0.001363214,0.001363214,-0.001363214,0.001363214,-0.001232536,0.001232536,-0.001232536,0.001232536,-0.001232536,0.001232536,-0.001232536,0.001232536,-7.30E-12,8.06E-12,-0.001300454,0.001300454,-1.99E-13,9.49E-13,-0.001363214,0.001363214,-0.001363214,0.001363214,-0.001363214,0.001363214,-0.001363214,0.001363214,-0.001232536,0.001232536,-0.001232536,0.001232536,0.733735286,0.591597841,1368840,32768,0.005403699,0.005403699,0.005403699,18.67151047,18.68143114,6.46E-05,6.46E-05,6.46E-05,584525.9687,0.016344153
19937646,0.998633389,0.016053837,0.005351279,0.005351279,0.005351279,-0.001300107,0.001300107,7.46E-12,-7.94E-12,2.56E-14,-5.04E-13,-0.001363085,0.001363085,-0.001363085,0.001363085,-0.001363085,0.001363085,-0.001363085,0.001363085,-0.001231992,0.001231992,-0.001231992,0.001231992,3.05E-13,8.45E-13,1.43E-12,2.43E-13,-0.001300107,0.001300107,-0.001363085,0.001363085,-0.001363085,0.001363085,-0.001363085,0.001363085,-0.001363085,0.001363085,-0.001231992,0.001231992,-0.001231992,0.001231992,-0.001231992,0.001231992,-0.001231992,0.001231992,-7.33E-12,8.04E-12,-0.001300107,0.001300107,-2.35E-13,9.49E-13,-0.001363085,0.001363085,-0.001363085,0.001363085,-0.001363085,0.001363085,-0.001363085,0.001363085,-0.001231992,0.001231992,-0.001231992,0.001231992,0.739389281,0.698188525,1368840,32768,0.005402259,0.005402259,0.005402259,18.68785293,18.68878062,6.47E-05,6.47E-05,6.47E-05,596275.7569,0.016339766
20024046,0.998659957,0.016054267,0.005351422,0.005351422,0.005351422,-0.00130078,0.00130078,7.46E-12,-7.95E-12,2.34E-14,-5.12E-13,-0.001363428,0.001363428,-0.001363428,0.001363428,-0.001363428,0.001363428,-0.001363428,0.001363428,-0.001232969,0.001232969,-0.001232969,0.001232969,3.06E-13,8.53E-13,1.43E-12,2.70E-13,-0.00130078,0.00130078,-0.001363428,0.001363428,-0.001363428,0.001363428,-0.001363428,0.001363428,-0.001363428,0.001363428,-0.001232969,0.001232969,-0.001232969,0.001232969,-0.001232969,0.001232969,-0.001232969,0.001232969,-7.35E-12,8.03E-12,-0.00130078,0.00130078,-2.29E-13,9.27E-13,-0.001363428,0.001363428,-0.001363428,0.001363428,-0.001363428,0.001363428,-0.001363428,0.001363428,-0.001232969,0.001232969,-0.001232969,0.001232969,0.74148507,0.734222258,1368840,32768,0.00540505,0.00540505,0.00540505,18.67365835,18.67307304,6.46E-05,6.46E-05,6.46E-05,574954.9851,0.016348273
20110446,0.998685984,0.01605469,0.005351563,0.005351563,0.005351563,-0.001300999,0.001300999,7.46E-12,-7.95E-12,2.93E-14,-5.24E-13,-0.001363539,0.001363539,-0.001363539,0.001363539,-0.001363539,0.001363539,-0.001363539,0.001363539,-0.001233286,0.001233286,-0.001233286,0.001233286,3.06E-13,8.71E-13,1.43E-12,2.80E-13,-0.001300999,0.001300999,-0.001363539,0.001363539,-0.001363539,0.001363539,-0.001363539,0.001363539,-0.001363539,0.001363539,-0.001233286,0.001233286,-0.001233286,0.001233286,-0.001233286,0.001233286,-0.001233286,0.001233286,-7.35E-12,8.03E-12,-0.001300999,0.001300999,-2.28E-13,9.17E-13,-0.001363539,0.001363539,-0.001363539,0.001363539,-0.001363539,0.001363539,-0.001363539,0.001363539,-0.001233286,0.001233286,-0.001233286,0.001233286,0.743802204,0.768452051,1368840,32768,0.005405957,0.005405957,0.005405957,18.65804815,18.65736545,6.45E-05,6.45E-05,6.45E-05,567268.4426,0.016351036
20196846,0.998711482,0.016055105,0.005351702,0.005351702,0.005351702,-0.001301204,0.001301204,7.45E-12,-7.96E-12,3.00E-14,-5.47E-13,-0.001363644,0.001363644,-0.001363644,0.001363644,-0.001363644,0.001363644,-0.001363644,0.001363644,-0.001233581,0.001233581,-0.001233581,0.001233581,2.89E-13,8.77E-13,1.42E-12,2.96E-13,-0.001301204,0.001301204,-0.001363644,0.001363644,-0.001363644,0.001363644,-0.001363644,0.001363644,-0.001363644,0.001363644,-0.001233581,0.001233581,-0.001233581,0.001233581,-0.001233581,0.001233581,-0.001233581,0.001233581,-7.35E-12,8.03E-12,-0.001301204,0.001301204,-2.12E-13,9.09E-13,-0.001363644,0.001363644,-0.001363644,0.001363644,-0.001363644,0.001363644,-0.001363644,0.001363644,-0.001233581,0.001233581,-0.001233581,0.001233581,0.74640995,0.800889932,1368840,32768,0.005406806,0.005406806,0.005406806,18.64234711,18.64165787,6.43E-05,6.43E-05,6.43E-05,559946.4007,0.016353625
20283246,0.99873646,0.016055514,0.005351838,0.005351838,0.005351838,-0.001301396,0.001301396,7.44E-12,-7.95E-12,4.50E-14,-5.49E-13,-0.00136374,0.00136374,-0.00136374,0.00136374,-0.00136374,0.00136374,-0.00136374,0.00136374,-0.001233858,0.001233858,-0.001233858,0.001233858,2.79E-13,8.84E-13,1.40E-12,3.06E-13,-0.001301396,0.001301396,-0.00136374,0.00136374,-0.00136374,0.00136374,-0.00136374,0.00136374,-0.00136374,0.00136374,-0.001233858,0.001233858,-0.001233858,0.001233858,-0.001233858,0.001233858,-0.001233858,0.001233858,-7.34E-12,8.02E-12,-0.001301396,0.001301396,-2.09E-13,8.85E-13,-0.00136374,0.00136374,-0.00136374,0.00136374,-0.00136374,0.00136374,-0.00136374,0.00136374,-0.001233858,0.001233858,-0.001233858,0.001233858,0.749432727,0.833327813,1368840,32768,0.005407603,0.005407603,0.005407603,18.62663994,18.62595029,6.42E-05,6.42E-05,6.42E-05,552898.9514,0.016356054
20369646,0.998760932,0.016055916,0.005351972,0.005351972,0.005351972,-0.001301586,0.001301586,7.43E-12,-7.97E-12,2.96E-14,-5.75E-13,-0.001363835,0.001363835,-0.001363835,0.001363835,-0.001363835,0.001363835,-0.001363835,0.001363835,-0.001234131,0.001234131,-0.001234131,0.001234131,2.80E-13,8.95E-13,1.40E-12,3.15E-13,-0.001301586,0.001301586,-0.001363835,0.001363835,-0.001363835,0.001363835,-0.001363835,0.001363835,-0.001363835,0.001363835,-0.001234131,0.001234131,-0.001234131,0.001234131,-0.001234131,0.001234131,-0.001234131,0.001234131,-7.35E-12,8.03E-12,-0.001301586,0.001301586,-2.14E-13,8.66E-13,-0.001363835,0.001363835,-0.001363835,0.001363835,-0.001363835,0.001363835,-0.001363835,0.001363835,-0.001234131,0.001234131,-0.001234131,0.001234131,0.751086217,0.836843645,1368840,32768,0.00540839,0.00540839,0.00540839,18.61093237,18.61024271,6.41E-05,6.41E-05,6.41E-05,545850.3404,0.016358454
20456046,0.998784906,0.016056306,0.005352102,0.005352102,0.005352102,-0.001301617,0.001301617,7.45E-12,-7.95E-12,5.12E-14,-5.67E-13,-0.001363846,0.001363846,-0.001363846,0.001363846,-0.001363846,0.001363846,-0.001363846,0.001363846,-0.001234174,0.001234174,-0.001234174,0.001234174,2.75E-13,9.04E-13,1.39E-12,3.24E-13,-0.001301617,0.001301617,-0.001363846,0.001363846,-0.001363846,0.001363846,-0.001363846,0.001363846,-0.001363846,0.001363846,-0.001234174,0.001234174,-0.001234174,0.001234174,-0.001234174,0.001234174,-0.001234174,0.001234174,-7.36E-12,8.02E-12,-0.001301617,0.001301617,-1.97E-13,8.68E-13,-0.001363846,0.001363846,-0.001363846,0.001363846,-0.001363846,0.001363846,-0.001363846,0.001363846,-0.001234174,0.001234174,-0.001234174,0.001234174,0.745940876,0.739349177,1368840,32768,0.005408519,0.005408519,0.005408519,18.59522486,18.59453513,6.40E-05,6.40E-05,6.40E-05,543411.8921,0.016358846
20542446,0.998808394,0.016056684,0.005352228,0.005352228,0.005352228,-0.001301074,0.001301074,7.44E-12,-7.95E-12,5.56E-14,-5.74E-13,-0.001363574,0.001363574,-0.001363574,0.001363574,-0.001363574,0.001363574,-0.001363574,0.001363574,-0.001233383,0.001233383,-0.001233383,0.001233383,2.79E-13,9.19E-13,1.40E-12,3.31E-13,-0.001301074,0.001301074,-0.001363574,0.001363574,-0.001363574,0.001363574,-0.001363574,0.001363574,-0.001363574,0.001363574,-0.001233383,0.001233383,-0.001233383,0.001233383,-0.001233383,0.001233383,-0.001233383,0.001233383,-7.35E-12,8.00E-12,-0.001301074,0.001301074,-2.01E-13,8.68E-13,-0.001363574,0.001363574,-0.001363574,0.001363574,-0.001363574,0.001363574,-0.001363574,0.001363574,-0.001233383,0.001233383,-0.001233383,0.001233383,0.736673889,0.5969495,1368840,32768,0.00540627,0.00540627,0.00540627,18.57951734,18.57882754,6.38E-05,6.38E-05,6.38E-05,558439.4909,0.016351992
20628846,0.998831405,0.016057049,0.00535235,0.00535235,0.00535235,-0.001300189,0.001300189,7.43E-12,-7.93E-12,4.43E-14,-5.46E-13,-0.001363137,0.001363137,-0.001363137,0.001363137,-0.001363137,0.001363137,-0.001363137,0.001363137,-0.001232091,0.001232091,-0.001232091,0.001232091,2.95E-13,8.96E-13,1.40E-12,3.24E-13,-0.001300189,0.001300189,-0.001363137,0.001363137,-0.001363137,0.001363137,-0.001363137,0.001363137,-0.001363137,0.001363137,-0.001232091,0.001232091,-0.001232091,0.001232091,-0.001232091,0.001232091,-0.001232091,0.001232091,-7.34E-12,7.99E-12,-0.001300189,0.001300189,-2.06E-13,8.65E-13,-0.001363137,0.001363137,-0.001363137,0.001363137,-0.001363137,0.001363137,-0.001363137,0.001363137,-0.001232091,0.001232091,-0.001232091,0.001232091,0.726453593,0.454549822,1368840,32768,0.005402601,0.005402601,0.005402601,18.56380977,18.56311996,6.37E-05,6.37E-05,6.37E-05,584406.8705,0.016340809
20715246,0.998853483,0.016057407,0.005352469,0.005352469,0.005352469,-0.001298534,0.001298534,7.52E-12,-7.97E-12,4.43E-14,-4.91E-13,-0.001362002,0.001362002,-0.001362002,0.001362002,-0.001362002,0.001362002,-0.001362002,0.001362002,-0.001229966,0.001229966,-0.001229966,0.001229966,2.97E-13,8.44E-13,1.47E-12,1.50E-13,-0.001298534,0.001298534,-0.001362002,0.001362002,-0.001362002,0.001362002,-0.001362002,0.001362002,-0.001362002,0.001362002,-0.001229966,0.001229966,-0.001229966,0.001229966,-0.001229966,0.001229966,-0.001229966,0.001229966,-7.34E-12,8.11E-12,-0.001298534,0.001298534,-2.62E-13,1.06E-12,-0.001362002,0.001362002,-0.001362002,0.001362002,-0.001362002,0.001362002,-0.001362002,0.001362002,-0.001229966,0.001229966,-0.001229966,0.001229966,0.741147459,0.734794963,1368840,32768,0.005395739,0.005395739,0.005395739,18.21174801,18.19662487,6.09E-05,6.09E-05,6.09E-05,614802.2192,0.016319892
20801646,0.99887462,0.016057748,0.005352583,0.005352583,0.005352583,-0.001299609,0.001299609,7.46E-12,-8.05E-12,7.21E-14,-6.23E-13,-0.001362174,0.001362174,-0.001362174,0.001362174,-0.001362174,0.001362174,-0.001362174,0.001362174,-0.001231877,0.001231877,-0.001231877,0.001231877,2.58E-13,9.64E-13,1.50E-12,2.36E-13,-0.001299609,0.001299609,-0.001362174,0.001362174,-0.001362174,0.001362174,-0.001362174,0.001362174,-0.001362174,0.001362174,-0.001231877,0.001231877,-0.001231877,0.001231877,-0.001231877,0.001231877,-0.001231877,0.001231877,-7.38E-12,8.09E-12,-0.001299609,0.001299609,-2.69E-13,9.85E-13,-0.001362174,0.001362174,-0.001362174,0.001362174,-0.001362174,0.001362174,-0.001362174,0.001362174,-0.001231877,0.001231877,-0.001231877,0.001231877,0.739706683,0.706610747,1368840,32768,0.005400198,0.005400198,0.005400198,17.81935941,17.8021804,5.78E-05,5.78E-05,5.78E-05,558979.8576,0.016333478
20888046,0.99889486,0.016058073,0.005352691,0.005352691,0.005352691,-0.001298711,0.001298711,7.23E-12,-8.03E-12,3.46E-14,-7.82E-13,-0.001361355,0.001361355,-0.001361355,0.001361355,-0.001361355,0.001361355,-0.001361355,0.001361355,-0.001230905,0.001230905,-0.001230905,0.001230905,3.37E-13,1.16E-12,1.67E-12,4.11E-13,-0.001298711,0.001298711,-0.001361355,0.001361355,-0.001361355,0.001361355,-0.001361355,0.001361355,-0.001361355,0.001361355,-0.001230905,0.001230905,-0.001230905,0.001230905,-0.001230905,0.001230905,-0.001230905,0.001230905,-7.14E-12,8.09E-12,-0.001298711,0.001298711,-1.83E-13,1.07E-12,-0.001361355,0.001361355,-0.001361355,0.001361355,-0.001361355,0.001361355,-0.001361355,0.001361355,-0.001230905,0.001230905,-0.001230905,0.001230905,0.736088084,0.647371089,1368840,32768,0.005396475,0.005396475,0.005396475,17.42504826,17.40773593,5.46E-05,5.46E-05,5.46E-05,562728.8071,0.016322127
20974446,0.998914249,0.016058384,0.005352795,0.005352795,0.005352795,-0.001297613,0.001297613,7.38E-12,-8.13E-12,2.85E-14,-6.88E-13,-0.001360438,0.001360438,-0.001360438,0.001360438,-0.001360438,0.001360438,-0.001360438,0.001360438,-0.001229642,0.001229642,-0.001229642,0.001229642,1.18E-13,8.50E-13,1.33E-12,8.97E-14,-0.001297613,0.001297613,-0.001360438,0.001360438,-0.001360438,0.001360438,-0.001360438,0.001360438,-0.001360438,0.001360438,-0.001229642,0.001229642,-0.001229642,0.001229642,-0.001229642,0.001229642,-0.001229642,0.001229642,-7.31E-12,8.17E-12,-0.001297613,0.001297613,-2.19E-13,1.02E-12,-0.001360438,0.001360438,-0.001360438,0.001360438,-0.001360438,0.001360438,-0.001360438,0.001360438,-0.001229642,0.001229642,-0.001229642,0.001229642,0.732396947,0.592510823,1368840,32768,0.005391925,0.005391925,0.005391925,17.03061299,17.01329147,5.14E-05,5.14E-05,5.14E-05,572601.3754,0.016308255
21060846,0.998932831,0.016058681,0.005352894,0.005352894,0.005352894,-0.001296521,0.001296521,7.47E-12,-8.06E-12,9.85E-14,-8.16E-13,-0.00135953,0.00135953,-0.00135953,0.00135953,-0.00135953,0.00135953,-0.00135953,0.00135953,-0.001228384,0.001228384,-0.001228384,0.001228384,1.53E-13,1.08E-12,1.61E-12,1.86E-13,-0.001296521,0.001296521,-0.00135953,0.00135953,-0.00135953,0.00135953,-0.00135953,0.00135953,-0.00135953,0.00135953,-0.001228384,0.001228384,-0.001228384,0.001228384,-0.001228384,0.001228384,-0.001228384,0.001228384,-7.37E-12,8.13E-12,-0.001296521,0.001296521,-3.53E-13,1.06E-12,-0.00135953,0.00135953,-0.00135953,0.00135953,-0.00135953,0.00135953,-0.00135953,0.00135953,-0.001228384,0.001228384,-0.001228384,0.001228384,0.732506965,0.601690491,1368840,32768,0.0053874,0.0053874,0.0053874,16.63616908,16.618847,4.83E-05,4.83E-05,4.83E-05,582487.0093,0.016294461
21147246,0.998950644,0.016058966,0.005352989,0.005352989,0.005352989,-0.001295835,0.001295835,7.52E-12,-8.03E-12,2.23E-13,-6.74E-13,-0.00135882,0.00135882,-0.00135882,0.00135882,-0.00135882,0.00135882,-0.00135882,0.00135882,-0.001227721,0.001227721,-0.001227721,0.001227721,2.29E-13,1.14E-12,1.57E-12,2.95E-13,-0.001295835,0.001295835,-0.00135882,0.00135882,-0.00135882,0.00135882,-0.00135882,0.00135882,-0.00135882,0.00135882,-0.001227721,0.001227721,-0.001227721,0.001227721,-0.001227721,0.001227721,-0.001227721,0.001227721,-7.39E-12,8.13E-12,-0.001295835,0.001295835,-2.86E-13,9.87E-13,-0.00135882,0.00135882,-0.00135882,0.00135882,-0.00135882,0.00135882,-0.00135882,0.00135882,-0.001227721,0.001227721,-0.001227721,0.001227721,0.732675413,0.610870159,1368840,32768,0.005384556,0.005384556,0.005384556,16.24172458,16.22440253,4.51E-05,4.51E-05,4.51E-05,579924.3134,0.016285789
21233646,0.998967726,0.016059239,0.00535308,0.00535308,0.00535308,-0.001295149,0.001295149,7.47E-12,-8.08E-12,1.42E-13,-7.44E-13,-0.001358108,0.001358108,-0.001358108,0.001358108,-0.001358108,0.001358108,-0.001358108,0.001358108,-0.001227059,0.001227059,-0.001227059,0.001227059,1.89E-13,1.09E-12,1.53E-12,2.70E-13,-0.001295149,0.001295149,-0.001358108,0.001358108,-0.001358108,0.001358108,-0.001358108,0.001358108,-0.001358108,0.001358108,-0.001227059,0.001227059,-0.001227059,0.001227059,-0.001227059,0.001227059,-0.001227059,0.001227059,-7.39E-12,8.13E-12,-0.001295149,0.001295149,-2.65E-13,9.90E-13,-0.001358108,0.001358108,-0.001358108,0.001358108,-0.001358108,0.001358108,-0.001358108,0.001358108,-0.001227059,0.001227059,-0.001227059,0.001227059,0.732896085,0.620049827,1368840,32768,0.005381712,0.005381712,0.005381712,15.84728002,15.82995806,4.20E-05,4.20E-05,4.20E-05,577320.7683,0.016277118
21320046,0.998984221,0.016059503,0.005353168,0.005353168,0.005353168,-0.001294659,0.001294659,7.47E-12,-8.08E-12,1.36E-13,-7.41E-13,-0.001357591,0.001357591,-0.001357591,0.001357591,-0.001357591,0.001357591,-0.001357591,0.001357591,-0.001226596,0.001226596,-0.001226596,0.001226596,1.97E-13,1.08E-12,1.53E-12,2.87E-13,-0.001294659,0.001294659,-0.001357591,0.001357591,-0.001357591,0.001357591,-0.001357591,0.001357591,-0.001357591,0.001357591,-0.001226596,0.001226596,-0.001226596,0.001226596,-0.001226596,0.001226596,-0.001226596,0.001226596,-7.40E-12,8.12E-12,-0.001294659,0.001294659,-2.57E-13,9.81E-13,-0.001357591,0.001357591,-0.001357591,0.001357591,-0.001357591,0.001357591,-0.001357591,0.001357591,-0.001226596,0.001226596,-0.001226596,0.001226596,0.733163316,0.629229495,1368840,32768,0.005379683,0.005379683,0.005379683,15.55494546,15.54200537,3.96E-05,3.96E-05,3.96E-05,574660.7373,0.016270934
21406446,0.999000158,0.016059758,0.005353253,0.005353253,0.005353253,-0.00129418,0.00129418,7.46E-12,-8.12E-12,7.60E-14,-8.07E-13,-0.001357085,0.001357085,-0.001357085,0.001357085,-0.001357085,0.001357085,-0.001357085,0.001357085,-0.001226141,0.001226141,-0.001226141,0.001226141,1.86E-13,1.08E-12,1.43E-12,3.47E-13,-0.00129418,0.00129418,-0.001357085,0.001357085,-0.001357085,0.001357085,-0.001357085,0.001357085,-0.001357085,0.001357085,-0.001226141,0.001226141,-0.001226141,0.001226141,-0.001226141,0.001226141,-0.001226141,0.001226141,-7.43E-12,8.12E-12,-0.00129418,0.00129418,-2.35E-13,8.40E-13,-0.001357085,0.001357085,-0.001357085,0.001357085,-0.001357085,0.001357085,-0.001357085,0.001357085,-0.001226141,0.001226141,-0.001226141,0.001226141,0.733473836,0.638409163,1368840,32768,0.005377696,0.005377696,0.005377696,15.26791863,15.25530508,3.73E-05,3.73E-05,3.73E-05,572024.2936,0.016264875
21492846,0.99901556,0.016060008,0.005353336,0.005353336,0.005353336,-0.001293701,0.001293701,7.44E-12,-8.09E-12,8.71E-14,-7.10E-13,-0.001356579,0.001356579,-0.001356579,0.001356579,-0.001356579,0.001356579,-0.001356579,0.001356579,-0.001225688,0.001225688,-0.001225688,0.001225688,1.90E-13,9.98E-13,1.41E-12,3.56E-13,-0.001293701,0.001293701,-0.001356579,0.001356579,-0.001356579,0.001356579,-0.001356579,0.001356579,-0.001356579,0.001356579,-0.001225688,0.001225688,-0.001225688,0.001225688,-0.001225688,0.001225688,-0.001225688,0.001225688,-7.41E-12,8.09E-12,-0.001293701,0.001293701,-2.43E-13,8.10E-13,-0.001356579,0.001356579,-0.001356579,0.001356579,-0.001356579,0.001356579,-0.001356579,0.001356579,-0.001225688,0.001225688,-0.001225688,0.001225688,0.741292295,0.783213255,1368840,32768,0.005375711,0.005375711,0.005375711,14.98119566,14.96860479,3.50E-05,3.50E-05,3.50E-05,569380.2977,0.016258821
21579246,0.999030448,0.01606025,0.005353417,0.005353417,0.005353417,-0.001294013,0.001294013,7.58E-12,-7.76E-12,9.71E-14,-5.52E-13,-0.001356473,0.001356473,-0.001356473,0.001356473,-0.001356473,0.001356473,-0.001356473,0.001356473,-0.001226388,0.001226388,-0.001226388,0.001226388,4.29E-13,1.09E-12,1.80E-12,4.66E-13,-0.001294013,0.001294013,-0.001356473,0.001356473,-0.001356473,0.001356473,-0.001356473,0.001356473,-0.001356473,0.001356473,-0.001226388,0.001226388,-0.001226388,0.001226388,-0.001226388,0.001226388,-0.001226388,0.001226388,-7.10E-12,8.21E-12,-0.001294013,0.001294013,-2.10E-13,1.12E-12,-0.001356473,0.001356473,-0.001356473,0.001356473,-0.001356473,0.001356473,-0.001356473,0.001356473,-0.001226388,0.001226388,-0.001226388,0.001226388,0.744605965,0.82295571,1368840,32768,0.005377007,0.005377007,0.005377007,14.69449317,14.6819045,3.28E-05,3.28E-05,3.28E-05,543039.6626,0.016262768
21665646,0.999044844,0.016060481,0.005353494,0.005353494,0.005353494,-0.001293705,0.001293705,7.43E-12,-8.12E-12,8.69E-14,-7.42E-13,-0.001356043,0.001356043,-0.001356043,0.001356043,-0.001356043,0.001356043,-0.001356043,0.001356043,-0.001226186,0.001226186,-0.001226186,0.001226186,2.12E-13,1.05E-12,1.46E-12,3.92E-13,-0.001293705,0.001293705,-0.001356043,0.001356043,-0.001356043,0.001356043,-0.001356043,0.001356043,-0.001356043,0.001356043,-0.001226186,0.001226186,-0.001226186,0.001226186,-0.001226186,0.001226186,-0.001226186,0.001226186,-7.43E-12,8.09E-12,-0.001293705,0.001293705,-2.01E-13,8.57E-13,-0.001356043,0.001356043,-0.001356043,0.001356043,-0.001356043,0.001356043,-0.001356043,0.001356043,-0.001226186,0.001226186,-0.001226186,0.001226186,0.735125879,0.655437956,1368840,32768,0.005375731,0.005375731,0.005375731,14.40779418,14.39520421,3.05E-05,3.05E-05,3.05E-05,534898.7361,0.016258878
21752046,0.999058767,0.016060704,0.005353568,0.005353568,0.005353568,-0.001292216,0.001292216,7.48E-12,-8.04E-12,1.04E-13,-6.79E-13,-0.001355031,0.001355031,-0.001355031,0.001355031,-0.001355031,0.001355031,-0.001355031,0.001355031,-0.001224261,0.001224261,-0.001224261,0.001224261,2.23E-13,1.02E-12,1.46E-12,3.53E-13,-0.001292216,0.001292216,-0.001355031,0.001355031,-0.001355031,0.001355031,-0.001355031,0.001355031,-0.001355031,0.001355031,-0.001224261,0.001224261,-0.001224261,0.001224261,-0.001224261,0.001224261,-0.001224261,0.001224261,-7.39E-12,8.09E-12,-0.001292216,0.001292216,-2.13E-13,8.88E-13,-0.001355031,0.001355031,-0.001355031,0.001355031,-0.001355031,0.001355031,-0.001355031,0.001355031,-0.001224261,0.001224261,-0.001224261,0.001224261,0.73378616,0.636324685,1368840,32768,0.00536956,0.00536956,0.00536956,14.12109398,14.10850392,2.82E-05,2.82E-05,2.82E-05,562525.7673,0.01624007
21838446,0.999072253,0.01606092,0.00535364,0.00535364,0.00535364,-0.001291601,0.001291601,7.47E-12,-8.01E-12,1.11E-13,-6.86E-13,-0.001354477,0.001354477,-0.001354477,0.001354477,-0.001354477,0.001354477,-0.001354477,0.001354477,-0.00122359,0.00122359,-0.00122359,0.00122359,2.47E-13,1.05E-12,1.45E-12,3.30E-13,-0.001291601,0.001291601,-0.001354477,0.001354477,-0.001354477,0.001354477,-0.001354477,0.001354477,-0.001354477,0.001354477,-0.00122359,0.00122359,-0.00122359,0.00122359,-0.00122359,0.00122359,-0.00122359,0.00122359,-7.37E-12,8.07E-12,-0.001291601,0.001291601,-2.23E-13,8.94E-13,-0.001354477,0.001354477,-0.001354477,0.001354477,-0.001354477,0.001354477,-0.001354477,0.001354477,-0.00122359,0.00122359,-0.00122359,0.00122359,0.732378516,0.617211414,1368840,32768,0.005367009,0.005367009,0.005367009,13.85559862,13.84391846,2.60E-05,2.60E-05,2.60E-05,565224.2244,0.016232293
21924846,0.999085662,0.016061134,0.005353711,0.005353711,0.005353711,-0.001291753,0.001291753,7.47E-12,-8.02E-12,9.73E-14,-7.11E-13,-0.001354685,0.001354685,-0.001354685,0.001354685,-0.001354685,0.001354685,-0.001354685,0.001354685,-0.00122369,0.00122369,-0.00122369,0.00122369,2.41E-13,1.06E-12,1.45E-12,3.27E-13,-0.001291753,0.001291753,-0.001354685,0.001354685,-0.001354685,0.001354685,-0.001354685,0.001354685,-0.001354685,0.001354685,-0.00122369,0.00122369,-0.00122369,0.00122369,-0.00122369,0.00122369,-0.00122369,0.00122369,-7.36E-12,8.10E-12,-0.001291753,0.001291753,-1.99E-13,9.18E-13,-0.001354685,0.001354685,-0.001354685,0.001354685,-0.001354685,0.001354685,-0.001354685,0.001354685,-0.00122369,0.00122369,-0.00122369,0.00122369,0.730909269,0.598098143,1368840,32768,0.005367641,0.005367641,0.005367641,13.98925581,13.99472451,2.71E-05,2.71E-05,2.71E-05,567880.0625,0.016234219
22011246,0.999099006,0.016061347,0.005353782,0.005353782,0.005353782,-0.001291934,0.001291934,7.43E-12,-8.05E-12,9.39E-14,-7.07E-13,-0.00135493,0.00135493,-0.00135493,0.00135493,-0.00135493,0.00135493,-0.00135493,0.00135493,-0.001223813,0.001223813,-0.001223813,0.001223813,2.15E-13,1.03E-12,1.37E-12,3.45E-13,-0.001291934,0.001291934,-0.00135493,0.00135493,-0.00135493,0.00135493,-0.00135493,0.00135493,-0.00135493,0.00135493,-0.001223813,0.001223813,-0.001223813,0.001223813,-0.001223813,0.001223813,-0.001223813,0.001223813,-7.39E-12,8.06E-12,-0.001291934,0.001291934,-1.89E-13,8.33E-13,-0.00135493,0.00135493,-0.00135493,0.00135493,-0.00135493,0.00135493,-0.00135493,0.00135493,-0.001223813,0.001223813,-0.001223813,0.001223813,0.729386322,0.578984872,1368840,32768,0.005368389,0.005368389,0.005368389,14.13898553,14.14553056,2.83E-05,2.83E-05,2.83E-05,570787.4987,0.0162365
22097646,0.999112283,0.016061558,0.005353853,0.005353853,0.005353853,-0.001292114,0.001292114,7.48E-12,-8.06E-12,1.40E-13,-7.15E-13,-0.001355176,0.001355176,-0.001355176,0.001355176,-0.001355176,0.001355176,-0.001355176,0.001355176,-0.001223933,0.001223933,-0.001223933,0.001223933,1.75E-13,1.04E-12,1.36E-12,3.43E-13,-0.001292114,0.001292114,-0.001355176,0.001355176,-0.001355176,0.001355176,-0.001355176,0.001355176,-0.001355176,0.001355176,-0.001223933,0.001223933,-0.001223933,0.001223933,-0.001223933,0.001223933,-0.001223933,0.001223933,-7.46E-12,8.04E-12,-0.001292114,0.001292114,-2.05E-13,8.05E-13,-0.001355176,0.001355176,-0.001355176,0.001355176,-0.001355176,0.001355176,-0.001355176,0.001355176,-0.001223933,0.001223933,-0.001223933,0.001223933,0.727816178,0.559871602,1368840,32768,0.005369134,0.005369134,0.005369134,14.28971931,14.29633661,2.95E-05,2.95E-05,2.95E-05,573806.6382,0.016238771
22184046,0.999125493,0.016061767,0.005353922,0.005353922,0.005353922,-0.001292291,0.001292291,7.41E-12,-8.08E-12,1.17E-13,-7.95E-13,-0.001355421,0.001355421,-0.001355421,0.001355421,-0.001355421,0.001355421,-0.001355421,0.001355421,-0.00122405,0.00122405,-0.00122405,0.00122405,1.81E-13,1.10E-12,1.43E-12,3.40E-13,-0.001292291,0.001292291,-0.001355421,0.001355421,-0.001355421,0.001355421,-0.001355421,0.001355421,-0.001355421,0.001355421,-0.00122405,0.00122405,-0.00122405,0.00122405,-0.00122405,0.00122405,-0.00122405,0.00122405,-7.38E-12,8.09E-12,-0.001292291,0.001292291,-1.99E-13,8.83E-13,-0.001355421,0.001355421,-0.001355421,0.001355421,-0.001355421,0.001355421,-0.001355421,0.001355421,-0.00122405,0.00122405,-0.00122405,0.00122405,0.726204222,0.540758331,1368840,32768,0.005369868,0.005369868,0.005369868,14.4405204,14.44714266,3.07E-05,3.07E-05,3.07E-05,576926.124,0.01624101
22270446,0.999138632,0.016061977,0.005353992,0.005353992,0.005353992,-0.001292466,0.001292466,7.45E-12,-8.07E-12,1.42E-13,-7.60E-13,-0.001355665,0.001355665,-0.001355665,0.001355665,-0.001355665,0.001355665,-0.001355665,0.001355665,-0.001224162,0.001224162,-0.001224162,0.001224162,1.88E-13,1.10E-12,1.44E-12,4.04E-13,-0.001292466,0.001292466,-0.001355665,0.001355665,-0.001355665,0.001355665,-0.001355665,0.001355665,-0.001355665,0.001355665,-0.001224162,0.001224162,-0.001224162,0.001224162,-0.001224162,0.001224162,-0.001224162,0.001224162,-7.42E-12,8.07E-12,-0.001292466,0.001292466,-1.92E-13,8.43E-13,-0.001355665,0.001355665,-0.001355665,0.001355665,-0.001355665,0.001355665,-0.001355665,0.001355665,-0.001224162,0.001224162,-0.001224162,0.001224162,0.731243743,0.633988319,1368840,32768,0.005370591,0.005370591,0.005370591,14.59132618,14.59794871,3.19E-05,3.19E-05,3.19E-05,580143.6761,0.016243216
22356846,0.999151701,0.016062186,0.005354062,0.005354062,0.005354062,-0.001293362,0.001293362,7.47E-12,-8.09E-12,1.73E-13,-7.68E-13,-0.001356267,0.001356267,-0.001356267,0.001356267,-0.001356267,0.001356267,-0.001356267,0.001356267,-0.001225331,0.001225331,-0.001225331,0.001225331,1.83E-13,1.14E-12,1.54E-12,3.55E-13,-0.001293362,0.001293362,-0.001356267,0.001356267,-0.001356267,0.001356267,-0.001356267,0.001356267,-0.001356267,0.001356267,-0.001225331,0.001225331,-0.001225331,0.001225331,-0.001225331,0.001225331,-0.001225331,0.001225331,-7.43E-12,8.10E-12,-0.001293362,0.001293362,-2.54E-13,9.27E-13,-0.001356267,0.001356267,-0.001356267,0.001356267,-0.001356267,0.001356267,-0.001356267,0.001356267,-0.001225331,0.001225331,-0.001225331,0.001225331,0.732944791,0.665601064,1368840,32768,0.005374309,0.005374309,0.005374309,14.74213225,14.74875476,3.31E-05,3.31E-05,3.31E-05,561279.3779,0.016254546
22443246,0.999164696,0.016062394,0.005354131,0.005354131,0.005354131,-0.001293861,0.001293861,7.47E-12,-8.06E-12,1.09E-13,-7.06E-13,-0.001356669,0.001356669,-0.001356669,0.001356669,-0.001356669,0.001356669,-0.001356669,0.001356669,-0.001225918,0.001225918,-0.001225918,0.001225918,2.38E-13,1.06E-12,1.50E-12,3.42E-13,-0.001293861,0.001293861,-0.001356669,0.001356669,-0.001356669,0.001356669,-0.001356669,0.001356669,-0.001356669,0.001356669,-0.001225918,0.001225918,-0.001225918,0.001225918,-0.001225918,0.001225918,-0.001225918,0.001225918,-7.40E-12,8.10E-12,-0.001293861,0.001293861,-2.31E-13,9.22E-13,-0.001356669,0.001356669,-0.001356669,0.001356669,-0.001356669,0.001356669,-0.001356669,0.001356669,-0.001225918,0.001225918,-0.001225918,0.001225918,0.734486539,0.692394174,1368840,32768,0.005376375,0.005376375,0.005376375,14.89293836,14.89956081,3.43E-05,3.43E-05,3.43E-05,554550.3741,0.016260843
22529646,0.999177617,0.016062602,0.005354201,0.005354201,0.005354201,-0.001294328,0.001294328,7.43E-12,-8.00E-12,1.16E-13,-7.01E-13,-0.001357056,0.001357056,-0.001357056,0.001357056,-0.001357056,0.001357056,-0.001357056,0.001357056,-0.001226459,0.001226459,-0.001226459,0.001226459,2.13E-13,1.04E-12,1.42E-12,3.67E-13,-0.001294328,0.001294328,-0.001357056,0.001357056,-0.001357056,0.001357056,-0.001357056,0.001357056,-0.001357056,0.001357056,-0.001226459,0.001226459,-0.001226459,0.001226459,-0.001226459,0.001226459,-0.001226459,0.001226459,-7.37E-12,8.03E-12,-0.001294328,0.001294328,-1.96E-13,8.50E-13,-0.001357056,0.001357056,-0.001357056,0.001357056,-0.001357056,0.001357056,-0.001357056,0.001357056,-0.001226459,0.001226459,-0.001226459,0.001226459,0.735356491,0.705274397,1368840,32768,0.00537831,0.00537831,0.00537831,15.04374445,15.05036686,3.55E-05,3.55E-05,3.55E-05,548773.8354,0.016266743
22616046,0.999190455,0.016062809,0.00535427,0.00535427,0.00535427,-0.001294698,0.001294698,7.45E-12,-8.01E-12,1.15E-13,-6.61E-13,-0.001357388,0.001357388,-0.001357388,0.001357388,-0.001357388,0.001357388,-0.001357388,0.001357388,-0.001226866,0.001226866,-0.001226866,0.001226866,2.14E-13,1.00E-12,1.42E-12,3.69E-13,-0.001294698,0.001294698,-0.001357388,0.001357388,-0.001357388,0.001357388,-0.001357388,0.001357388,-0.001357388,0.001357388,-0.001226866,0.001226866,-0.001226866,0.001226866,-0.001226866,0.001226866,-0.001226866,0.001226866,-7.40E-12,8.03E-12,-0.001294698,0.001294698,-2.02E-13,8.43E-13,-0.001357388,0.001357388,-0.001357388,0.001357388,-0.001357388,0.001357388,-0.001357388,0.001357388,-0.001226866,0.001226866,-0.001226866,0.001226866,0.73629607,0.718154621,1368840,32768,0.005379847,0.005379847,0.005379847,15.18743224,15.19374915,3.67E-05,3.67E-05,3.67E-05,545464.9653,0.01627143
22702446,0.999203136,0.016063013,0.005354338,0.005354338,0.005354338,-0.001294892,0.001294892,7.44E-12,-8.02E-12,1.10E-13,-6.89E-13,-0.001357544,0.001357544,-0.001357544,0.001357544,-0.001357544,0.001357544,-0.001357544,0.001357544,-0.001227093,0.001227093,-0.001227093,0.001227093,2.22E-13,1.03E-12,1.41E-12,3.87E-13,-0.001294892,0.001294892,-0.001357544,0.001357544,-0.001357544,0.001357544,-0.001357544,0.001357544,-0.001357544,0.001357544,-0.001227093,0.001227093,-0.001227093,0.001227093,-0.001227093,0.001227093,-0.001227093,0.001227093,-7.39E-12,8.03E-12,-0.001294892,0.001294892,-1.88E-13,8.29E-13,-0.001357544,0.001357544,-0.001357544,0.001357544,-0.001357544,0.001357544,-0.001357544,0.001357544,-0.001227093,0.001227093,-0.001227093,0.001227093,0.737314477,0.731034844,1368840,32768,0.005380648,0.005380648,0.005380648,15.23933703,15.24170853,3.71E-05,3.71E-05,3.71E-05,542191.481,0.016273872
22788846,0.999215656,0.016063215,0.005354405,0.005354405,0.005354405,-0.001295078,0.001295078,7.45E-12,-8.00E-12,1.07E-13,-6.65E-13,-0.001357691,0.001357691,-0.001357691,0.001357691,-0.001357691,0.001357691,-0.001357691,0.001357691,-0.001227314,0.001227314,-0.001227314,0.001227314,2.37E-13,1.02E-12,1.41E-12,3.74E-13,-0.001295078,0.001295078,-0.001357691,0.001357691,-0.001357691,0.001357691,-0.001357691,0.001357691,-0.001357691,0.001357691,-0.001227314,0.001227314,-0.001227314,0.001227314,-0.001227314,0.001227314,-0.001227314,0.001227314,-7.39E-12,8.04E-12,-0.001295078,0.001295078,-1.89E-13,8.44E-13,-0.001357691,0.001357691,-0.001357691,0.001357691,-0.001357691,0.001357691,-0.001357691,0.001357691,-0.001227314,0.001227314,-0.001227314,0.001227314,0.738422495,0.743915067,1368840,32768,0.005381418,0.005381418,0.005381418,15.28754408,15.28966792,3.75E-05,3.75E-05,3.75E-05,538883.1456,0.016276219
22875246,0.999228017,0.016063409,0.00535447,0.00535447,0.00535447,-0.001295262,0.001295262,7.37E-12,-7.92E-12,1.08E-13,-6.45E-13,-0.001357836,0.001357836,-0.001357836,0.001357836,-0.001357836,0.001357836,-0.001357836,0.001357836,-0.001227533,0.001227533,-0.001227533,0.001227533,2.50E-13,1.01E-12,1.42E-12,3.33E-13,-0.001295262,0.001295262,-0.001357836,0.001357836,-0.001357836,0.001357836,-0.001357836,0.001357836,-0.001357836,0.001357836,-0.001227533,0.001227533,-0.001227533,0.001227533,-0.001227533,0.001227533,-0.001227533,0.001227533,-7.33E-12,7.94E-12,-0.001295262,0.001295262,-2.07E-13,8.81E-13,-0.001357836,0.001357836,-0.001357836,0.001357836,-0.001357836,0.001357836,-0.001357836,0.001357836,-0.001227533,0.001227533,-0.001227533,0.001227533,0.719860189,0.456493374,1368840,32768,0.005382183,0.005382183,0.005382183,15.33551994,15.3376273,3.79E-05,3.79E-05,3.79E-05,535575.2557,0.01627855
22961646,0.999240221,0.016063602,0.005354534,0.005354534,0.005354534,-0.001293558,0.001293558,7.34E-12,-7.93E-12,1.17E-13,-7.11E-13,-0.00135705,0.00135705,-0.00135705,0.00135705,-0.00135705,0.00135705,-0.00135705,0.00135705,-0.001224996,0.001224996,-0.001224996,0.001224996,2.17E-13,1.06E-12,1.42E-12,3.65E-13,-0.001293558,0.001293558,-0.00135705,0.00135705,-0.00135705,0.00135705,-0.00135705,0.00135705,-0.00135705,0.00135705,-0.001224996,0.001224996,-0.001224996,0.001224996,-0.001224996,0.001224996,-0.001224996,0.001224996,-7.29E-12,7.95E-12,-0.001293558,0.001293558,-1.91E-13,8.63E-13,-0.00135705,0.00135705,-0.00135705,0.00135705,-0.00135705,0.00135705,-0.00135705,0.00135705,-0.001224996,0.001224996,-0.001224996,0.001224996,0.72473304,0.546393088,1368840,32768,0.00537512,0.00537512,0.00537512,15.38348044,15.38558669,3.83E-05,3.83E-05,3.83E-05,590429.9315,0.016257026
23048046,0.99925227,0.016063794,0.005354598,0.005354598,0.005354598,-0.001294265,0.001294265,7.35E-12,-7.93E-12,1.10E-13,-6.96E-13,-0.001357464,0.001357464,-0.001357464,0.001357464,-0.001357464,0.001357464,-0.001357464,0.001357464,-0.001225973,0.001225973,-0.001225973,0.001225973,2.36E-13,1.05E-12,1.45E-12,3.96E-13,-0.001294265,0.001294265,-0.001357464,0.001357464,-0.001357464,0.001357464,-0.001357464,0.001357464,-0.001357464,0.001357464,-0.001225973,0.001225973,-0.001225973,0.001225973,-0.001225973,0.001225973,-0.001225973,0.001225973,-7.32E-12,7.92E-12,-0.001294265,0.001294265,-2.09E-13,8.42E-13,-0.001357464,0.001357464,-0.001357464,0.001357464,-0.001357464,0.001357464,-0.001357464,0.001357464,-0.001225973,0.001225973,-0.001225973,0.001225973,0.728900827,0.623951203,1368840,32768,0.005378047,0.005378047,0.005378047,15.43143993,15.43354607,3.87E-05,3.87E-05,3.87E-05,571245.1739,0.016265947
23134446,0.999264163,0.016063982,0.005354661,0.005354661,0.005354661,-0.001294856,0.001294856,7.34E-12,-7.93E-12,1.02E-13,-6.83E-13,-0.00135781,0.00135781,-0.00135781,0.00135781,-0.00135781,0.00135781,-0.00135781,0.00135781,-0.001226791,0.001226791,-0.001226791,0.001226791,2.33E-13,1.03E-12,1.42E-12,3.61E-13,-0.001294856,0.001294856,-0.00135781,0.00135781,-0.00135781,0.00135781,-0.00135781,0.00135781,-0.00135781,0.00135781,-0.001226791,0.001226791,-0.001226791,0.001226791,-0.001226791,0.001226791,-0.001226791,0.001226791,-7.31E-12,7.93E-12,-0.001294856,0.001294856,-2.14E-13,8.38E-13,-0.00135781,0.00135781,-0.00135781,0.00135781,-0.00135781,0.00135781,-0.00135781,0.00135781,-0.001226791,0.001226791,-0.001226791,0.001226791,0.725256456,0.567093903,1368840,32768,0.0053805,0.0053805,0.0053805,15.47939929,15.48150546,3.90E-05,3.90E-05,3.90E-05,555575.8331,0.016273423
23220846,0.999275904,0.016064169,0.005354723,0.005354723,0.005354723,-0.001294605,0.001294605,7.38E-12,-7.95E-12,9.40E-14,-6.75E-13,-0.00135773,0.00135773,-0.00135773,0.00135773,-0.00135773,0.00135773,-0.00135773,0.00135773,-0.001226382,0.001226382,-0.001226382,0.001226382,2.04E-13,9.85E-13,1.38E-12,3.37E-13,-0.001294605,0.001294605,-0.00135773,0.00135773,-0.00135773,0.00135773,-0.00135773,0.00135773,-0.00135773,0.00135773,-0.001226382,0.001226382,-0.001226382,0.001226382,-0.001226382,0.001226382,-0.001226382,0.001226382,-7.34E-12,7.95E-12,-0.001294605,0.001294605,-2.39E-13,8.02E-13,-0.00135773,0.00135773,-0.00135773,0.00135773,-0.00135773,0.00135773,-0.00135773,0.00135773,-0.001226382,0.001226382,-0.001226382,0.001226382,0.728635166,0.630180747,1368840,32768,0.00537946,0.00537946,0.00537946,15.5273587,15.52946484,3.94E-05,3.94E-05,3.94E-05,565530.5596,0.016270253
23307246,0.999287492,0.016064355,0.005354785,0.005354785,0.005354785,-0.001295102,0.001295102,7.35E-12,-7.96E-12,8.53E-14,-6.94E-13,-0.001358039,0.001358039,-0.001358039,0.001358039,-0.001358039,0.001358039,-0.001358039,0.001358039,-0.001227053,0.001227053,-0.001227053,0.001227053,2.30E-13,1.02E-12,1.41E-12,3.61E-13,-0.001295102,0.001295102,-0.001358039,0.001358039,-0.001358039,0.001358039,-0.001358039,0.001358039,-0.001358039,0.001358039,-0.001227053,0.001227053,-0.001227053,0.001227053,-0.001227053,0.001227053,-0.001227053,0.001227053,-7.32E-12,7.95E-12,-0.001295102,0.001295102,-2.17E-13,8.26E-13,-0.001358039,0.001358039,-0.001358039,0.001358039,-0.001358039,0.001358039,-0.001358039,0.001358039,-0.001227053,0.001227053,-0.001227053,0.001227053,0.73212408,0.693267592,1368840,32768,0.005381518,0.005381518,0.005381518,15.57531812,15.57742423,3.98E-05,3.98E-05,3.98E-05,552929.9332,0.016276524
23393646,0.999298942,0.016064537,0.005354846,0.005354846,0.005354846,-0.001295612,0.001295612,7.39E-12,-7.90E-12,1.30E-13,-6.53E-13,-0.001358363,0.001358363,-0.001358363,0.001358363,-0.001358363,0.001358363,-0.001358363,0.001358363,-0.001227735,0.001227735,-0.001227735,0.001227735,1.87E-13,9.81E-13,1.38E-12,3.36E-13,-0.001295612,0.001295612,-0.001358363,0.001358363,-0.001358363,0.001358363,-0.001358363,0.001358363,-0.001358363,0.001358363,-0.001227735,0.001227735,-0.001227735,0.001227735,-0.001227735,0.001227735,-0.001227735,0.001227735,-7.29E-12,7.97E-12,-0.001295612,0.001295612,-1.88E-13,8.52E-13,-0.001358363,0.001358363,-0.001358363,0.001358363,-0.001358363,0.001358363,-0.001358363,0.001358363,-0.001227735,0.001227735,-0.001227735,0.001227735,0.728229376,0.625774918,1368840,32768,0.005383633,0.005383633,0.005383633,15.63928447,15.64207753,4.03E-05,4.03E-05,4.03E-05,540787.7667,0.016282973
23480046,0.999310366,0.016064717,0.005354906,0.005354906,0.005354906,-0.001295652,0.001295652,7.27E-12,-7.96E-12,5.35E-14,-7.19E-13,-0.001358592,0.001358592,-0.001358592,0.001358592,-0.001358592,0.001358592,-0.001358592,0.001358592,-0.0012276,0.0012276,-0.0012276,0.0012276,2.79E-13,1.06E-12,1.47E-12,4.71E-13,-0.001295652,0.001295652,-0.001358592,0.001358592,-0.001358592,0.001358592,-0.001358592,0.001358592,-0.001358592,0.001358592,-0.0012276,0.0012276,-0.0012276,0.0012276,-0.0012276,0.0012276,-0.0012276,0.0012276,-7.34E-12,7.86E-12,-0.001295652,0.001295652,-1.48E-13,8.45E-13,-0.001358592,0.001358592,-0.001358592,0.001358592,-0.001358592,0.001358592,-0.001358592,0.001358592,-0.0012276,0.0012276,-0.0012276,0.0012276,0.722753922,0.539901514,1368840,32768,0.005383799,0.005383799,0.005383799,15.85850674,15.86797794,4.21E-05,4.21E-05,4.21E-05,551762.3994,0.016283479
23566446,0.999321766,0.016064898,0.005354966,0.005354966,0.005354966,-0.001295558,0.001295558,7.29E-12,-7.82E-12,1.18E-13,-7.55E-13,-0.001358766,0.001358766,-0.001358766,0.001358766,-0.001358766,0.001358766,-0.001358766,0.001358766,-0.001227262,0.001227262,-0.001227262,0.001227262,1.42E-13,1.03E-12,1.36E-12,4.33E-13,-0.001295558,0.001295558,-0.001358766,0.001358766,-0.001358766,0.001358766,-0.001358766,0.001358766,-0.001358766,0.001358766,-0.001227262,0.001227262,-0.001227262,0.001227262,-0.001227262,0.001227262,-0.001227262,0.001227262,-7.07E-12,8.00E-12,-0.001295558,0.001295558,1.61E-15,9.19E-13,-0.001358766,0.001358766,-0.001358766,0.001358766,-0.001358766,0.001358766,-0.001358766,0.001358766,-0.001227262,0.001227262,-0.001227262,0.001227262,0.72617516,0.604071109,1368840,32768,0.005383409,0.005383409,0.005383409,16.08398796,16.09387835,4.39E-05,4.39E-05,4.39E-05,567470.9402,0.016282294
23652846,0.99933314,0.01606508,0.005355027,0.005355027,0.005355027,-0.00129641,0.00129641,7.23E-12,-7.79E-12,1.20E-13,-6.95E-13,-0.001359428,0.001359428,-0.001359428,0.001359428,-0.001359428,0.001359428,-0.001359428,0.001359428,-0.00122829,0.00122829,-0.00122829,0.00122829,2.19E-13,1.05E-12,1.37E-12,4.49E-13,-0.00129641,0.00129641,-0.001359428,0.001359428,-0.001359428,0.001359428,-0.001359428,0.001359428,-0.001359428,0.001359428,-0.00122829,0.00122829,-0.00122829,0.00122829,-0.00122829,0.00122829,-0.00122829,0.00122829,-7.19E-12,7.80E-12,-0.00129641,0.00129641,-1.45E-13,7.72E-13,-0.001359428,0.001359428,-0.001359428,0.001359428,-0.001359428,0.001359428,-0.001359428,0.001359428,-0.00122829,0.00122829,-0.00122829,0.00122829,0.731917267,0.709868613,1368840,32768,0.00538694,0.00538694,0.00538694,16.30986052,16.31977876,4.57E-05,4.57E-05,4.57E-05,554539.3185,0.016293057
23739246,0.999344484,0.016065262,0.005355087,0.005355087,0.005355087,-0.001297483,0.001297483,7.27E-12,-7.74E-12,1.19E-13,-6.27E-13,-0.001360195,0.001360195,-0.001360195,0.001360195,-0.001360195,0.001360195,-0.001360195,0.001360195,-0.001229648,0.001229648,-0.001229648,0.001229648,2.76E-13,1.03E-12,1.33E-12,4.40E-13,-0.001297483,0.001297483,-0.001360195,0.001360195,-0.001360195,0.001360195,-0.001360195,0.001360195,-0.001360195,0.001360195,-0.001229648,0.001229648,-0.001229648,0.001229648,-0.001229648,0.001229648,-0.001229648,0.001229648,-7.16E-12,7.83E-12,-0.001297483,0.001297483,-1.20E-13,7.65E-13,-0.001360195,0.001360195,-0.001360195,0.001360195,-0.001360195,0.001360195,-0.001360195,0.001360195,-0.001229648,0.001229648,-0.001229648,0.001229648,0.736183702,0.777728874,1368840,32768,0.005391388,0.005391388,0.005391388,16.5357595,16.54567917,4.75E-05,4.75E-05,4.75E-05,534960.249,0.016306614
23825646,0.999355796,0.016065445,0.005355148,0.005355148,0.005355148,-0.001298313,0.001298313,7.10E-12,-7.73E-12,1.02E-13,-5.44E-13,-0.00136083,0.00136083,-0.00136083,0.00136083,-0.00136083,0.00136083,-0.00136083,0.00136083,-0.001230654,0.001230654,-0.001230654,0.001230654,8.68E-14,7.43E-13,1.42E-12,1.96E-13,-0.001298313,0.001298313,-0.00136083,0.00136083,-0.00136083,0.00136083,-0.00136083,0.00136083,-0.00136083,0.00136083,-0.001230654,0.001230654,-0.001230654,0.001230654,-0.001230654,0.001230654,-0.001230654,0.001230654,-7.22E-12,7.58E-12,-0.001298313,0.001298313,-3.02E-13,9.18E-13,-0.00136083,0.00136083,-0.00136083,0.00136083,-0.00136083,0.00136083,-0.00136083,0.00136083,-0.001230654,0.001230654,-0.001230654,0.001230654,0.740118796,0.825340629,1368840,32768,0.005394827,0.005394827,0.005394827,16.7616604,16.77157958,4.93E-05,4.93E-05,4.93E-05,522555.1109,0.016317098
23912046,0.999367072,0.016065628,0.005355209,0.005355209,0.005355209,-0.001299025,0.001299025,7.13E-12,-7.89E-12,5.71E-14,-7.87E-13,-0.001361407,0.001361407,-0.001361407,0.001361407,-0.001361407,0.001361407,-0.001361407,0.001361407,-0.001231484,0.001231484,-0.001231484,0.001231484,1.80E-13,1.03E-12,1.63E-12,3.13E-13,-0.001299025,0.001299025,-0.001361407,0.001361407,-0.001361407,0.001361407,-0.001361407,0.001361407,-0.001361407,0.001361407,-0.001231484,0.001231484,-0.001231484,0.001231484,-0.001231484,0.001231484,-0.001231484,0.001231484,-7.21E-12,7.78E-12,-0.001299025,0.001299025,-3.29E-13,9.81E-13,-0.001361407,0.001361407,-0.001361407,0.001361407,-0.001361407,0.001361407,-0.001361407,0.001361407,-0.001231484,0.001231484,-0.001231484,0.001231484,0.744666263,0.872952384,1368840,32768,0.00539778,0.00539778,0.00539778,16.98756159,16.99747999,5.11E-05,5.11E-05,5.11E-05,513540.526,0.0163261
23998446,0.99937831,0.016065812,0.005355271,0.005355271,0.005355271,-0.001299732,0.001299732,7.00E-12,-7.74E-12,1.57E-13,-8.29E-13,-0.001361982,0.001361982,-0.001361982,0.001361982,-0.001361982,0.001361982,-0.001361982,0.001361982,-0.001232304,0.001232304,-0.001232304,0.001232304,9.27E-14,1.09E-12,1.63E-12,3.32E-13,-0.001299732,0.001299732,-0.001361982,0.001361982,-0.001361982,0.001361982,-0.001361982,0.001361982,-0.001361982,0.001361982,-0.001232304,0.001232304,-0.001232304,0.001232304,-0.001232304,0.001232304,-0.001232304,0.001232304,-7.05E-12,7.66E-12,-0.001299732,0.001299732,-3.24E-13,9.69E-13,-0.001361982,0.001361982,-0.001361982,0.001361982,-0.001361982,0.001361982,-0.001361982,0.001361982,-0.001232304,0.001232304,-0.001232304,0.001232304,0.747080113,0.872438663,1368840,32768,0.005400708,0.005400708,0.005400708,17.21346226,17.2233804,5.29E-05,5.29E-05,5.29E-05,504611.7657,0.016335028
24084846,0.999389506,0.016065992,0.005355331,0.005355331,0.005355331,-0.001300198,0.001300198,6.97E-12,-7.62E-12,2.24E-13,-9.03E-13,-0.001362432,0.001362432,-0.001362432,0.001362432,-0.001362432,0.001362432,-0.001362432,0.001362432,-0.001232774,0.001232774,-0.001232774,0.001232774,1.29E-13,1.27E-12,1.52E-12,3.94E-13,-0.001300198,0.001300198,-0.001362432,0.001362432,-0.001362432,0.001362432,-0.001362432,0.001362432,-0.001362432,0.001362432,-0.001232774,0.001232774,-0.001232774,0.001232774,-0.001232774,0.001232774,-0.001232774,0.001232774,-6.86E-12,7.70E-12,-0.001300198,0.001300198,-1.77E-13,9.46E-13,-0.001362432,0.001362432,-0.001362432,0.001362432,-0.001362432,0.001362432,-0.001362432,0.001362432,-0.001232774,0.001232774,-0.001232774,0.001232774,0.73502229,0.661471038,1368840,32768,0.005402639,0.005402639,0.005402639,17.43936069,17.44928081,5.47E-05,5.47E-05,5.47E-05,502648.1219,0.016340917
24171246,0.999400647,0.016066171,0.00535539,0.00535539,0.00535539,-0.001299491,0.001299491,7.01E-12,-7.63E-12,1.88E-13,-7.70E-13,-0.001362288,0.001362288,-0.001362288,0.001362288,-0.001362288,0.001362288,-0.001362288,0.001362288,-0.001231553,0.001231553,-0.001231553,0.001231553,1.76E-13,1.14E-12,1.44E-12,3.79E-13,-0.001299491,0.001299491,-0.001362288,0.001362288,-0.001362288,0.001362288,-0.001362288,0.001362288,-0.001362288,0.001362288,-0.001231553,0.001231553,-0.001231553,0.001231553,-0.001231553,0.001231553,-0.001231553,0.001231553,-6.93E-12,7.68E-12,-0.001299491,0.001299491,-1.69E-13,8.86E-13,-0.001362288,0.001362288,-0.001362288,0.001362288,-0.001362288,0.001362288,-0.001362288,0.001362288,-0.001231553,0.001231553,-0.001231553,0.001231553,0.736067371,0.683717239,1368840,32768,0.005399709,0.005399709,0.005399709,17.64917717,17.65840714,5.64E-05,5.64E-05,5.64E-05,535508.0034,0.016331989
24257646,0.999411643,0.016066348,0.005355449,0.005355449,0.005355449,-0.001299794,0.001299794,7.00E-12,-7.60E-12,1.47E-13,-7.79E-13,-0.001362535,0.001362535,-0.001362535,0.001362535,-0.001362535,0.001362535,-0.001362535,0.001362535,-0.001231909,0.001231909,-0.001231909,0.001231909,1.66E-13,1.10E-12,1.42E-12,3.79E-13,-0.001299794,0.001299794,-0.001362535,0.001362535,-0.001362535,0.001362535,-0.001362535,0.001362535,-0.001362535,0.001362535,-0.001231909,0.001231909,-0.001231909,0.001231909,-0.001231909,0.001231909,-0.001231909,0.001231909,-6.94E-12,7.63E-12,-0.001299794,0.001299794,-1.75E-13,8.63E-13,-0.001362535,0.001362535,-0.001362535,0.001362535,-0.001362535,0.001362535,-0.001362535,0.001362535,-0.001231909,0.001231909,-0.001231909,0.001231909,0.737248341,0.70596344,1368840,32768,0.005400964,0.005400964,0.005400964,17.73511762,17.73901627,5.71E-05,5.71E-05,5.71E-05,531085.4458,0.016335816
24344046,0.999422492,0.016066523,0.005355508,0.005355508,0.005355508,-0.001300087,0.001300087,7.00E-12,-7.61E-12,1.65E-13,-7.81E-13,-0.001362766,0.001362766,-0.001362766,0.001362766,-0.001362766,0.001362766,-0.001362766,0.001362766,-0.001232257,0.001232257,-0.001232257,0.001232257,1.81E-13,1.14E-12,1.44E-12,3.88E-13,-0.001300087,0.001300087,-0.001362766,0.001362766,-0.001362766,0.001362766,-0.001362766,0.001362766,-0.001362766,0.001362766,-0.001232257,0.001232257,-0.001232257,0.001232257,-0.001232257,0.001232257,-0.001232257,0.001232257,-6.96E-12,7.62E-12,-0.001300087,0.001300087,-1.95E-13,8.53E-13,-0.001362766,0.001362766,-0.001362766,0.001362766,-0.001362766,0.001362766,-0.001362766,0.001362766,-0.001232257,0.001232257,-0.001232257,0.001232257,0.738589161,0.72820964,1368840,32768,0.005402179,0.005402179,0.005402179,17.81606153,17.81962541,5.77E-05,5.77E-05,5.77E-05,526568.8287,0.016339519
24430446,0.999433196,0.016066695,0.005355565,0.005355565,0.005355565,-0.001300379,0.001300379,7.02E-12,-7.63E-12,1.67E-13,-8.18E-13,-0.001362998,0.001362998,-0.001362998,0.001362998,-0.001362998,0.001362998,-0.001362998,0.001362998,-0.001232604,0.001232604,-0.001232604,0.001232604,1.85E-13,1.18E-12,1.48E-12,4.43E-13,-0.001300379,0.001300379,-0.001362998,0.001362998,-0.001362998,0.001362998,-0.001362998,0.001362998,-0.001362998,0.001362998,-0.001232604,0.001232604,-0.001232604,0.001232604,-0.001232604,0.001232604,-0.001232604,0.001232604,-6.95E-12,7.68E-12,-0.001300379,0.001300379,-1.54E-13,8.82E-13,-0.001362998,0.001362998,-0.001362998,0.001362998,-0.001362998,0.001362998,-0.001362998,0.001362998,-0.001232604,0.001232604,-0.001232604,0.001232604,0.736128606,0.685495128,1368840,32768,0.005403389,0.005403389,0.005403389,17.89669304,17.90023454,5.84E-05,5.84E-05,5.84E-05,522054.036,0.016343208
24516846,0.999443754,0.016066866,0.005355622,0.005355622,0.005355622,-0.00130031,0.00130031,6.99E-12,-7.65E-12,1.22E-13,-7.93E-13,-0.001363045,0.001363045,-0.001363045,0.001363045,-0.001363045,0.001363045,-0.001363045,0.001363045,-0.001232428,0.001232428,-0.001232428,0.001232428,1.51E-13,1.08E-12,1.38E-12,3.45E-13,-0.00130031,0.00130031,-0.001363045,0.001363045,-0.001363045,0.001363045,-0.001363045,0.001363045,-0.001363045,0.001363045,-0.001232428,0.001232428,-0.001232428,0.001232428,-0.001232428,0.001232428,-0.001232428,0.001232428,-6.98E-12,7.63E-12,-0.00130031,0.00130031,-1.83E-13,8.50E-13,-0.001363045,0.001363045,-0.001363045,0.001363045,-0.001363045,0.001363045,-0.001363045,0.001363045,-0.001232428,0.001232428,-0.001232428,0.001232428,0.739785253,0.749580889,1368840,32768,0.005403104,0.005403104,0.005403104,17.97730385,17.98084368,5.90E-05,5.90E-05,5.90E-05,528328.2327,0.016342339
24603246,0.999454168,0.016067035,0.005355678,0.005355678,0.005355678,-0.001300831,0.001300831,7.04E-12,-7.60E-12,1.27E-13,-6.96E-13,-0.001363396,0.001363396,-0.001363396,0.001363396,-0.001363396,0.001363396,-0.001363396,0.001363396,-0.001233106,0.001233106,-0.001233106,0.001233106,2.04E-13,1.04E-12,1.39E-12,3.77E-13,-0.001300831,0.001300831,-0.001363396,0.001363396,-0.001363396,0.001363396,-0.001363396,0.001363396,-0.001363396,0.001363396,-0.001233106,0.001233106,-0.001233106,0.001233106,-0.001233106,0.001233106,-0.001233106,0.001233106,-6.97E-12,7.63E-12,-0.001300831,0.001300831,-1.85E-13,8.28E-13,-0.001363396,0.001363396,-0.001363396,0.001363396,-0.001363396,0.001363396,-0.001363396,0.001363396,-0.001233106,0.001233106,-0.001233106,0.001233106,0.744083395,0.81366665,1368840,32768,0.005405264,0.005405264,0.005405264,18.05791336,18.06145281,5.97E-05,5.97E-05,5.97E-05,517016.9683,0.016348923
24689646,0.999464439,0.016067204,0.005355735,0.005355735,0.005355735,-0.001301341,0.001301341,7.01E-12,-7.63E-12,1.36E-13,-7.49E-13,-0.001363731,0.001363731,-0.001363731,0.001363731,-0.001363731,0.001363731,-0.001363731,0.001363731,-0.001233772,0.001233772,-0.001233772,0.001233772,1.92E-13,1.09E-12,1.46E-12,3.59E-13,-0.001301341,0.001301341,-0.001363731,0.001363731,-0.001363731,0.001363731,-0.001363731,0.001363731,-0.001363731,0.001363731,-0.001233772,0.001233772,-0.001233772,0.001233772,-0.001233772,0.001233772,-0.001233772,0.001233772,-6.96E-12,7.64E-12,-0.001301341,0.001301341,-2.12E-13,8.88E-13,-0.001363731,0.001363731,-0.001363731,0.001363731,-0.001363731,0.001363731,-0.001363731,0.001363731,-0.001233772,0.001233772,-0.001233772,0.001233772,0.749131951,0.877752411,1368840,32768,0.005407377,0.005407377,0.005407377,18.1385229,18.14206194,6.03E-05,6.03E-05,6.03E-05,505827.2083,0.016355363
24776046,0.999474567,0.016067365,0.005355788,0.005355788,0.005355788,-0.001301839,0.001301839,7.05E-12,-7.66E-12,1.06E-13,-6.98E-13,-0.001364062,0.001364062,-0.001364062,0.001364062,-0.001364062,0.001364062,-0.001364062,0.001364062,-0.001234419,0.001234419,-0.001234419,0.001234419,2.12E-13,1.03E-12,1.37E-12,4.23E-13,-0.001301839,0.001301839,-0.001364062,0.001364062,-0.001364062,0.001364062,-0.001364062,0.001364062,-0.001364062,0.001364062,-0.001234419,0.001234419,-0.001234419,0.001234419,-0.001234419,0.001234419,-0.001234419,0.001234419,-7.04E-12,7.64E-12,-0.001301839,0.001301839,-1.92E-13,7.55E-13,-0.001364062,0.001364062,-0.001364062,0.001364062,-0.001364062,0.001364062,-0.001364062,0.001364062,-0.001234419,0.001234419,-0.001234419,0.001234419,0.72943366,0.561687859,1368840,32768,0.005409443,0.005409443,0.005409443,18.21913116,18.22267108,6.10E-05,6.10E-05,6.10E-05,494893.6018,0.016361661
24862446,0.999484554,0.016067523,0.005355841,0.005355841,0.005355841,-0.001300266,0.001300266,7.00E-12,-7.68E-12,6.41E-14,-7.45E-13,-0.001363351,0.001363351,-0.001363351,0.001363351,-0.001363351,0.001363351,-0.001363351,0.001363351,-0.00123206,0.00123206,-0.00123206,0.00123206,2.40E-13,1.06E-12,1.27E-12,4.66E-13,-0.001300266,0.001300266,-0.001363351,0.001363351,-0.001363351,0.001363351,-0.001363351,0.001363351,-0.001363351,0.001363351,-0.00123206,0.00123206,-0.00123206,0.00123206,-0.00123206,0.00123206,-0.00123206,0.00123206,-7.05E-12,7.60E-12,-0.001300266,0.001300266,-1.20E-13,6.76E-13,-0.001363351,0.001363351,-0.001363351,0.001363351,-0.001363351,0.001363351,-0.001363351,0.001363351,-0.00123206,0.00123206,-0.00123206,0.00123206,0.723427444,0.480193115,1368840,32768,0.005402919,0.005402919,0.005402919,18.29974022,18.30328021,6.16E-05,6.16E-05,6.16E-05,546654.1673,0.016341779
24948846,0.999494417,0.016067679,0.005355893,0.005355893,0.005355893,-0.001299945,0.001299945,7.10E-12,-7.59E-12,1.13E-13,-6.98E-13,-0.001363316,0.001363316,-0.001363316,0.001363316,-0.001363316,0.001363316,-0.001363316,0.001363316,-0.001231481,0.001231481,-0.001231481,0.001231481,2.19E-13,1.04E-12,1.23E-12,5.20E-13,-0.001299945,0.001299945,-0.001363316,0.001363316,-0.001363316,0.001363316,-0.001363316,0.001363316,-0.001363316,0.001363316,-0.001231481,0.001231481,-0.001231481,0.001231481,-0.001231481,0.001231481,-0.001231481,0.001231481,-7.15E-12,7.51E-12,-0.001299945,0.001299945,-7.99E-14,6.33E-13,-0.001363316,0.001363316,-0.001363316,0.001363316,-0.001363316,0.001363316,-0.001363316,0.001363316,-0.001231481,0.001231481,-0.001231481,0.001231481,0.725447081,0.525480197,1368840,32768,0.005401589,0.005401589,0.005401589,18.40652854,18.41119201,6.25E-05,6.25E-05,6.25E-05,562807.2821,0.016337725
25035246,0.999504256,0.016067836,0.005355945,0.005355945,0.005355945,-0.001300765,0.001300765,7.12E-12,-7.63E-12,9.52E-14,-7.52E-13,-0.001364003,0.001364003,-0.001364003,0.001364003,-0.001364003,0.001364003,-0.001364003,0.001364003,-0.001232425,0.001232425,-0.001232425,0.001232425,2.30E-13,1.09E-12,1.33E-12,4.84E-13,-0.001300765,0.001300765,-0.001364003,0.001364003,-0.001364003,0.001364003,-0.001364003,0.001364003,-0.001364003,0.001364003,-0.001232425,0.001232425,-0.001232425,0.001232425,-0.001232425,0.001232425,-0.001232425,0.001232425,-7.26E-12,7.46E-12,-0.001300765,0.001300765,-2.04E-13,6.37E-13,-0.001364003,0.001364003,-0.001364003,0.001364003,-0.001364003,0.001364003,-0.001364003,0.001364003,-0.001232425,0.001232425,-0.001232425,0.001232425,0.727584978,0.57076728,1368840,32768,0.005404987,0.005404987,0.005404987,18.67915876,18.69096448,6.46E-05,6.46E-05,6.46E-05,553533.8133,0.016348085
25121646,0.999514073,0.016067992,0.005355997,0.005355997,0.005355997,-0.001301591,0.001301591,7.27E-12,-7.38E-12,3.96E-13,-4.48E-13,-0.001364695,0.001364695,-0.001364695,0.001364695,-0.001364695,0.001364695,-0.001364695,0.001364695,-0.001233376,0.001233376,-0.001233376,0.001233376,1.96E-13,1.05E-12,1.17E-12,2.92E-13,-0.001301591,0.001301591,-0.001364695,0.001364695,-0.001364695,0.001364695,-0.001364695,0.001364695,-0.001364695,0.001364695,-0.001233376,0.001233376,-0.001233376,0.001233376,-0.001233376,0.001233376,-0.001233376,0.001233376,-7.17E-12,7.45E-12,-0.001301591,0.001301591,-2.71E-13,6.04E-13,-0.001364695,0.001364695,-0.001364695,0.001364695,-0.001364695,0.001364695,-0.001364695,0.001364695,-0.001233376,0.001233376,-0.001233376,0.001233376,0.729834645,0.616054363,1368840,32768,0.005408412,0.005408412,0.005408412,18.95848278,18.97073694,6.69E-05,6.69E-05,6.69E-05,544452.0875,0.016358527
25208046,0.999523864,0.016068149,0.00535605,0.00535605,0.00535605,-0.001302412,0.001302412,6.86E-12,-7.75E-12,-3.72E-16,-9.06E-13,-0.001365382,0.001365382,-0.001365382,0.001365382,-0.001365382,0.001365382,-0.001365382,0.001365382,-0.00123432,0.00123432,-0.00123432,0.00123432,3.72E-13,1.29E-12,1.41E-12,5.40E-13,-0.001302412,0.001302412,-0.001365382,0.001365382,-0.001365382,0.001365382,-0.001365382,0.001365382,-0.001365382,0.001365382,-0.00123432,0.00123432,-0.00123432,0.00123432,-0.00123432,0.00123432,-0.00123432,0.00123432,-6.97E-12,7.60E-12,-0.001302412,0.001302412,-1.63E-13,6.97E-13,-0.001365382,0.001365382,-0.001365382,0.001365382,-0.001365382,0.001365382,-0.001365382,0.001365382,-0.00123432,0.00123432,-0.00123432,0.00123432,0.732212118,0.661341445,1368840,32768,0.005411812,0.005411812,0.005411812,19.23822525,19.2505094,6.91E-05,6.91E-05,6.91E-05,535572.1989,0.016368893
25294446,0.999533625,0.016068305,0.005356102,0.005356102,0.005356102,-0.001303225,0.001303225,6.94E-12,-7.59E-12,7.57E-14,-7.00E-13,-0.001366061,0.001366061,-0.001366061,0.001366061,-0.001366061,0.001366061,-0.001366061,0.001366061,-0.001235257,0.001235257,-0.001235257,0.001235257,2.76E-13,1.06E-12,1.30E-12,4.36E-13,-0.001303225,0.001303225,-0.001366061,0.001366061,-0.001366061,0.001366061,-0.001366061,0.001366061,-0.001366061,0.001366061,-0.001235257,0.001235257,-0.001235257,0.001235257,-0.001235257,0.001235257,-0.001235257,0.001235257,-6.95E-12,7.54E-12,-0.001303225,0.001303225,-1.39E-13,7.24E-13,-0.001366061,0.001366061,-0.001366061,0.001366061,-0.001366061,0.001366061,-0.001366061,0.001366061,-0.001235257,0.001235257,-0.001235257,0.001235257,0.734780005,0.706628528,1368840,32768,0.005415183,0.005415183,0.005415183,19.51799589,19.53028187,7.13E-05,7.13E-05,7.13E-05,526873.0432,0.016379171
25380846,0.999543353,0.016068463,0.005356154,0.005356154,0.005356154,-0.001304032,0.001304032,7.02E-12,-7.50E-12,1.54E-13,-6.46E-13,-0.00136674,0.00136674,-0.00136674,0.00136674,-0.00136674,0.00136674,-0.00136674,0.00136674,-0.001236181,0.001236181,-0.001236181,0.001236181,2.32E-13,1.04E-12,1.39E-12,4.39E-13,-0.001304032,0.001304032,-0.00136674,0.00136674,-0.00136674,0.00136674,-0.00136674,0.00136674,-0.00136674,0.00136674,-0.001236181,0.001236181,-0.001236181,0.001236181,-0.001236181,0.001236181,-0.001236181,0.001236181,-6.92E-12,7.57E-12,-0.001304032,0.001304032,-1.95E-13,7.51E-13,-0.00136674,0.00136674,-0.00136674,0.00136674,-0.00136674,0.00136674,-0.00136674,0.00136674,-0.001236181,0.001236181,-0.001236181,0.001236181,0.740904742,0.806996563,1368840,32768,0.005418527,0.005418527,0.005418527,19.79776937,19.81005433,7.36E-05,7.36E-05,7.36E-05,518413.1016,0.016389366
25467246,0.99955304,0.016068622,0.005356207,0.005356207,0.005356207,-0.00130511,0.00130511,7.17E-12,-7.64E-12,7.15E-14,-4.94E-13,-0.001367546,0.001367546,-0.001367546,0.001367546,-0.001367546,0.001367546,-0.001367546,0.001367546,-0.001237507,0.001237507,-0.001237507,0.001237507,4.78E-13,1.05E-12,1.46E-12,2.66E-13,-0.00130511,0.00130511,-0.001367546,0.001367546,-0.001367546,0.001367546,-0.001367546,0.001367546,-0.001367546,0.001367546,-0.001237507,0.001237507,-0.001237507,0.001237507,-0.001237507,0.001237507,-0.001237507,0.001237507,-7.18E-12,7.60E-12,-0.00130511,0.00130511,-2.38E-13,9.51E-13,-0.001367546,0.001367546,-0.001367546,0.001367546,-0.001367546,0.001367546,-0.001367546,0.001367546,-0.001237507,0.001237507,-0.001237507,0.001237507,0.750110404,0.971894127,1368840,32768,0.005422996,0.005422996,0.005422996,20.07218695,20.08982679,7.58E-05,7.58E-05,7.58E-05,501434.9703,0.016402988
25553646,0.999562685,0.01606878,0.00535626,0.00535626,0.00535626,-0.001306456,0.001306456,7.26E-12,-7.81E-12,5.10E-14,-5.69E-13,-0.001368495,0.001368495,-0.001368495,0.001368495,-0.001368495,0.001368495,-0.001368495,0.001368495,-0.001239217,0.001239217,-0.001239217,0.001239217,1.90E-13,8.21E-13,1.29E-12,3.45E-13,-0.001306456,0.001306456,-0.001368495,0.001368495,-0.001368495,0.001368495,-0.001368495,0.001368495,-0.001368495,0.001368495,-0.001239217,0.001239217,-0.001239217,0.001239217,-0.001239217,0.001239217,-0.001239217,0.001239217,-7.21E-12,7.84E-12,-0.001306456,0.001306456,-1.66E-13,7.71E-13,-0.001368495,0.001368495,-0.001368495,0.001368495,-0.001368495,0.001368495,-0.001368495,0.001368495,-0.001239217,0.001239217,-0.001239217,0.001239217,0.749837078,0.891165019,1368840,32768,0.005428575,0.005428575,0.005428575,20.35146154,20.36959926,7.80E-05,7.80E-05,7.80E-05,477236.9719,0.016419996
25640046,0.999572286,0.016068938,0.005356313,0.005356313,0.005356313,-0.001306664,0.001306664,6.94E-12,-7.82E-12,1.05E-13,-5.99E-13,-0.001368859,0.001368859,-0.001368859,0.001368859,-0.001368859,0.001368859,-0.001368859,0.001368859,-0.001239265,0.001239265,-0.001239265,0.001239265,7.39E-13,1.45E-12,1.60E-12,6.83E-13,-0.001306664,0.001306664,-0.001368859,0.001368859,-0.001368859,0.001368859,-0.001368859,0.001368859,-0.001368859,0.001368859,-0.001239265,0.001239265,-0.001239265,0.001239265,-0.001239265,0.001239265,-0.001239265,0.001239265,-6.54E-12,8.19E-12,-0.001306664,0.001306664,3.80E-13,1.29E-12,-0.001368859,0.001368859,-0.001368859,0.001368859,-0.001368859,0.001368859,-0.001368859,0.001368859,-0.001239265,0.001239265,-0.001239265,0.001239265,0.752124992,0.885662674,1368840,32768,0.005429436,0.005429436,0.005429436,20.63117247,20.64937172,8.02E-05,8.02E-05,8.02E-05,485451.8145,0.016422624
25726446,0.999581808,0.016069094,0.005356365,0.005356365,0.005356365,-0.00130711,0.00130711,7.09E-12,-7.65E-12,5.86E-14,-5.38E-13,-0.001369308,0.001369308,-0.001369308,0.001369308,-0.001369308,0.001369308,-0.001369308,0.001369308,-0.0012397,0.0012397,-0.0012397,0.0012397,2.46E-13,8.53E-13,1.23E-12,3.25E-13,-0.00130711,0.00130711,-0.001369308,0.001369308,-0.001369308,0.001369308,-0.001369308,0.001369308,-0.001369308,0.001369308,-0.0012397,0.0012397,-0.0012397,0.0012397,-0.0012397,0.0012397,-0.0012397,0.0012397,-7.08E-12,7.63E-12,-0.00130711,0.00130711,-1.86E-13,7.13E-13,-0.001369308,0.001369308,-0.001369308,0.001369308,-0.001369308,0.001369308,-0.001369308,0.001369308,-0.0012397,0.0012397,-0.0012397,0.0012397,0.750257645,0.822760343,1368840,32768,0.005431283,0.005431283,0.005431283,20.86022136,20.87524931,8.21E-05,8.21E-05,8.21E-05,484405.0787,0.016428256
25812846,0.999591095,0.016069246,0.005356415,0.005356415,0.005356415,-0.001306745,0.001306745,7.12E-12,-7.64E-12,5.64E-14,-5.53E-13,-0.001369092,0.001369092,-0.001369092,0.001369092,-0.001369092,0.001369092,-0.001369092,0.001369092,-0.001239195,0.001239195,-0.001239195,0.001239195,2.98E-13,9.18E-13,1.30E-12,4.12E-13,-0.001306745,0.001306745,-0.001369092,0.001369092,-0.001369092,0.001369092,-0.001369092,0.001369092,-0.001369092,0.001369092,-0.001239195,0.001239195,-0.001239195,0.001239195,-0.001239195,0.001239195,-0.001239195,0.001239195,-7.07E-12,7.66E-12,-0.001306745,0.001306745,-1.54E-13,7.32E-13,-0.001369092,0.001369092,-0.001369092,0.001369092,-0.001369092,0.001369092,-0.001369092,0.001369092,-0.001239195,0.001239195,-0.001239195,0.001239195,0.750072787,0.804090364,1368840,32768,0.005429772,0.005429772,0.005429772,20.81764287,20.81546458,8.17E-05,8.17E-05,8.17E-05,492074.8928,0.016423652
25899246,0.999600143,0.016069394,0.005356465,0.005356465,0.005356465,-0.001306555,0.001306555,7.15E-12,-7.62E-12,6.47E-14,-5.28E-13,-0.001368948,0.001368948,-0.001368948,0.001368948,-0.001368948,0.001368948,-0.001368948,0.001368948,-0.00123896,0.00123896,-0.00123896,0.00123896,2.89E-13,8.93E-13,1.29E-12,4.24E-13,-0.001306555,0.001306555,-0.001368948,0.001368948,-0.001368948,0.001368948,-0.001368948,0.001368948,-0.001368948,0.001368948,-0.00123896,0.00123896,-0.00123896,0.00123896,-0.00123896,0.00123896,-0.00123896,0.00123896,-7.07E-12,7.67E-12,-0.001306555,0.001306555,-1.32E-13,7.27E-13,-0.001368948,0.001368948,-0.001368948,0.001368948,-0.001368948,0.001368948,-0.001368948,0.001368948,-0.00123896,0.00123896,-0.00123896,0.00123896,0.749534204,0.785420385,1368840,32768,0.005428984,0.005428984,0.005428984,20.7594076,20.75567986,8.13E-05,8.13E-05,8.13E-05,493820.4814,0.01642125
25985646,0.999608958,0.016069538,0.005356513,0.005356513,0.005356513,-0.001306358,0.001306358,7.14E-12,-7.64E-12,2.98E-14,-5.19E-13,-0.001368798,0.001368798,-0.001368798,0.001368798,-0.001368798,0.001368798,-0.001368798,0.001368798,-0.001238718,0.001238718,-0.001238718,0.001238718,3.10E-13,8.70E-13,1.26E-12,4.38E-13,-0.001306358,0.001306358,-0.001368798,0.001368798,-0.001368798,0.001368798,-0.001368798,0.001368798,-0.001368798,0.001368798,-0.001238718,0.001238718,-0.001238718,0.001238718,-0.001238718,0.001238718,-0.001238718,0.001238718,-7.07E-12,7.68E-12,-0.001306358,0.001306358,-1.33E-13,6.87E-13,-0.001368798,0.001368798,-0.001368798,0.001368798,-0.001368798,0.001368798,-0.001368798,0.001368798,-0.001238718,0.001238718,-0.001238718,0.001238718,0.746899947,0.739499314,1368840,32768,0.005428167,0.005428167,0.005428167,20.69977183,20.69589514,8.08E-05,8.08E-05,8.08E-05,495743.1536,0.016418759
26072046,0.999617548,0.016069675,0.005356558,0.005356558,0.005356558,-0.001306013,0.001306013,7.16E-12,-7.69E-12,-5.58E-15,-5.28E-13,-0.001368575,0.001368575,-0.001368575,0.001368575,-0.001368575,0.001368575,-0.001368575,0.001368575,-0.00123826,0.00123826,-0.00123826,0.00123826,3.50E-13,8.83E-13,1.31E-12,4.31E-13,-0.001306013,0.001306013,-0.001368575,0.001368575,-0.001368575,0.001368575,-0.001368575,0.001368575,-0.001368575,0.001368575,-0.00123826,0.00123826,-0.00123826,0.00123826,-0.00123826,0.00123826,-0.00123826,0.00123826,-7.12E-12,7.70E-12,-0.001306013,0.001306013,-1.16E-13,7.56E-13,-0.001368575,0.001368575,-0.001368575,0.001368575,-0.001368575,0.001368575,-0.001368575,0.001368575,-0.00123826,0.00123826,-0.00123826,0.00123826,0.729538146,0.486969739,1368840,32768,0.005426738,0.005426738,0.005426738,20.64000183,20.63611042,8.03E-05,8.03E-05,8.03E-05,502179.9737,0.016414403
26158446,0.999625918,0.016069811,0.005356604,0.005356604,0.005356604,-0.001304418,0.001304418,7.15E-12,-7.65E-12,4.41E-14,-5.49E-13,-0.001367738,0.001367738,-0.001367738,0.001367738,-0.001367738,0.001367738,-0.001367738,0.001367738,-0.001235977,0.001235977,-0.001235977,0.001235977,2.89E-13,8.93E-13,1.26E-12,4.82E-13,-0.001304418,0.001304418,-0.001367738,0.001367738,-0.001367738,0.001367738,-0.001367738,0.001367738,-0.001367738,0.001367738,-0.001235977,0.001235977,-0.001235977,0.001235977,-0.001235977,0.001235977,-0.001235977,0.001235977,-7.11E-12,7.66E-12,-0.001304418,0.001304418,-1.04E-13,6.67E-13,-0.001367738,0.001367738,-0.001367738,0.001367738,-0.001367738,0.001367738,-0.001367738,0.001367738,-0.001235977,0.001235977,-0.001235977,0.001235977,0.743152286,0.745052665,1368840,32768,0.005420124,0.005420124,0.005420124,20.58021733,20.5763257,7.98E-05,7.98E-05,7.98E-05,547278.1782,0.016394242
26244846,0.999634076,0.016069945,0.005356648,0.005356648,0.005356648,-0.001305792,0.001305792,7.15E-12,-7.64E-12,3.50E-14,-5.21E-13,-0.001368372,0.001368372,-0.001368372,0.001368372,-0.001368372,0.001368372,-0.001368372,0.001368372,-0.001238036,0.001238036,-0.001238036,0.001238036,3.03E-13,8.69E-13,1.26E-12,4.54E-13,-0.001305792,0.001305792,-0.001368372,0.001368372,-0.001368372,0.001368372,-0.001368372,0.001368372,-0.001368372,0.001368372,-0.001238036,0.001238036,-0.001238036,0.001238036,-0.001238036,0.001238036,-0.001238036,0.001238036,-7.10E-12,7.65E-12,-0.001305792,0.001305792,-1.13E-13,6.92E-13,-0.001368372,0.001368372,-0.001368372,0.001368372,-0.001368372,0.001368372,-0.001368372,0.001368372,-0.001238036,0.001238036,-0.001238036,0.001238036,0.751787693,0.890631438,1368840,32768,0.005425823,0.005425823,0.005425823,20.52043037,20.51654097,7.94E-05,7.94E-05,7.94E-05,502037.6696,0.01641161
26331246,0.999642026,0.016070076,0.005356692,0.005356692,0.005356692,-0.001306413,0.001306413,7.15E-12,-7.65E-12,3.92E-14,-5.34E-13,-0.00136863,0.00136863,-0.00136863,0.00136863,-0.00136863,0.00136863,-0.00136863,0.00136863,-0.00123899,0.00123899,-0.00123899,0.00123899,2.96E-13,8.81E-13,1.26E-12,4.59E-13,-0.001306413,0.001306413,-0.00136863,0.00136863,-0.00136863,0.00136863,-0.00136863,0.00136863,-0.00136863,0.00136863,-0.00123899,0.00123899,-0.00123899,0.00123899,-0.00123899,0.00123899,-0.00123899,0.00123899,-7.10E-12,7.66E-12,-0.001306413,0.001306413,-1.19E-13,6.84E-13,-0.00136863,0.00136863,-0.00136863,0.00136863,-0.00136863,0.00136863,-0.00136863,0.00136863,-0.00123899,0.00123899,-0.00123899,0.00123899,0.752206498,0.85676199,1368840,32768,0.005428396,0.005428396,0.005428396,20.46064499,20.45675625,7.89E-05,7.89E-05,7.89E-05,479684.6437,0.016419455
26417646,0.999649775,0.016070204,0.005356735,0.005356735,0.005356735,-0.001306164,0.001306164,7.15E-12,-7.64E-12,2.63E-14,-5.01E-13,-0.001368446,0.001368446,-0.001368446,0.001368446,-0.001368446,0.001368446,-0.001368446,0.001368446,-0.001238671,0.001238671,-0.001238671,0.001238671,3.35E-13,8.73E-13,1.27E-12,4.38E-13,-0.001306164,0.001306164,-0.001368446,0.001368446,-0.001368446,0.001368446,-0.001368446,0.001368446,-0.001368446,0.001368446,-0.001238671,0.001238671,-0.001238671,0.001238671,-0.001238671,0.001238671,-0.001238671,0.001238671,-7.08E-12,7.67E-12,-0.001306164,0.001306164,-1.20E-13,7.11E-13,-0.001368446,0.001368446,-0.001368446,0.001368446,-0.001368446,0.001368446,-0.001368446,0.001368446,-0.001238671,0.001238671,-0.001238671,0.001238671,0.757640369,0.921778677,1368840,32768,0.005427362,0.005427362,0.005427362,20.40085844,20.39697153,7.84E-05,7.84E-05,7.84E-05,482635.089,0.016416304
26504046,0.999657349,0.01607033,0.005356777,0.005356777,0.005356777,-0.001306456,0.001306456,7.15E-12,-7.64E-12,2.92E-14,-5.17E-13,-0.001368576,0.001368576,-0.001368576,0.001368576,-0.001368576,0.001368576,-0.001368576,0.001368576,-0.001239105,0.001239105,-0.001239105,0.001239105,3.11E-13,8.68E-13,1.27E-12,4.49E-13,-0.001306456,0.001306456,-0.001368576,0.001368576,-0.001368576,0.001368576,-0.001368576,0.001368576,-0.001368576,0.001368576,-0.001239105,0.001239105,-0.001239105,0.001239105,-0.001239105,0.001239105,-0.001239105,0.001239105,-7.09E-12,7.67E-12,-0.001306456,0.001306456,-1.24E-13,6.92E-13,-0.001368576,0.001368576,-0.001368576,0.001368576,-0.001368576,0.001368576,-0.001368576,0.001368576,-0.001239105,0.001239105,-0.001239105,0.001239105,0.76057691,0.926446708,1368840,32768,0.005428573,0.005428573,0.005428573,20.38345701,20.38223423,7.83E-05,7.83E-05,7.83E-05,472195.006,0.016419993
26590446,0.99966484,0.016070455,0.005356818,0.005356818,0.005356818,-0.001306846,0.001306846,7.11E-12,-7.63E-12,1.04E-14,-5.03E-13,-0.001368938,0.001368938,-0.001368938,0.001368938,-0.001368938,0.001368938,-0.001368938,0.001368938,-0.001239512,0.001239512,-0.001239512,0.001239512,3.22E-13,8.46E-13,1.26E-12,4.52E-13,-0.001306846,0.001306846,-0.001368938,0.001368938,-0.001368938,0.001368938,-0.001368938,0.001368938,-0.001368938,0.001368938,-0.001239512,0.001239512,-0.001239512,0.001239512,-0.001239512,0.001239512,-0.001239512,0.001239512,-7.09E-12,7.62E-12,-0.001306846,0.001306846,-1.27E-13,6.80E-13,-0.001368938,0.001368938,-0.001368938,0.001368938,-0.001368938,0.001368938,-0.001368938,0.001368938,-0.001239512,0.001239512,-0.001239512,0.001239512,0.760628441,0.886792731,1368840,32768,0.00543019,0.00543019,0.00543019,20.561093,20.57221995,7.97E-05,7.97E-05,7.97E-05,469652.6642,0.016424926
26676846,0.999672252,0.016070578,0.005356859,0.005356859,0.005356859,-0.001307051,0.001307051,7.18E-12,-7.59E-12,-9.76E-15,-4.99E-13,-0.001369221,0.001369221,-0.001369221,0.001369221,-0.001369221,0.001369221,-0.001369221,0.001369221,-0.001239638,0.001239638,-0.001239638,0.001239638,3.62E-13,8.63E-13,1.27E-12,4.58E-13,-0.001307051,0.001307051,-0.001369221,0.001369221,-0.001369221,0.001369221,-0.001369221,0.001369221,-0.001369221,0.001369221,-0.001239638,0.001239638,-0.001239638,0.001239638,-0.001239638,0.001239638,-0.001239638,0.001239638,-7.10E-12,7.64E-12,-0.001307051,0.001307051,-1.19E-13,6.86E-13,-0.001369221,0.001369221,-0.001369221,0.001369221,-0.001369221,0.001369221,-0.001369221,0.001369221,-0.001239638,0.001239638,-0.001239638,0.001239638,0.759702968,0.847138755,1368840,32768,0.00543104,0.00543104,0.00543104,20.74995916,20.76220566,8.12E-05,8.12E-05,8.12E-05,473360.4644,0.016427517
26763246,0.999679585,0.016070699,0.0053569,0.0053569,0.0053569,-0.001307246,0.001307246,7.20E-12,-7.58E-12,8.17E-16,-4.60E-13,-0.001369504,0.001369504,-0.001369504,0.001369504,-0.001369504,0.001369504,-0.001369504,0.001369504,-0.001239746,0.001239746,-0.001239746,0.001239746,3.75E-13,8.47E-13,1.26E-12,4.68E-13,-0.001307246,0.001307246,-0.001369504,0.001369504,-0.001369504,0.001369504,-0.001369504,0.001369504,-0.001369504,0.001369504,-0.001239746,0.001239746,-0.001239746,0.001239746,-0.001239746,0.001239746,-0.001239746,0.001239746,-7.08E-12,7.67E-12,-0.001307246,0.001307246,-1.39E-13,6.49E-13,-0.001369504,0.001369504,-0.001369504,0.001369504,-0.001369504,0.001369504,-0.001369504,0.001369504,-0.001239746,0.001239746,-0.001239746,0.001239746,0.757973949,0.807484778,1368840,32768,0.005431845,0.005431845,0.005431845,20.93982879,20.95219137,8.27E-05,8.27E-05,8.27E-05,477711.4186,0.016429974
26849646,0.999686837,0.016070819,0.00535694,0.00535694,0.00535694,-0.001307429,0.001307429,7.08E-12,-7.64E-12,-5.19E-14,-5.46E-13,-0.001369784,0.001369784,-0.001369784,0.001369784,-0.001369784,0.001369784,-0.001369784,0.001369784,-0.001239837,0.001239837,-0.001239837,0.001239837,2.66E-13,7.72E-13,1.14E-12,3.57E-13,-0.001307429,0.001307429,-0.001369784,0.001369784,-0.001369784,0.001369784,-0.001369784,0.001369784,-0.001369784,0.001369784,-0.001239837,0.001239837,-0.001239837,0.001239837,-0.001239837,0.001239837,-0.001239837,0.001239837,-6.98E-12,7.70E-12,-0.001307429,0.001307429,-5.12E-14,7.30E-13,-0.001369784,0.001369784,-0.001369784,0.001369784,-0.001369784,0.001369784,-0.001369784,0.001369784,-0.001239837,0.001239837,-0.001239837,0.001239837,0.755619389,0.767830801,1368840,32768,0.005432603,0.005432603,0.005432603,21.12979484,21.14217708,8.42E-05,8.42E-05,8.42E-05,482605.0357,0.016432287
26936046,0.999694008,0.016070937,0.005356979,0.005356979,0.005356979,-0.001307601,0.001307601,7.19E-12,-7.62E-12,-1.72E-14,-4.52E-13,-0.001370061,0.001370061,-0.001370061,0.001370061,-0.001370061,0.001370061,-0.001370061,0.001370061,-0.001239913,0.001239913,-0.001239913,0.001239913,3.88E-13,8.34E-13,1.20E-12,3.96E-13,-0.001307601,0.001307601,-0.001370061,0.001370061,-0.001370061,0.001370061,-0.001370061,0.001370061,-0.001370061,0.001370061,-0.001239913,0.001239913,-0.001239913,0.001239913,-0.001239913,0.001239913,-0.001239913,0.001239913,-7.04E-12,7.74E-12,-0.001307601,0.001307601,-9.46E-14,7.05E-13,-0.001370061,0.001370061,-0.001370061,0.001370061,-0.001370061,0.001370061,-0.001370061,0.001370061,-0.001239913,0.001239913,-0.001239913,0.001239913,0.752820708,0.728176825,1368840,32768,0.005433318,0.005433318,0.005433318,21.3197705,21.33216279,8.58E-05,8.58E-05,8.58E-05,487964.1583,0.016434468
27022446,0.999701096,0.016071053,0.005357018,0.005357018,0.005357018,-0.001307765,0.001307765,7.02E-12,-7.77E-12,-1.55E-13,-6.29E-13,-0.001370335,0.001370335,-0.001370335,0.001370335,-0.001370335,0.001370335,-0.001370335,0.001370335,-0.001239975,0.001239975,-0.001239975,0.001239975,3.23E-13,8.06E-13,1.30E-12,4.19E-13,-0.001307765,0.001307765,-0.001370335,0.001370335,-0.001370335,0.001370335,-0.001370335,0.001370335,-0.001370335,0.001370335,-0.001239975,0.001239975,-0.001239975,0.001239975,-0.001239975,0.001239975,-0.001239975,0.001239975,-6.97E-12,7.79E-12,-0.001307765,0.001307765,-1.33E-13,7.43E-13,-0.001370335,0.001370335,-0.001370335,0.001370335,-0.001370335,0.001370335,-0.001370335,0.001370335,-0.001239975,0.001239975,-0.001239975,0.001239975,0.749724751,0.688522848,1368840,32768,0.005433995,0.005433995,0.005433995,21.50974734,21.5221485,8.73E-05,8.73E-05,8.73E-05,493725.9418,0.016436532
27108846,0.9997081,0.016071168,0.005357056,0.005357056,0.005357056,-0.001307919,0.001307919,7.12E-12,-7.58E-12,1.76E-14,-6.21E-13,-0.001370605,0.001370605,-0.001370605,0.001370605,-0.001370605,0.001370605,-0.001370605,0.001370605,-0.001240026,0.001240026,-0.001240026,0.001240026,2.75E-13,9.26E-13,1.22E-12,4.98E-13,-0.001307919,0.001307919,-0.001370605,0.001370605,-0.001370605,0.001370605,-0.001370605,0.001370605,-0.001370605,0.001370605,-0.001240026,0.001240026,-0.001240026,0.001240026,-0.001240026,0.001240026,-0.001240026,0.001240026,-7.22E-12,7.46E-12,-0.001307919,0.001307919,-2.60E-13,4.63E-13,-0.001370605,0.001370605,-0.001370605,0.001370605,-0.001370605,0.001370605,-0.001370605,0.001370605,-0.001240026,0.001240026,-0.001240026,0.001240026,0.746426644,0.648868871,1368840,32768,0.005434636,0.005434636,0.005434636,21.69972452,21.71213421,8.88E-05,8.88E-05,8.88E-05,499816.7114,0.016438488
27195246,0.99971502,0.01607128,0.005357093,0.005357093,0.005357093,-0.001308066,0.001308066,7.05E-12,-7.67E-12,1.25E-13,-4.75E-13,-0.001370871,0.001370871,-0.001370871,0.001370871,-0.001370871,0.001370871,-0.001370871,0.001370871,-0.001240064,0.001240064,-0.001240064,0.001240064,2.36E-13,8.48E-13,1.12E-12,5.29E-13,-0.001308066,0.001308066,-0.001370871,0.001370871,-0.001370871,0.001370871,-0.001370871,0.001370871,-0.001370871,0.001370871,-0.001240064,0.001240064,-0.001240064,0.001240064,-0.001240064,0.001240064,-0.001240064,0.001240064,-7.10E-12,7.60E-12,-0.001308066,0.001308066,-6.69E-14,5.20E-13,-0.001370871,0.001370871,-0.001370871,0.001370871,-0.001370871,0.001370871,-0.001370871,0.001370871,-0.001240064,0.001240064,-0.001240064,0.001240064,0.742984095,0.609214894,1368840,32768,0.005435243,0.005435243,0.005435243,21.88970192,21.90211992,9.03E-05,9.03E-05,9.03E-05,506216.1085,0.01644034
27281646,0.999721847,0.01607139,0.00535713,0.00535713,0.00535713,-0.001308177,0.001308177,7.08E-12,-7.59E-12,1.90E-14,-5.50E-13,-0.001371106,0.001371106,-0.001371106,0.001371106,-0.001371106,0.001371106,-0.001371106,0.001371106,-0.001240064,0.001240064,-0.001240064,0.001240064,4.53E-13,1.03E-12,1.14E-12,6.12E-13,-0.001308177,0.001308177,-0.001371106,0.001371106,-0.001371106,0.001371106,-0.001371106,0.001371106,-0.001371106,0.001371106,-0.001240064,0.001240064,-0.001240064,0.001240064,-0.001240064,0.001240064,-0.001240064,0.001240064,-7.08E-12,7.55E-12,-0.001308177,0.001308177,-1.13E-13,4.17E-13,-0.001371106,0.001371106,-0.001371106,0.001371106,-0.001371106,0.001371106,-0.001371106,0.001371106,-0.001240064,0.001240064,-0.001240064,0.001240064,0.739435428,0.569560918,1368840,32768,0.005435702,0.005435702,0.005435702,22.06541366,22.07693736,9.17E-05,9.17E-05,9.17E-05,512921.9691,0.01644174
27368046,0.999728559,0.0160715,0.005357167,0.005357167,0.005357167,-0.001308169,0.001308169,7.05E-12,-7.56E-12,1.89E-14,-5.44E-13,-0.00137123,0.00137123,-0.00137123,0.00137123,-0.00137123,0.00137123,-0.00137123,0.00137123,-0.001239939,0.001239939,-0.001239939,0.001239939,3.11E-13,8.85E-13,1.20E-12,5.25E-13,-0.001308169,0.001308169,-0.00137123,0.00137123,-0.00137123,0.00137123,-0.00137123,0.00137123,-0.00137123,0.00137123,-0.001239939,0.001239939,-0.001239939,0.001239939,-0.001239939,0.001239939,-0.001239939,0.001239939,-7.00E-12,7.58E-12,-0.001308169,0.001308169,-8.11E-14,5.88E-13,-0.00137123,0.00137123,-0.00137123,0.00137123,-0.00137123,0.00137123,-0.00137123,0.00137123,-0.001239939,0.001239939,-0.001239939,0.001239939,0.74571667,0.688577839,1368840,32768,0.005435669,0.005435669,0.005435669,22.18394684,22.1918287,9.27E-05,9.27E-05,9.27E-05,519971.5066,0.016441641
27454446,0.999735155,0.016071607,0.005357202,0.005357202,0.005357202,-0.00130906,0.00130906,7.04E-12,-7.56E-12,4.30E-14,-5.60E-13,-0.001371792,0.001371792,-0.001371792,0.001371792,-0.001371792,0.001371792,-0.001371792,0.001371792,-0.001241136,0.001241136,-0.001241136,0.001241136,2.88E-13,9.01E-13,1.19E-12,5.30E-13,-0.00130906,0.00130906,-0.001371792,0.001371792,-0.001371792,0.001371792,-0.001371792,0.001371792,-0.001371792,0.001371792,-0.001241136,0.001241136,-0.001241136,0.001241136,-0.001241136,0.001241136,-0.001241136,0.001241136,-7.03E-12,7.55E-12,-0.00130906,0.00130906,-7.27E-14,5.89E-13,-0.001371792,0.001371792,-0.001371792,0.001371792,-0.001371792,0.001371792,-0.001371792,0.001371792,-0.001241136,0.001241136,-0.001241136,0.001241136,0.746706511,0.709733804,1368840,32768,0.005439363,0.005439363,0.005439363,22.29916527,22.30672005,9.36E-05,9.36E-05,9.36E-05,499521.5765,0.016452901
27540846,0.999741636,0.016071713,0.005357238,0.005357238,0.005357238,-0.001309401,0.001309401,7.07E-12,-7.59E-12,4.36E-14,-5.49E-13,-0.001372078,0.001372078,-0.001372078,0.001372078,-0.001372078,0.001372078,-0.001372078,0.001372078,-0.001241528,0.001241528,-0.001241528,0.001241528,2.91E-13,8.95E-13,1.20E-12,5.26E-13,-0.001309401,0.001309401,-0.001372078,0.001372078,-0.001372078,0.001372078,-0.001372078,0.001372078,-0.001372078,0.001372078,-0.001241528,0.001241528,-0.001241528,0.001241528,-0.001241528,0.001241528,-0.001241528,0.001241528,-7.05E-12,7.58E-12,-0.001309401,0.001309401,-7.54E-14,5.92E-13,-0.001372078,0.001372078,-0.001372078,0.001372078,-0.001372078,0.001372078,-0.001372078,0.001372078,-0.001241528,0.001241528,-0.001241528,0.001241528,0.747872664,0.730889769,1368840,32768,0.005440776,0.005440776,0.005440776,22.414086,22.4216114,9.45E-05,9.45E-05,9.45E-05,495553.3567,0.01645721
27627246,0.999748001,0.016071818,0.005357273,0.005357273,0.005357273,-0.001309742,0.001309742,7.06E-12,-7.60E-12,5.46E-14,-5.61E-13,-0.001372363,0.001372363,-0.001372363,0.001372363,-0.001372363,0.001372363,-0.001372363,0.001372363,-0.001241921,0.001241921,-0.001241921,0.001241921,2.88E-13,9.15E-13,1.21E-12,5.27E-13,-0.001309742,0.001309742,-0.001372363,0.001372363,-0.001372363,0.001372363,-0.001372363,0.001372363,-0.001372363,0.001372363,-0.001241921,0.001241921,-0.001241921,0.001241921,-0.001241921,0.001241921,-0.001241921,0.001241921,-7.05E-12,7.58E-12,-0.001309742,0.001309742,-7.73E-14,6.05E-13,-0.001372363,0.001372363,-0.001372363,0.001372363,-0.001372363,0.001372363,-0.001372363,0.001372363,-0.001241921,0.001241921,-0.001241921,0.001241921,0.749240935,0.752045734,1368840,32768,0.005442188,0.005442188,0.005442188,22.52897808,22.53650274,9.54E-05,9.54E-05,9.54E-05,491562.0157,0.016461516
27713646,0.999754253,0.01607192,0.005357307,0.005357307,0.005357307,-0.001310082,0.001310082,7.08E-12,-7.61E-12,5.92E-14,-5.79E-13,-0.001372648,0.001372648,-0.001372648,0.001372648,-0.001372648,0.001372648,-0.001372648,0.001372648,-0.001242312,0.001242312,-0.001242312,0.001242312,2.83E-13,9.32E-13,1.21E-12,5.31E-13,-0.001310082,0.001310082,-0.001372648,0.001372648,-0.001372648,0.001372648,-0.001372648,0.001372648,-0.001372648,0.001372648,-0.001242312,0.001242312,-0.001242312,0.001242312,-0.001242312,0.001242312,-0.001242312,0.001242312,-7.07E-12,7.59E-12,-0.001310082,0.001310082,-8.08E-14,5.96E-13,-0.001372648,0.001372648,-0.001372648,0.001372648,-0.001372648,0.001372648,-0.001372648,0.001372648,-0.001242312,0.001242312,-0.001242312,0.001242312,0.750840919,0.773201699,1368840,32768,0.005443599,0.005443599,0.005443599,22.64386745,22.65139409,9.64E-05,9.64E-05,9.64E-05,487542.3398,0.016465817
27800046,0.999760393,0.016072021,0.00535734,0.00535734,0.00535734,-0.001310422,0.001310422,7.11E-12,-7.61E-12,5.86E-14,-5.84E-13,-0.001372932,0.001372932,-0.001372932,0.001372932,-0.001372932,0.001372932,-0.001372932,0.001372932,-0.001242703,0.001242703,-0.001242703,0.001242703,2.74E-13,9.27E-13,1.23E-12,5.16E-13,-0.001310422,0.001310422,-0.001372932,0.001372932,-0.001372932,0.001372932,-0.001372932,0.001372932,-0.001372932,0.001372932,-0.001242703,0.001242703,-0.001242703,0.001242703,-0.001242703,0.001242703,-0.001242703,0.001242703,-7.07E-12,7.62E-12,-0.001310422,0.001310422,-8.58E-14,6.24E-13,-0.001372932,0.001372932,-0.001372932,0.001372932,-0.001372932,0.001372932,-0.001372932,0.001372932,-0.001242703,0.001242703,-0.001242703,0.001242703,0.75269821,0.794357665,1368840,32768,0.005445008,0.005445008,0.005445008,22.75875667,22.76628544,9.73E-05,9.73E-05,9.73E-05,483489.4127,0.016470113
27886446,0.99976642,0.016072121,0.005357374,0.005357374,0.005357374,-0.001310762,0.001310762,7.12E-12,-7.58E-12,1.05E-13,-5.52E-13,-0.001373217,0.001373217,-0.001373217,0.001373217,-0.001373217,0.001373217,-0.001373217,0.001373217,-0.001243091,0.001243091,-0.001243091,0.001243091,3.24E-13,9.92E-13,1.27E-12,5.57E-13,-0.001310762,0.001310762,-0.001373217,0.001373217,-0.001373217,0.001373217,-0.001373217,0.001373217,-0.001373217,0.001373217,-0.001243091,0.001243091,-0.001243091,0.001243091,-0.001243091,0.001243091,-0.001243091,0.001243091,-7.04E-12,7.62E-12,-0.001310762,0.001310762,-5.35E-14,6.52E-13,-0.001373217,0.001373217,-0.001373217,0.001373217,-0.001373217,0.001373217,-0.001373217,0.001373217,-0.001243091,0.001243091,-0.001243091,0.001243091,0.754826188,0.81551363,1368840,32768,0.005446415,0.005446415,0.005446415,22.873646,22.88117678,9.82E-05,9.82E-05,9.82E-05,479419.1793,0.016474405
27972846,0.999772336,0.016072219,0.005357406,0.005357406,0.005357406,-0.001311101,0.001311101,7.11E-12,-7.56E-12,1.20E-13,-5.69E-13,-0.0013735,0.0013735,-0.0013735,0.0013735,-0.0013735,0.0013735,-0.0013735,0.0013735,-0.001243479,0.001243479,-0.001243479,0.001243479,3.20E-13,1.02E-12,1.27E-12,5.77E-13,-0.001311101,0.001311101,-0.0013735,0.0013735,-0.0013735,0.0013735,-0.0013735,0.0013735,-0.0013735,0.0013735,-0.001243479,0.001243479,-0.001243479,0.001243479,-0.001243479,0.001243479,-0.001243479,0.001243479,-7.02E-12,7.61E-12,-0.001311101,0.001311101,-6.59E-14,6.26E-13,-0.0013735,0.0013735,-0.0013735,0.0013735,-0.0013735,0.0013735,-0.0013735,0.0013735,-0.001243479,0.001243479,-0.001243479,0.001243479,0.757221518,0.836669595,1368840,32768,0.005447821,0.005447821,0.005447821,22.98853548,22.99606813,9.91E-05,9.91E-05,9.91E-05,475307.1741,0.016478689
28059246,0.999778141,0.016072315,0.005357438,0.005357438,0.005357438,-0.001311426,0.001311426,7.08E-12,-7.62E-12,6.52E-14,-6.33E-13,-0.001373769,0.001373769,-0.001373769,0.001373769,-0.001373769,0.001373769,-0.001373769,0.001373769,-0.001243852,0.001243852,-0.001243852,0.001243852,8.67E-14,7.96E-13,1.04E-12,3.15E-13,-0.001311426,0.001311426,-0.001373769,0.001373769,-0.001373769,0.001373769,-0.001373769,0.001373769,-0.001373769,0.001373769,-0.001243852,0.001243852,-0.001243852,0.001243852,-0.001243852,0.001243852,-0.001243852,0.001243852,-6.98E-12,7.69E-12,-0.001311426,0.001311426,1.61E-16,7.24E-13,-0.001373769,0.001373769,-0.001373769,0.001373769,-0.001373769,0.001373769,-0.001373769,0.001373769,-0.001243852,0.001243852,-0.001243852,0.001243852,0.759865502,0.85782556,1368840,32768,0.005449168,0.005449168,0.005449168,23.09655911,23.10365818,1.00E-04,1.00E-04,1.00E-04,471159.8754,0.016482797
28145646,0.999783825,0.01607241,0.00535747,0.00535747,0.00535747,-0.001311703,0.001311703,7.02E-12,-7.68E-12,6.20E-14,-6.49E-13,-0.00137399,0.00137399,-0.00137399,0.00137399,-0.00137399,0.00137399,-0.00137399,0.00137399,-0.001244176,0.001244176,-0.001244176,0.001244176,1.91E-13,9.13E-13,1.15E-12,3.91E-13,-0.001311703,0.001311703,-0.00137399,0.00137399,-0.00137399,0.00137399,-0.00137399,0.00137399,-0.00137399,0.00137399,-0.001244176,0.001244176,-0.001244176,0.001244176,-0.001244176,0.001244176,-0.001244176,0.001244176,-7.03E-12,7.63E-12,-0.001311703,0.001311703,-5.32E-14,7.01E-13,-0.00137399,0.00137399,-0.00137399,0.00137399,-0.00137399,0.00137399,-0.00137399,0.00137399,-0.001244176,0.001244176,-0.001244176,0.001244176,0.762729297,0.878981525,1368840,32768,0.005450317,0.005450317,0.005450317,23.1803502,23.18589978,0.000100643,0.000100643,0.000100643,467007.7624,0.016486302
28232046,0.999789392,0.016072503,0.005357501,0.005357501,0.005357501,-0.001311976,0.001311976,7.08E-12,-7.59E-12,9.98E-14,-5.84E-13,-0.001374208,0.001374208,-0.001374208,0.001374208,-0.001374208,0.001374208,-0.001374208,0.001374208,-0.001244496,0.001244496,-0.001244496,0.001244496,2.04E-13,8.99E-13,1.19E-12,4.12E-13,-0.001311976,0.001311976,-0.001374208,0.001374208,-0.001374208,0.001374208,-0.001374208,0.001374208,-0.001374208,0.001374208,-0.001244496,0.001244496,-0.001244496,0.001244496,-0.001244496,0.001244496,-0.001244496,0.001244496,-7.07E-12,7.57E-12,-0.001311976,0.001311976,-1.09E-13,6.62E-13,-0.001374208,0.001374208,-0.001374208,0.001374208,-0.001374208,0.001374208,-0.001374208,0.001374208,-0.001244496,0.001244496,-0.001244496,0.001244496,0.765782375,0.900137491,1368840,32768,0.00545145,0.00545145,0.00545145,23.2627319,23.26814139,0.000101302,0.000101302,0.000101302,462846.4936,0.016489756
28318446,0.999794842,0.016072595,0.005357532,0.005357532,0.005357532,-0.001312248,0.001312248,7.11E-12,-7.58E-12,1.05E-13,-5.46E-13,-0.001374422,0.001374422,-0.001374422,0.001374422,-0.001374422,0.001374422,-0.001374422,0.001374422,-0.001244814,0.001244814,-0.001244814,0.001244814,2.26E-13,8.88E-13,1.21E-12,4.34E-13,-0.001312248,0.001312248,-0.001374422,0.001374422,-0.001374422,0.001374422,-0.001374422,0.001374422,-0.001374422,0.001374422,-0.001244814,0.001244814,-0.001244814,0.001244814,-0.001244814,0.001244814,-0.001244814,0.001244814,-7.05E-12,7.61E-12,-0.001312248,0.001312248,-1.14E-13,6.63E-13,-0.001374422,0.001374422,-0.001374422,0.001374422,-0.001374422,0.001374422,-0.001374422,0.001374422,-0.001244814,0.001244814,-0.001244814,0.001244814,0.768994855,0.921293456,1368840,32768,0.005452575,0.005452575,0.005452575,23.3449867,23.35038299,0.00010196,0.00010196,0.00010196,458689.5202,0.016493187
28404846,0.999800177,0.016072685,0.005357562,0.005357562,0.005357562,-0.001312518,0.001312518,7.09E-12,-7.59E-12,7.14E-14,-5.71E-13,-0.001374637,0.001374637,-0.001374637,0.001374637,-0.001374637,0.001374637,-0.001374637,0.001374637,-0.001245129,0.001245129,-0.001245129,0.001245129,2.36E-13,8.89E-13,1.25E-12,4.52E-13,-0.001312518,0.001312518,-0.001374637,0.001374637,-0.001374637,0.001374637,-0.001374637,0.001374637,-0.001374637,0.001374637,-0.001245129,0.001245129,-0.001245129,0.001245129,-0.001245129,0.001245129,-0.001245129,0.001245129,-7.04E-12,7.61E-12,-0.001312518,0.001312518,-1.19E-13,6.79E-13,-0.001374637,0.001374637,-0.001374637,0.001374637,-0.001374637,0.001374637,-0.001374637,0.001374637,-0.001245129,0.001245129,-0.001245129,0.001245129,0.772338706,0.942449421,1368840,32768,0.005453693,0.005453693,0.005453693,23.42722927,23.43262459,0.000102618,0.000102618,0.000102618,454568.4069,0.016496595
28491246,0.999805399,0.016072773,0.005357591,0.005357591,0.005357591,-0.001312785,0.001312785,7.05E-12,-7.60E-12,3.29E-14,-6.24E-13,-0.00137485,0.00137485,-0.00137485,0.00137485,-0.00137485,0.00137485,-0.00137485,0.00137485,-0.00124544,0.00124544,-0.00124544,0.00124544,2.97E-13,9.65E-13,1.28E-12,5.02E-13,-0.001312785,0.001312785,-0.00137485,0.00137485,-0.00137485,0.00137485,-0.00137485,0.00137485,-0.00137485,0.00137485,-0.00124544,0.00124544,-0.00124544,0.00124544,-0.00124544,0.00124544,-0.00124544,0.00124544,-7.01E-12,7.61E-12,-0.001312785,0.001312785,-8.94E-14,6.88E-13,-0.00137485,0.00137485,-0.00137485,0.00137485,-0.00137485,0.00137485,-0.00137485,0.00137485,-0.00124544,0.00124544,-0.00124544,0.00124544,0.775787797,0.963605386,1368840,32768,0.005454803,0.005454803,0.005454803,23.50947067,23.5148662,0.000103276,0.000103276,0.000103276,450501.0566,0.016499979
28577646,0.999810509,0.01607286,0.00535762,0.00535762,0.00535762,-0.001313051,0.001313051,7.05E-12,-7.62E-12,5.49E-14,-5.95E-13,-0.001375063,0.001375063,-0.001375063,0.001375063,-0.001375063,0.001375063,-0.001375063,0.001375063,-0.001245748,0.001245748,-0.001245748,0.001245748,2.89E-13,9.49E-13,1.28E-12,4.92E-13,-0.001313051,0.001313051,-0.001375063,0.001375063,-0.001375063,0.001375063,-0.001375063,0.001375063,-0.001375063,0.001375063,-0.001245748,0.001245748,-0.001245748,0.001245748,-0.001245748,0.001245748,-0.001245748,0.001245748,-7.06E-12,7.58E-12,-0.001313051,0.001313051,-1.28E-13,6.59E-13,-0.001375063,0.001375063,-0.001375063,0.001375063,-0.001375063,0.001375063,-0.001375063,0.001375063,-0.001245748,0.001245748,-0.001245748,0.001245748,0.778513069,0.969632514,1368840,32768,0.005455904,0.005455904,0.005455904,23.59171163,23.5971078,0.000103934,0.000103934,0.000103934,446488.6768,0.016503337
28664046,0.99981551,0.016072946,0.005357649,0.005357649,0.005357649,-0.001313251,0.001313251,7.09E-12,-7.58E-12,3.21E-14,-5.46E-13,-0.001375242,0.001375242,-0.001375242,0.001375242,-0.001375242,0.001375242,-0.001375242,0.001375242,-0.001245961,0.001245961,-0.001245961,0.001245961,3.11E-13,9.00E-13,1.23E-12,4.97E-13,-0.001313251,0.001313251,-0.001375242,0.001375242,-0.001375242,0.001375242,-0.001375242,0.001375242,-0.001375242,0.001375242,-0.001245961,0.001245961,-0.001245961,0.001245961,-0.001245961,0.001245961,-0.001245961,0.001245961,-7.04E-12,7.60E-12,-0.001313251,0.001313251,-8.30E-14,6.46E-13,-0.001375242,0.001375242,-0.001375242,0.001375242,-0.001375242,0.001375242,-0.001375242,0.001375242,-0.001245961,0.001245961,-0.001245961,0.001245961,0.778011987,0.924462548,1368840,32768,0.005456732,0.005456732,0.005456732,23.67395123,23.67934941,0.000104592,0.000104592,0.000104592,444351.3614,0.016505863
28750446,0.999820403,0.016073029,0.005357676,0.005357676,0.005357676,-0.001313228,0.001313228,7.05E-12,-7.60E-12,4.73E-14,-5.83E-13,-0.001375309,0.001375309,-0.001375309,0.001375309,-0.001375309,0.001375309,-0.001375309,0.001375309,-0.001245848,0.001245848,-0.001245848,0.001245848,2.76E-13,9.18E-13,1.22E-12,5.10E-13,-0.001313228,0.001313228,-0.001375309,0.001375309,-0.001375309,0.001375309,-0.001375309,0.001375309,-0.001375309,0.001375309,-0.001245848,0.001245848,-0.001245848,0.001245848,-0.001245848,0.001245848,-0.001245848,0.001245848,-7.02E-12,7.60E-12,-0.001313228,0.001313228,-6.45E-14,6.46E-13,-0.001375309,0.001375309,-0.001375309,0.001375309,-0.001375309,0.001375309,-0.001375309,0.001375309,-0.001245848,0.001245848,-0.001245848,0.001245848,0.776504718,0.879292583,1368840,32768,0.005456636,0.005456636,0.005456636,23.7561905,23.76159101,0.00010525,0.00010525,0.00010525,448752.2493,0.016505573
28836846,0.999825193,0.01607311,0.005357703,0.005357703,0.005357703,-0.001313216,0.001313216,7.06E-12,-7.59E-12,4.39E-14,-5.86E-13,-0.001375399,0.001375399,-0.001375399,0.001375399,-0.001375399,0.001375399,-0.001375399,0.001375399,-0.001245739,0.001245739,-0.001245739,0.001245739,3.03E-13,9.43E-13,1.25E-12,5.42E-13,-0.001313216,0.001313216,-0.001375399,0.001375399,-0.001375399,0.001375399,-0.001375399,0.001375399,-0.001375399,0.001375399,-0.001245739,0.001245739,-0.001245739,0.001245739,-0.001245739,0.001245739,-0.001245739,0.001245739,-7.04E-12,7.58E-12,-0.001313216,0.001313216,-7.42E-14,6.31E-13,-0.001375399,0.001375399,-0.001375399,0.001375399,-0.001375399,0.001375399,-0.001375399,0.001375399,-0.001245739,0.001245739,-0.001245739,0.001245739,0.77414522,0.834122617,1368840,32768,0.005456587,0.005456587,0.005456587,23.85122963,23.85744562,0.00010601,0.00010601,0.00010601,453786.4918,0.016505425
28923246,0.999829893,0.016073189,0.00535773,0.00535773,0.00535773,-0.00131327,0.00131327,7.08E-12,-7.60E-12,4.92E-14,-5.60E-13,-0.001375563,0.001375563,-0.001375563,0.001375563,-0.001375563,0.001375563,-0.001375563,0.001375563,-0.001245688,0.001245688,-0.001245688,0.001245688,2.91E-13,9.11E-13,1.19E-12,5.38E-13,-0.00131327,0.00131327,-0.001375563,0.001375563,-0.001375563,0.001375563,-0.001375563,0.001375563,-0.001375563,0.001375563,-0.001245688,0.001245688,-0.001245688,0.001245688,-0.001245688,0.001245688,-0.001245688,0.001245688,-7.06E-12,7.58E-12,-0.00131327,0.00131327,-6.41E-14,5.87E-13,-0.001375563,0.001375563,-0.001375563,0.001375563,-0.001375563,0.001375563,-0.001375563,0.001375563,-0.001245688,0.001245688,-0.001245688,0.001245688,0.766963178,0.731299524,1368840,32768,0.005456808,0.005456808,0.005456808,23.98639366,23.99519177,0.000107091,0.000107091,0.000107091,459389.4676,0.0165061
29009646,0.999834504,0.016073265,0.005357755,0.005357755,0.005357755,-0.001313029,0.001313029,6.94E-12,-7.65E-12,2.89E-14,-6.05E-13,-0.001375582,0.001375582,-0.001375582,0.001375582,-0.001375582,0.001375582,-0.001375582,0.001375582,-0.001245209,0.001245209,-0.001245209,0.001245209,2.33E-13,8.79E-13,1.20E-12,4.85E-13,-0.001313029,0.001313029,-0.001375582,0.001375582,-0.001375582,0.001375582,-0.001375582,0.001375582,-0.001375582,0.001375582,-0.001245209,0.001245209,-0.001245209,0.001245209,-0.001245209,0.001245209,-0.001245209,0.001245209,-7.06E-12,7.50E-12,-0.001313029,0.001313029,-8.44E-14,6.28E-13,-0.001375582,0.001375582,-0.001375582,0.001375582,-0.001375582,0.001375582,-0.001375582,0.001375582,-0.001245209,0.001245209,-0.001245209,0.001245209,0.761882494,0.671717158,1368840,32768,0.00545581,0.00545581,0.00545581,24.12389968,24.13293792,0.000108191,0.000108191,0.000108191,474086.1858,0.016503059
29096046,0.999839028,0.01607334,0.00535778,0.00535778,0.00535778,-0.001312974,0.001312974,7.01E-12,-7.53E-12,1.03E-14,-4.95E-13,-0.001375703,0.001375703,-0.001375703,0.001375703,-0.001375703,0.001375703,-0.001375703,0.001375703,-0.001244997,0.001244997,-0.001244997,0.001244997,3.32E-13,8.48E-13,1.26E-12,4.54E-13,-0.001312974,0.001312974,-0.001375703,0.001375703,-0.001375703,0.001375703,-0.001375703,0.001375703,-0.001375703,0.001375703,-0.001244997,0.001244997,-0.001244997,0.001244997,-0.001244997,0.001244997,-0.001244997,0.001244997,-6.98E-12,7.54E-12,-0.001312974,0.001312974,-1.25E-13,6.74E-13,-0.001375703,0.001375703,-0.001375703,0.001375703,-0.001375703,0.001375703,-0.001375703,0.001375703,-0.001244997,0.001244997,-0.001244997,0.001244997,0.752333922,0.552819474,1368840,32768,0.005455583,0.005455583,0.005455583,24.26161692,24.27068406,0.000109293,0.000109293,0.000109293,483559.5608,0.016502367
29182446,0.999843463,0.016073413,0.005357804,0.005357804,0.005357804,-0.001312563,0.001312563,7.09E-12,-7.56E-12,1.21E-14,-5.21E-13,-0.001375646,0.001375646,-0.001375646,0.001375646,-0.001375646,0.001375646,-0.001375646,0.001375646,-0.001244265,0.001244265,-0.001244265,0.001244265,2.95E-13,8.40E-13,1.26E-12,4.25E-13,-0.001312563,0.001312563,-0.001375646,0.001375646,-0.001375646,0.001375646,-0.001375646,0.001375646,-0.001375646,0.001375646,-0.001244265,0.001244265,-0.001244265,0.001244265,-0.001244265,0.001244265,-0.001244265,0.001244265,-7.01E-12,7.61E-12,-0.001312563,0.001312563,-1.31E-13,6.98E-13,-0.001375646,0.001375646,-0.001375646,0.001375646,-0.001375646,0.001375646,-0.001375646,0.001375646,-0.001244265,0.001244265,-0.001244265,0.001244265,0.75580462,0.631796949,1368840,32768,0.005453879,0.005453879,0.005453879,24.399357,24.40843021,0.000110395,0.000110395,0.000110395,503964.067,0.016497174
29268846,0.999847812,0.016073484,0.005357828,0.005357828,0.005357828,-0.001313259,0.001313259,7.08E-12,-7.56E-12,-8.36E-15,-4.77E-13,-0.001376135,0.001376135,-0.001376135,0.001376135,-0.001376135,0.001376135,-0.001376135,0.001376135,-0.001245155,0.001245155,-0.001245155,0.001245155,3.75E-13,8.56E-13,1.28E-12,5.33E-13,-0.001313259,0.001313259,-0.001376135,0.001376135,-0.001376135,0.001376135,-0.001376135,0.001376135,-0.001376135,0.001376135,-0.001245155,0.001245155,-0.001245155,0.001245155,-0.001245155,0.001245155,-0.001245155,0.001245155,-7.04E-12,7.56E-12,-0.001313259,0.001313259,-1.30E-13,6.15E-13,-0.001376135,0.001376135,-0.001376135,0.001376135,-0.001376135,0.001376135,-0.001376135,0.001376135,-0.001245155,0.001245155,-0.001245155,0.001245155,0.748025654,0.534981842,1368840,32768,0.005456761,0.005456761,0.005456761,24.53709792,24.54617636,0.000111497,0.000111497,0.000111497,490871.1835,0.016505961
29355246,0.999852075,0.016073553,0.005357851,0.005357851,0.005357851,-0.001312963,0.001312963,7.11E-12,-7.62E-12,3.76E-14,-4.90E-13,-0.001376125,0.001376125,-0.001376125,0.001376125,-0.001376125,0.001376125,-0.001376125,0.001376125,-0.001244602,0.001244602,-0.001244602,0.001244602,2.24E-13,7.63E-13,1.13E-12,3.74E-13,-0.001312963,0.001312963,-0.001376125,0.001376125,-0.001376125,0.001376125,-0.001376125,0.001376125,-0.001376125,0.001376125,-0.001244602,0.001244602,-0.001244602,0.001244602,-0.001244602,0.001244602,-0.001244602,0.001244602,-7.13E-12,7.56E-12,-0.001312963,0.001312963,-1.28E-13,6.26E-13,-0.001376125,0.001376125,-0.001376125,0.001376125,-0.001376125,0.001376125,-0.001376125,0.001376125,-0.001244602,0.001244602,-0.001244602,0.001244602,0.739860489,0.438166734,1368840,32768,0.005455535,0.005455535,0.005455535,24.67483965,24.68392251,0.000112599,0.000112599,0.000112599,507645.0814,0.016502222
29441646,0.999856252,0.01607362,0.005357873,0.005357873,0.005357873,-0.001312615,0.001312615,7.19E-12,-7.61E-12,4.44E-15,-3.99E-13,-0.001376098,0.001376098,-0.001376098,0.001376098,-0.001376098,0.001376098,-0.001376098,0.001376098,-0.001243964,0.001243964,-0.001243964,0.001243964,3.50E-13,7.65E-13,1.16E-12,4.88E-13,-0.001312615,0.001312615,-0.001376098,0.001376098,-0.001376098,0.001376098,-0.001376098,0.001376098,-0.001376098,0.001376098,-0.001243964,0.001243964,-0.001243964,0.001243964,-0.001243964,0.001243964,-0.001243964,0.001243964,-7.19E-12,7.59E-12,-0.001312615,0.001312615,-1.34E-13,5.32E-13,-0.001376098,0.001376098,-0.001376098,0.001376098,-0.001376098,0.001376098,-0.001376098,0.001376098,-0.001243964,0.001243964,-0.001243964,0.001243964,0.731805067,0.345892223,1368840,32768,0.005454091,0.005454091,0.005454091,24.81258193,24.82166866,0.000113701,0.000113701,0.000113701,526367.6351,0.016497822
29528046,0.999860344,0.016073685,0.005357895,0.005357895,0.005357895,-0.00131224,0.00131224,7.17E-12,-7.64E-12,-4.40E-14,-3.70E-13,-0.00137606,0.00137606,-0.00137606,0.00137606,-0.00137606,0.00137606,-0.00137606,0.00137606,-0.001243287,0.001243287,-0.001243287,0.001243287,3.93E-13,7.32E-13,1.11E-12,4.64E-13,-0.00131224,0.00131224,-0.00137606,0.00137606,-0.00137606,0.00137606,-0.00137606,0.00137606,-0.00137606,0.00137606,-0.001243287,0.001243287,-0.001243287,0.001243287,-0.001243287,0.001243287,-0.001243287,0.001243287,-7.08E-12,7.70E-12,-0.00131224,0.00131224,-3.59E-14,6.11E-13,-0.00137606,0.00137606,-0.00137606,0.00137606,-0.00137606,0.00137606,-0.00137606,0.00137606,-0.001243287,0.001243287,-0.001243287,0.001243287,0.726242465,0.289982025,1368840,32768,0.005452539,0.005452539,0.005452539,24.95032418,24.95941481,0.000114803,0.000114803,0.000114803,546127.2323,0.016493091
29614446,0.999864351,0.016073749,0.005357916,0.005357916,0.005357916,-0.001312068,0.001312068,7.22E-12,-7.61E-12,-3.40E-14,-3.60E-13,-0.00137612,0.00137612,-0.00137612,0.00137612,-0.00137612,0.00137612,-0.00137612,0.00137612,-0.001242908,0.001242908,-0.001242908,0.001242908,3.64E-13,7.01E-13,1.11E-12,5.01E-13,-0.001312068,0.001312068,-0.00137612,0.00137612,-0.00137612,0.00137612,-0.00137612,0.00137612,-0.00137612,0.00137612,-0.001242908,0.001242908,-0.001242908,0.001242908,-0.001242908,0.001242908,-0.001242908,0.001242908,-7.15E-12,7.65E-12,-0.001312068,0.001312068,-5.35E-14,5.58E-13,-0.00137612,0.00137612,-0.00137612,0.00137612,-0.00137612,0.00137612,-0.00137612,0.00137612,-0.001242908,0.001242908,-0.001242908,0.001242908,0.73038132,0.373858977,1368840,32768,0.005451823,0.005451823,0.005451823,25.0806934,25.08931835,0.000115846,0.000115846,0.000115846,559365.1533,0.016490908
29700846,0.999868268,0.016073812,0.005357937,0.005357937,0.005357937,-0.00131286,0.00131286,7.21E-12,-7.63E-12,-2.62E-14,-3.99E-13,-0.001376621,0.001376621,-0.001376621,0.001376621,-0.001376621,0.001376621,-0.001376621,0.001376621,-0.001243975,0.001243975,-0.001243975,0.001243975,3.54E-13,7.37E-13,1.15E-12,4.75E-13,-0.00131286,0.00131286,-0.001376621,0.001376621,-0.001376621,0.001376621,-0.001376621,0.001376621,-0.001376621,0.001376621,-0.001243975,0.001243975,-0.001243975,0.001243975,-0.001243975,0.001243975,-0.001243975,0.001243975,-7.14E-12,7.67E-12,-0.00131286,0.00131286,-7.36E-14,6.04E-13,-0.001376621,0.001376621,-0.001376621,0.001376621,-0.001376621,0.001376621,-0.001376621,0.001376621,-0.001243975,0.001243975,-0.001243975,0.001243975,0.734750795,0.457735929,1368840,32768,0.005455106,0.005455106,0.005455106,25.19038654,25.19767975,0.000116723,0.000116723,0.000116723,541040.1223,0.016500917
29787246,0.999872096,0.016073874,0.005357958,0.005357958,0.005357958,-0.001313615,0.001313615,7.18E-12,-7.54E-12,6.52E-15,-3.25E-13,-0.001377106,0.001377106,-0.001377106,0.001377106,-0.001377106,0.001377106,-0.001377106,0.001377106,-0.001244987,0.001244987,-0.001244987,0.001244987,3.66E-13,7.09E-13,1.12E-12,5.11E-13,-0.001313615,0.001313615,-0.001377106,0.001377106,-0.001377106,0.001377106,-0.001377106,0.001377106,-0.001377106,0.001377106,-0.001244987,0.001244987,-0.001244987,0.001244987,-0.001244987,0.001244987,-0.001244987,0.001244987,-7.09E-12,7.60E-12,-0.001313615,0.001313615,-6.50E-14,5.39E-13,-0.001377106,0.001377106,-0.001377106,0.001377106,-0.001377106,0.001377106,-0.001377106,0.001377106,-0.001244987,0.001244987,-0.001244987,0.001244987,0.739275622,0.541612881,1368840,32768,0.005458238,0.005458238,0.005458238,25.29886713,25.30604114,0.000117591,0.000117591,0.000117591,523916.049,0.016510467
29873646,0.999875837,0.016073934,0.005357978,0.005357978,0.005357978,-0.001314338,0.001314338,7.17E-12,-7.66E-12,-5.07E-14,-4.11E-13,-0.00137757,0.00137757,-0.00137757,0.00137757,-0.00137757,0.00137757,-0.00137757,0.00137757,-0.001245954,0.001245954,-0.001245954,0.001245954,3.85E-13,7.56E-13,1.12E-12,4.96E-13,-0.001314338,0.001314338,-0.00137757,0.00137757,-0.00137757,0.00137757,-0.00137757,0.00137757,-0.00137757,0.00137757,-0.001245954,0.001245954,-0.001245954,0.001245954,-0.001245954,0.001245954,-0.001245954,0.001245954,-7.13E-12,7.66E-12,-0.001314338,0.001314338,-7.13E-14,5.51E-13,-0.00137757,0.00137757,-0.00137757,0.00137757,-0.00137757,0.00137757,-0.00137757,0.00137757,-0.001245954,0.001245954,-0.001245954,0.001245954,0.743916248,0.625489834,1368840,32768,0.005461234,0.005461234,0.005461234,25.40723806,25.41440253,0.000118458,0.000118458,0.000118458,507858.0984,0.016519598
29960046,0.999879491,0.016073995,0.005357998,0.005357998,0.005357998,-0.001315029,0.001315029,7.17E-12,-7.60E-12,-6.75E-14,-3.61E-13,-0.001378016,0.001378016,-0.001378016,0.001378016,-0.001378016,0.001378016,-0.001378016,0.001378016,-0.001246875,0.001246875,-0.001246875,0.001246875,3.87E-13,6.91E-13,1.17E-12,4.65E-13,-0.001315029,0.001315029,-0.001378016,0.001378016,-0.001378016,0.001378016,-0.001378016,0.001378016,-0.001378016,0.001378016,-0.001246875,0.001246875,-0.001246875,0.001246875,-0.001246875,0.001246875,-0.001246875,0.001246875,-7.12E-12,7.61E-12,-0.001315029,0.001315029,-9.98E-14,6.06E-13,-0.001378016,0.001378016,-0.001378016,0.001378016,-0.001378016,0.001378016,-0.001378016,0.001378016,-0.001246875,0.001246875,-0.001246875,0.001246875,0.757438311,0.866595375,1368840,32768,0.0054641,0.0054641,0.0054641,25.51560165,25.52276393,0.000119325,0.000119325,0.000119325,492811.7877,0.016528338
30046446,0.999883061,0.016074054,0.005358018,0.005358018,0.005358018,-0.001316453,0.001316453,7.23E-12,-7.65E-12,-6.34E-14,-3.58E-13,-0.001378829,0.001378829,-0.001378829,0.001378829,-0.001378829,0.001378829,-0.001378829,0.001378829,-0.001248869,0.001248869,-0.001248869,0.001248869,3.89E-13,6.95E-13,1.20E-12,4.41E-13,-0.001316453,0.001316453,-0.001378829,0.001378829,-0.001378829,0.001378829,-0.001378829,0.001378829,-0.001378829,0.001378829,-0.001248869,0.001248869,-0.001248869,0.001248869,-0.001248869,0.001248869,-0.001248869,0.001248869,-7.15E-12,7.70E-12,-0.001316453,0.001316453,-9.72E-14,6.55E-13,-0.001378829,0.001378829,-0.001378829,0.001378829,-0.001378829,0.001378829,-0.001378829,0.001378829,-0.001248869,0.001248869,-0.001248869,0.001248869,0.756816913,0.814816614,1368840,32768,0.005470003,0.005470003,0.005470003,25.62396013,25.63112532,0.000120192,0.000120192,0.000120192,456331.0511,0.016546334
30132846,0.999886547,0.01607411,0.005358037,0.005358037,0.005358037,-0.001316448,0.001316448,7.23E-12,-7.63E-12,-5.51E-14,-4.48E-13,-0.001378926,0.001378926,-0.001378926,0.001378926,-0.001378926,0.001378926,-0.001378926,0.001378926,-0.00124876,0.00124876,-0.00124876,0.00124876,4.54E-13,8.55E-13,1.39E-12,5.22E-13,-0.001316448,0.001316448,-0.001378926,0.001378926,-0.001378926,0.001378926,-0.001378926,0.001378926,-0.001378926,0.001378926,-0.00124876,0.00124876,-0.00124876,0.00124876,-0.00124876,0.00124876,-0.00124876,0.00124876,-7.07E-12,7.76E-12,-0.001316448,0.001316448,-2.23E-13,6.47E-13,-0.001378926,0.001378926,-0.001378926,0.001378926,-0.001378926,0.001378926,-0.001378926,0.001378926,-0.00124876,0.00124876,-0.00124876,0.00124876,0.739586676,0.546485383,1368840,32768,0.005469978,0.005469978,0.005469978,25.73231618,25.73948672,0.000121059,0.000121059,0.000121059,461592.9411,0.016546259
30219246,0.999889951,0.016074165,0.005358055,0.005358055,0.005358055,-0.001315252,0.001315252,7.21E-12,-7.65E-12,-1.81E-14,-4.27E-13,-0.001378444,0.001378444,-0.001378444,0.001378444,-0.001378444,0.001378444,-0.001378444,0.001378444,-0.001246912,0.001246912,-0.001246912,0.001246912,3.56E-13,7.76E-13,1.29E-12,4.00E-13,-0.001315252,0.001315252,-0.001378444,0.001378444,-0.001378444,0.001378444,-0.001378444,0.001378444,-0.001378444,0.001378444,-0.001246912,0.001246912,-0.001246912,0.001246912,-0.001246912,0.001246912,-0.001246912,0.001246912,-7.12E-12,7.72E-12,-0.001315252,0.001315252,-1.58E-13,7.26E-13,-0.001378444,0.001378444,-0.001378444,0.001378444,-0.001378444,0.001378444,-0.001378444,0.001378444,-0.001246912,0.001246912,-0.001246912,0.001246912,0.735844961,0.50296834,1368840,32768,0.005465021,0.005465021,0.005465021,25.84067474,25.84784811,0.000121925,0.000121925,0.000121925,503498.1842,0.016531147
30305646,0.999893273,0.016074218,0.005358073,0.005358073,0.005358073,-0.001315197,0.001315197,7.23E-12,-7.68E-12,-1.06E-14,-4.36E-13,-0.001378526,0.001378526,-0.001378526,0.001378526,-0.001378526,0.001378526,-0.001378526,0.001378526,-0.001246735,0.001246735,-0.001246735,0.001246735,3.75E-13,8.11E-13,1.28E-12,4.09E-13,-0.001315197,0.001315197,-0.001378526,0.001378526,-0.001378526,0.001378526,-0.001378526,0.001378526,-0.001378526,0.001378526,-0.001246735,0.001246735,-0.001246735,0.001246735,-0.001246735,0.001246735,-0.001246735,0.001246735,-7.12E-12,7.76E-12,-0.001315197,0.001315197,-1.19E-13,7.52E-13,-0.001378526,0.001378526,-0.001378526,0.001378526,-0.001378526,0.001378526,-0.001378526,0.001378526,-0.001246735,0.001246735,-0.001246735,0.001246735,0.731990844,0.459451298,1368840,32768,0.005464794,0.005464794,0.005464794,25.94903352,25.9562095,0.000122792,0.000122792,0.000122792,511261.6426,0.016530457
30392046,0.999896519,0.01607427,0.00535809,0.00535809,0.00535809,-0.001315164,0.001315164,7.22E-12,-7.73E-12,-1.06E-15,-4.65E-13,-0.001378635,0.001378635,-0.001378635,0.001378635,-0.001378635,0.001378635,-0.001378635,0.001378635,-0.001246574,0.001246574,-0.001246574,0.001246574,2.90E-13,7.66E-13,1.19E-12,3.59E-13,-0.001315164,0.001315164,-0.001378635,0.001378635,-0.001378635,0.001378635,-0.001378635,0.001378635,-0.001378635,0.001378635,-0.001246574,0.001246574,-0.001246574,0.001246574,-0.001246574,0.001246574,-0.001246574,0.001246574,-7.11E-12,7.82E-12,-0.001315164,0.001315164,-7.20E-14,7.56E-13,-0.001378635,0.001378635,-0.001378635,0.001378635,-0.001378635,0.001378635,-0.001378635,0.001378635,-0.001246574,0.001246574,-0.001246574,0.001246574,0.728048192,0.415934256,1368840,32768,0.005464657,0.005464657,0.005464657,26.07449936,26.08277333,0.000123796,0.000123796,0.000123796,519428.9442,0.01653004
30478446,0.999899698,0.016074321,0.005358107,0.005358107,0.005358107,-0.001315203,0.001315203,7.40E-12,-7.62E-12,1.09E-13,-3.95E-13,-0.001378822,0.001378822,-0.001378822,0.001378822,-0.001378822,0.001378822,-0.001378822,0.001378822,-0.00124648,0.00124648,-0.00124648,0.00124648,2.44E-13,7.59E-13,1.20E-12,3.05E-13,-0.001315203,0.001315203,-0.001378822,0.001378822,-0.001378822,0.001378822,-0.001378822,0.001378822,-0.001378822,0.001378822,-0.00124648,0.00124648,-0.00124648,0.00124648,-0.00124648,0.00124648,-0.00124648,0.00124648,-7.19E-12,7.80E-12,-0.001315203,0.001315203,-1.53E-13,7.42E-13,-0.001378822,0.001378822,-0.001378822,0.001378822,-0.001378822,0.001378822,-0.001378822,0.001378822,-0.00124648,0.00124648,-0.00124648,0.00124648,0.731581676,0.486632842,1368840,32768,0.005464816,0.005464816,0.005464816,26.24314148,26.25422173,0.000125145,0.000125145,0.000125145,527993.3867,0.016530526
30564846,0.999902809,0.016074371,0.005358124,0.005358124,0.005358124,-0.001315975,0.001315975,7.29E-12,-7.71E-12,7.93E-14,-4.45E-13,-0.001379386,0.001379386,-0.001379386,0.001379386,-0.001379386,0.001379386,-0.001379386,0.001379386,-0.00124745,0.00124745,-0.00124745,0.00124745,2.76E-13,8.13E-13,1.25E-12,3.75E-13,-0.001315975,0.001315975,-0.001379386,0.001379386,-0.001379386,0.001379386,-0.001379386,0.001379386,-0.001379386,0.001379386,-0.00124745,0.00124745,-0.00124745,0.00124745,-0.00124745,0.00124745,-0.00124745,0.00124745,-7.19E-12,7.77E-12,-0.001315975,0.001315975,-1.46E-13,7.21E-13,-0.001379386,0.001379386,-0.001379386,0.001379386,-0.001379386,0.001379386,-0.001379386,0.001379386,-0.00124745,0.00124745,-0.00124745,0.00124745,0.73386643,0.534403168,1368840,32768,0.005468016,0.005468016,0.005468016,26.41432712,26.42567014,0.000126515,0.000126515,0.000126515,514280.1759,0.016540284
30651246,0.999905855,0.01607442,0.00535814,0.00535814,0.00535814,-0.001316592,0.001316592,7.24E-12,-7.76E-12,7.52E-14,-5.30E-13,-0.001379857,0.001379857,-0.001379857,0.001379857,-0.001379857,0.001379857,-0.001379857,0.001379857,-0.001248204,0.001248204,-0.001248204,0.001248204,2.48E-13,8.64E-13,1.30E-12,4.40E-13,-0.001316592,0.001316592,-0.001379857,0.001379857,-0.001379857,0.001379857,-0.001379857,0.001379857,-0.001379857,0.001379857,-0.001248204,0.001248204,-0.001248204,0.001248204,-0.001248204,0.001248204,-0.001248204,0.001248204,-7.18E-12,7.79E-12,-0.001316592,0.001316592,-1.02E-13,7.50E-13,-0.001379857,0.001379857,-0.001379857,0.001379857,-0.001379857,0.001379857,-0.001379857,0.001379857,-0.001248204,0.001248204,-0.001248204,0.001248204,0.735444166,0.568470569,1368840,32768,0.005470575,0.005470575,0.005470575,26.58574423,26.59711855,0.000127886,0.000127886,0.000127886,505136.1361,0.016548085
30737646,0.999908835,0.016074468,0.005358156,0.005358156,0.005358156,-0.001317123,0.001317123,7.17E-12,-7.76E-12,2.77E-14,-6.15E-13,-0.001380287,0.001380287,-0.001380287,0.001380287,-0.001380287,0.001380287,-0.001380287,0.001380287,-0.00124883,0.00124883,-0.00124883,0.00124883,2.85E-13,9.40E-13,1.24E-12,4.31E-13,-0.001317123,0.001317123,-0.001380287,0.001380287,-0.001380287,0.001380287,-0.001380287,0.001380287,-0.001380287,0.001380287,-0.00124883,0.00124883,-0.00124883,0.00124883,-0.00124883,0.00124883,-0.00124883,0.00124883,-7.12E-12,7.78E-12,-0.001317123,0.001317123,-7.87E-14,7.31E-13,-0.001380287,0.001380287,-0.001380287,0.001380287,-0.001380287,0.001380287,-0.001380287,0.001380287,-0.00124883,0.00124883,-0.00124883,0.00124883,0.737649527,0.611106217,1368840,32768,0.005472774,0.005472774,0.005472774,26.75718409,26.76856696,0.000129257,0.000129257,0.000129257,498663.6474,0.016554791
30824046,0.999911749,0.016074515,0.005358172,0.005358172,0.005358172,-0.001317697,0.001317697,7.06E-12,-7.71E-12,-4.19E-14,-6.80E-13,-0.001380739,0.001380739,-0.001380739,0.001380739,-0.001380739,0.001380739,-0.001380739,0.001380739,-0.001249519,0.001249519,-0.001249519,0.001249519,2.39E-13,8.88E-13,1.27E-12,3.93E-13,-0.001317697,0.001317697,-0.001380739,0.001380739,-0.001380739,0.001380739,-0.001380739,0.001380739,-0.001380739,0.001380739,-0.001249519,0.001249519,-0.001249519,0.001249519,-0.001249519,0.001249519,-0.001249519,0.001249519,-7.03E-12,7.70E-12,-0.001317697,0.001317697,-9.59E-14,7.74E-13,-0.001380739,0.001380739,-0.001380739,0.001380739,-0.001380739,0.001380739,-0.001380739,0.001380739,-0.001249519,0.001249519,-0.001249519,0.001249519,0.743167847,0.707773849,1368840,32768,0.005475153,0.005475153,0.005475153,26.92862703,26.94001537,0.000130629,0.000130629,0.000130629,490883.2595,0.016562046
30910446,0.999914598,0.016074561,0.005358187,0.005358187,0.005358187,-0.001318546,0.001318546,7.14E-12,-7.69E-12,4.39E-14,-5.90E-13,-0.001381327,0.001381327,-0.001381327,0.001381327,-0.001381327,0.001381327,-0.001381327,0.001381327,-0.001250612,0.001250612,-0.001250612,0.001250612,2.58E-13,9.03E-13,1.26E-12,3.77E-13,-0.001318546,0.001318546,-0.001381327,0.001381327,-0.001381327,0.001381327,-0.001381327,0.001381327,-0.001381327,0.001381327,-0.001250612,0.001250612,-0.001250612,0.001250612,-0.001250612,0.001250612,-0.001250612,0.001250612,-7.13E-12,7.66E-12,-0.001318546,0.001318546,-1.55E-13,7.27E-13,-0.001381327,0.001381327,-0.001381327,0.001381327,-0.001381327,0.001381327,-0.001381327,0.001381327,-0.001250612,0.001250612,-0.001250612,0.001250612,0.747208011,0.765922507,1368840,32768,0.005478673,0.005478673,0.005478673,27.10007072,27.11146378,0.000132001,0.000132001,0.000132001,474861.1973,0.016572776
30996846,0.999917383,0.016074607,0.005358202,0.005358202,0.005358202,-0.001319179,0.001319179,7.22E-12,-7.74E-12,7.50E-14,-6.17E-13,-0.001381808,0.001381808,-0.001381808,0.001381808,-0.001381808,0.001381808,-0.001381808,0.001381808,-0.001251383,0.001251383,-0.001251383,0.001251383,3.01E-13,1.00E-12,1.28E-12,5.24E-13,-0.001319179,0.001319179,-0.001381808,0.001381808,-0.001381808,0.001381808,-0.001381808,0.001381808,-0.001381808,0.001381808,-0.001251383,0.001251383,-0.001251383,0.001251383,-0.001251383,0.001251383,-0.001251383,0.001251383,-7.14E-12,7.79E-12,-0.001319179,0.001319179,-1.80E-14,7.38E-13,-0.001381808,0.001381808,-0.001381808,0.001381808,-0.001381808,0.001381808,-0.001381808,0.001381808,-0.001251383,0.001251383,-0.001251383,0.001251383,0.749419767,0.783483855,1368840,32768,0.005481295,0.005481295,0.005481295,27.27151391,27.28291218,0.000133372,0.000133372,0.000133372,465251.6552,0.016580773
31083246,0.99992011,0.016074652,0.005358217,0.005358217,0.005358217,-0.001319682,0.001319682,7.19E-12,-7.62E-12,1.35E-14,-5.20E-13,-0.001382256,0.001382256,-0.001382256,0.001382256,-0.001382256,0.001382256,-0.001382256,0.001382256,-0.001251931,0.001251931,-0.001251931,0.001251931,3.71E-13,9.14E-13,1.30E-12,6.04E-13,-0.001319682,0.001319682,-0.001382256,0.001382256,-0.001382256,0.001382256,-0.001382256,0.001382256,-0.001382256,0.001382256,-0.001251931,0.001251931,-0.001251931,0.001251931,-0.001251931,0.001251931,-0.001251931,0.001251931,-7.22E-12,7.56E-12,-0.001319682,0.001319682,-1.54E-13,5.36E-13,-0.001382256,0.001382256,-0.001382256,0.001382256,-0.001382256,0.001382256,-0.001382256,0.001382256,-0.001251931,0.001251931,-0.001251931,0.001251931,0.754912004,0.847618683,1368840,32768,0.00548338,0.00548338,0.00548338,27.48021879,27.4940153,0.000135042,0.000135042,0.000135042,461487.5337,0.01658713
31169646,0.999922784,0.016074697,0.005358232,0.005358232,0.005358232,-0.001320468,0.001320468,7.15E-12,-7.49E-12,-2.70E-14,-4.70E-13,-0.00138288,0.00138288,-0.00138288,0.00138288,-0.00138288,0.00138288,-0.00138288,0.00138288,-0.00125286,0.00125286,-0.00125286,0.00125286,3.50E-13,8.05E-13,1.14E-12,4.45E-13,-0.001320468,0.001320468,-0.00138288,0.00138288,-0.00138288,0.00138288,-0.00138288,0.00138288,-0.00138288,0.00138288,-0.00125286,0.00125286,-0.00125286,0.00125286,-0.00125286,0.00125286,-0.00125286,0.00125286,-7.06E-12,7.54E-12,-0.001320468,0.001320468,-1.14E-13,5.80E-13,-0.00138288,0.00138288,-0.00138288,0.00138288,-0.00138288,0.00138288,-0.00138288,0.00138288,-0.00125286,0.00125286,-0.00125286,0.00125286,0.761287762,0.911987323,1368840,32768,0.005486639,0.005486639,0.005486639,27.72354899,27.73965592,0.000136988,0.000136988,0.000136988,451228.2885,0.016597068
31256046,0.999925405,0.01607474,0.005358247,0.005358247,0.005358247,-0.001321249,0.001321249,6.99E-12,-7.41E-12,1.63E-14,-4.65E-13,-0.001383502,0.001383502,-0.001383502,0.001383502,-0.001383502,0.001383502,-0.001383502,0.001383502,-0.001253777,0.001253777,-0.001253777,0.001253777,3.68E-13,8.61E-13,1.09E-12,4.25E-13,-0.001321249,0.001321249,-0.001383502,0.001383502,-0.001383502,0.001383502,-0.001383502,0.001383502,-0.001383502,0.001383502,-0.001253777,0.001253777,-0.001253777,0.001253777,-0.001253777,0.001253777,-0.001253777,0.001253777,-6.95E-12,7.42E-12,-0.001321249,0.001321249,-9.70E-14,5.64E-13,-0.001383502,0.001383502,-0.001383502,0.001383502,-0.001383502,0.001383502,-0.001383502,0.001383502,-0.001253777,0.001253777,-0.001253777,0.001253777,0.762589818,0.880378423,1368840,32768,0.005489874,0.005489874,0.005489874,27.96896452,27.98529654,0.000138952,0.000138952,0.000138952,441156.8912,0.016606934
31342446,0.999927973,0.016074783,0.005358261,0.005358261,0.005358261,-0.001321608,0.001321608,6.97E-12,-7.48E-12,4.28E-16,-4.56E-13,-0.001383913,0.001383913,-0.001383913,0.001383913,-0.001383913,0.001383913,-0.001383913,0.001383913,-0.001254078,0.001254078,-0.001254078,0.001254078,3.15E-13,7.83E-13,1.14E-12,4.78E-13,-0.001321608,0.001321608,-0.001383913,0.001383913,-0.001383913,0.001383913,-0.001383913,0.001383913,-0.001383913,0.001383913,-0.001254078,0.001254078,-0.001254078,0.001254078,-0.001254078,0.001254078,-0.001254078,0.001254078,-6.98E-12,7.44E-12,-0.001321608,0.001321608,-1.21E-13,5.37E-13,-0.001383913,0.001383913,-0.001383913,0.001383913,-0.001383913,0.001383913,-0.001383913,0.001383913,-0.001254078,0.001254078,-0.001254078,0.001254078,0.760278417,0.814809664,1368840,32768,0.005491361,0.005491361,0.005491361,28.21456792,28.23093717,0.000140917,0.000140917,0.000140917,443371.3648,0.016611472
31428846,0.999930488,0.016074825,0.005358275,0.005358275,0.005358275,-0.001321798,0.001321798,7.07E-12,-7.38E-12,3.80E-14,-3.59E-13,-0.001384242,0.001384242,-0.001384242,0.001384242,-0.001384242,0.001384242,-0.001384242,0.001384242,-0.001254135,0.001254135,-0.001254135,0.001254135,4.13E-13,8.20E-13,1.17E-12,5.01E-13,-0.001321798,0.001321798,-0.001384242,0.001384242,-0.001384242,0.001384242,-0.001384242,0.001384242,-0.001384242,0.001384242,-0.001254135,0.001254135,-0.001254135,0.001254135,-0.001254135,0.001254135,-0.001254135,0.001254135,-6.99E-12,7.43E-12,-0.001321798,0.001321798,-1.29E-13,5.35E-13,-0.001384242,0.001384242,-0.001384242,0.001384242,-0.001384242,0.001384242,-0.001384242,0.001384242,-0.001254135,0.001254135,-0.001254135,0.001254135,0.756488593,0.749240904,1368840,32768,0.005492151,0.005492151,0.005492151,28.46018988,28.47657779,0.000142882,0.000142882,0.000142882,450907.2968,0.016613882
31515246,0.99993295,0.016074865,0.005358288,0.005358288,0.005358288,-0.001321965,0.001321965,6.96E-12,-7.41E-12,-2.14E-14,-4.55E-13,-0.001384568,0.001384568,-0.001384568,0.001384568,-0.001384568,0.001384568,-0.001384568,0.001384568,-0.001254154,0.001254154,-0.001254154,0.001254154,3.58E-13,8.03E-13,1.17E-12,5.24E-13,-0.001321964,0.001321965,-0.001384568,0.001384568,-0.001384568,0.001384568,-0.001384568,0.001384568,-0.001384568,0.001384568,-0.001254154,0.001254154,-0.001254154,0.001254154,-0.001254154,0.001254154,-0.001254154,0.001254154,-6.90E-12,7.45E-12,-0.001321965,0.001321965,-5.25E-14,5.92E-13,-0.001384568,0.001384568,-0.001384568,0.001384568,-0.001384568,0.001384568,-0.001384568,0.001384568,-0.001254154,0.001254154,-0.001254154,0.001254154,0.751854328,0.683672145,1368840,32768,0.005492839,0.005492839,0.005492839,28.70581469,28.72221841,0.000144847,0.000144847,0.000144847,459610.746,0.016615982
31601646,0.999935358,0.016074904,0.005358301,0.005358301,0.005358301,-0.001322109,0.001322109,6.91E-12,-7.55E-12,-1.10E-13,-5.00E-13,-0.00138488,0.00138488,-0.00138488,0.00138488,-0.00138488,0.00138488,-0.00138488,0.00138488,-0.001254144,0.001254144,-0.001254144,0.001254144,3.92E-13,7.92E-13,1.25E-12,5.82E-13,-0.001322109,0.001322109,-0.00138488,0.00138488,-0.00138488,0.00138488,-0.00138488,0.00138488,-0.00138488,0.00138488,-0.001254144,0.001254144,-0.001254144,0.001254144,-0.001254144,0.001254144,-0.001254144,0.001254144,-7.04E-12,7.39E-12,-0.001322109,0.001322109,-7.03E-14,5.96E-13,-0.00138488,0.00138488,-0.00138488,0.00138488,-0.00138488,0.00138488,-0.00138488,0.00138488,-0.001254144,0.001254144,-0.001254144,0.001254144,0.746729202,0.618103386,1368840,32768,0.005493436,0.005493436,0.005493436,28.95144061,28.96785903,0.000146812,0.000146812,0.000146812,469136.9013,0.016617802
31688046,0.999937712,0.016074943,0.005358314,0.005358314,0.005358314,-0.001322231,0.001322231,6.96E-12,-7.50E-12,3.56E-14,-4.85E-13,-0.001385186,0.001385186,-0.001385186,0.001385186,-0.001385186,0.001385186,-0.001385186,0.001385186,-0.001254102,0.001254102,-0.001254102,0.001254102,4.87E-13,1.02E-12,1.28E-12,5.91E-13,-0.001322231,0.001322231,-0.001385186,0.001385186,-0.001385186,0.001385186,-0.001385186,0.001385186,-0.001385186,0.001385186,-0.001254102,0.001254102,-0.001254102,0.001254102,-0.001254102,0.001254102,-0.001254102,0.001254102,-6.79E-12,7.64E-12,-0.001322231,0.001322231,1.04E-13,7.92E-13,-0.001385186,0.001385186,-0.001385186,0.001385186,-0.001385186,0.001385186,-0.001385186,0.001385186,-0.001254102,0.001254102,-0.001254102,0.001254102,0.741278384,0.552534626,1368840,32768,0.005493944,0.005493944,0.005493944,29.19706722,29.21349965,0.000148777,0.000148777,0.000148777,479489.885,0.016619354
31774446,0.999939989,0.016074979,0.005358326,0.005358326,0.005358326,-0.00132199,0.00132199,7.05E-12,-7.45E-12,3.86E-14,-4.55E-13,-0.001385144,0.001385144,-0.001385144,0.001385144,-0.001385144,0.001385144,-0.001385144,0.001385144,-0.001253682,0.001253682,-0.001253682,0.001253682,3.50E-13,8.54E-13,1.20E-12,5.10E-13,-0.00132199,0.00132199,-0.001385144,0.001385144,-0.001385144,0.001385144,-0.001385144,0.001385144,-0.001385144,0.001385144,-0.001253682,0.001253682,-0.001253682,0.001253682,-0.001253682,0.001253682,-0.001253682,0.001253682,-6.97E-12,7.49E-12,-0.00132199,0.00132199,-5.10E-14,6.35E-13,-0.001385144,0.001385144,-0.001385144,0.001385144,-0.001385144,0.001385144,-0.001385144,0.001385144,-0.001253682,0.001253682,-0.001253682,0.001253682,0.734856967,0.47604648,1368840,32768,0.005492944,0.005492944,0.005492944,29.26547879,29.27046158,0.000149324,0.000149324,0.000149324,490739.0854,0.016616305
31860846,0.999942185,0.016075015,0.005358338,0.005358338,0.005358338,-0.001321543,0.001321543,7.05E-12,-7.52E-12,1.84E-14,-5.10E-13,-0.001384944,0.001384944,-0.001384944,0.001384944,-0.001384944,0.001384944,-0.001384944,0.001384944,-0.001253014,0.001253014,-0.001253014,0.001253014,3.07E-13,8.46E-13,1.20E-12,4.85E-13,-0.001321543,0.001321543,-0.001384944,0.001384944,-0.001384944,0.001384944,-0.001384944,0.001384944,-0.001384944,0.001384944,-0.001253014,0.001253014,-0.001253014,0.001253014,-0.001253014,0.001253014,-0.001253014,0.001253014,-7.00E-12,7.54E-12,-0.001321543,0.001321543,-7.91E-14,6.33E-13,-0.001384944,0.001384944,-0.001384944,0.001384944,-0.001384944,0.001384944,-0.001384944,0.001384944,-0.001253014,0.001253014,-0.001253014,0.001253014,0.749953922,0.757170754,1368840,32768,0.005491092,0.005491092,0.005491092,29.27363889,29.27434383,0.000149389,0.000149389,0.000149389,504841.868,0.016610659
31947246,0.9999443,0.01607505,0.00535835,0.00535835,0.00535835,-0.001323057,0.001323057,7.05E-12,-7.52E-12,2.59E-14,-5.09E-13,-0.00138571,0.00138571,-0.00138571,0.00138571,-0.00138571,0.00138571,-0.00138571,0.00138571,-0.001255227,0.001255227,-0.001255227,0.001255227,3.10E-13,8.57E-13,1.20E-12,5.02E-13,-0.001323057,0.001323057,-0.00138571,0.00138571,-0.00138571,0.00138571,-0.00138571,0.00138571,-0.00138571,0.00138571,-0.001255227,0.001255227,-0.001255227,0.001255227,-0.001255227,0.001255227,-0.001255227,0.001255227,-7.01E-12,7.53E-12,-0.001323057,0.001323057,-8.02E-14,6.17E-13,-0.00138571,0.00138571,-0.00138571,0.00138571,-0.00138571,0.00138571,-0.00138571,0.00138571,-0.001255227,0.001255227,-0.001255227,0.001255227,0.752105942,0.778376592,1368840,32768,0.005497367,0.005497367,0.005497367,29.2779222,29.27822609,0.000149423,0.000149423,0.000149423,459471.0288,0.016629789
32033646,0.999946338,0.016075084,0.005358361,0.005358361,0.005358361,-0.001323178,0.001323178,7.04E-12,-7.52E-12,2.72E-14,-5.15E-13,-0.001385764,0.001385764,-0.001385764,0.001385764,-0.001385764,0.001385764,-0.001385764,0.001385764,-0.001255406,0.001255406,-0.001255406,0.001255406,3.12E-13,8.65E-13,1.20E-12,5.15E-13,-0.001323178,0.001323178,-0.001385764,0.001385764,-0.001385764,0.001385764,-0.001385764,0.001385764,-0.001385764,0.001385764,-0.001255406,0.001255406,-0.001255406,0.001255406,-0.001255406,0.001255406,-0.001255406,0.001255406,-7.00E-12,7.53E-12,-0.001323178,0.001323178,-7.34E-14,6.13E-13,-0.001385764,0.001385764,-0.001385764,0.001385764,-0.001385764,0.001385764,-0.001385764,0.001385764,-0.001255406,0.001255406,-0.001255406,0.001255406,0.754507433,0.799582431,1368840,32768,0.005497869,0.005497869,0.005497869,29.2818442,29.28210834,0.000149455,0.000149455,0.000149455,455293.7797,0.016631322
32120046,0.999948303,0.016075116,0.005358372,0.005358372,0.005358372,-0.001323298,0.001323298,7.05E-12,-7.52E-12,2.99E-14,-5.15E-13,-0.001385825,0.001385825,-0.001385825,0.001385825,-0.001385825,0.001385825,-0.001385825,0.001385825,-0.001255575,0.001255575,-0.001255575,0.001255575,3.09E-13,8.65E-13,1.20E-12,5.10E-13,-0.001323298,0.001323298,-0.001385825,0.001385825,-0.001385825,0.001385825,-0.001385825,0.001385825,-0.001385825,0.001385825,-0.001255575,0.001255575,-0.001255575,0.001255575,-0.001255575,0.001255575,-0.001255575,0.001255575,-7.01E-12,7.53E-12,-0.001323298,0.001323298,-8.37E-14,6.05E-13,-0.001385825,0.001385825,-0.001385825,0.001385825,-0.001385825,0.001385825,-0.001385825,0.001385825,-0.001255575,0.001255575,-0.001255575,0.001255575,0.757564203,0.826416569,1368840,32768,0.005498365,0.005498365,0.005498365,29.28573048,29.2859906,0.000149486,0.000149486,0.000149486,451231.7966,0.016632834
32206446,0.999950195,0.016075148,0.005358383,0.005358383,0.005358383,-0.001323442,0.001323442,7.03E-12,-7.53E-12,3.11E-14,-5.26E-13,-0.001385897,0.001385897,-0.001385897,0.001385897,-0.001385897,0.001385897,-0.001385897,0.001385897,-0.00125578,0.00125578,-0.00125578,0.00125578,3.05E-13,8.73E-13,1.20E-12,5.14E-13,-0.001323442,0.001323442,-0.001385897,0.001385897,-0.001385897,0.001385897,-0.001385897,0.001385897,-0.001385897,0.001385897,-0.00125578,0.00125578,-0.00125578,0.00125578,-0.00125578,0.00125578,-0.00125578,0.00125578,-7.00E-12,7.53E-12,-0.001323442,0.001323442,-7.77E-14,6.06E-13,-0.001385897,0.001385897,-0.001385897,0.001385897,-0.001385897,0.001385897,-0.001385897,0.001385897,-0.00125578,0.00125578,-0.00125578,0.00125578,0.761050577,0.85428823,1368840,32768,0.005498963,0.005498963,0.005498963,29.28961319,29.28987285,0.000149517,0.000149517,0.000149517,446383.2324,0.016634657
32292846,0.999952019,0.016075178,0.005358393,0.005358393,0.005358393,-0.001323589,0.001323589,7.03E-12,-7.53E-12,3.55E-14,-5.35E-13,-0.001385971,0.001385971,-0.001385971,0.001385971,-0.001385971,0.001385971,-0.001385971,0.001385971,-0.001255988,0.001255988,-0.001255988,0.001255988,3.01E-13,8.82E-13,1.20E-12,5.24E-13,-0.001323589,0.001323589,-0.001385971,0.001385971,-0.001385971,0.001385971,-0.001385971,0.001385971,-0.001385971,0.001385971,-0.001255988,0.001255988,-0.001255988,0.001255988,-0.001255988,0.001255988,-0.001255988,0.001255988,-7.00E-12,7.52E-12,-0.001323589,0.001323589,-7.30E-14,5.96E-13,-0.001385971,0.001385971,-0.001385971,0.001385971,-0.001385971,0.001385971,-0.001385971,0.001385971,-0.001255988,0.001255988,-0.001255988,0.001255988,0.764862743,0.882159892,1368840,32768,0.005499572,0.005499572,0.005499572,29.29349554,29.29375511,0.000149548,0.000149548,0.000149548,441405.967,0.016636515
32379246,0.999953777,0.016075208,0.005358403,0.005358403,0.005358403,-0.001323734,0.001323734,7.03E-12,-7.53E-12,3.70E-14,-5.38E-13,-0.001386044,0.001386044,-0.001386044,0.001386044,-0.001386044,0.001386044,-0.001386044,0.001386044,-0.001256192,0.001256192,-0.001256192,0.001256192,2.98E-13,8.85E-13,1.19E-12,5.27E-13,-0.001323734,0.001323734,-0.001386044,0.001386044,-0.001386044,0.001386044,-0.001386044,0.001386044,-0.001386044,0.001386044,-0.001256192,0.001256192,-0.001256192,0.001256192,-0.001256192,0.001256192,-0.001256192,0.001256192,-7.00E-12,7.52E-12,-0.001323734,0.001323734,-7.12E-14,5.94E-13,-0.001386044,0.001386044,-0.001386044,0.001386044,-0.001386044,0.001386044,-0.001386044,0.001386044,-0.001256192,0.001256192,-0.001256192,0.001256192,0.768937997,0.910031553,1368840,32768,0.005500172,0.005500172,0.005500172,29.29737786,29.29763736,0.000149579,0.000149579,0.000149579,436453.4106,0.016638342
32465646,0.99995547,0.016075236,0.005358412,0.005358412,0.005358412,-0.001323876,0.001323876,7.02E-12,-7.53E-12,4.20E-14,-5.43E-13,-0.001386115,0.001386115,-0.001386115,0.001386115,-0.001386115,0.001386115,-0.001386115,0.001386115,-0.00125639,0.00125639,-0.00125639,0.00125639,2.94E-13,8.90E-13,1.20E-12,5.25E-13,-0.001323876,0.001323876,-0.001386115,0.001386115,-0.001386115,0.001386115,-0.001386115,0.001386115,-0.001386115,0.001386115,-0.00125639,0.00125639,-0.00125639,0.00125639,-0.00125639,0.00125639,-0.00125639,0.00125639,-7.00E-12,7.52E-12,-0.001323876,0.001323876,-7.43E-14,5.94E-13,-0.001386115,0.001386115,-0.001386115,0.001386115,-0.001386115,0.001386115,-0.001386115,0.001386115,-0.00125639,0.00125639,-0.00125639,0.00125639,0.766500878,0.839853705,1368840,32768,0.005500759,0.005500759,0.005500759,29.30126005,29.30151961,0.00014961,0.00014961,0.00014961,431559.6858,0.016640134
32552046,0.9999571,0.016075263,0.005358421,0.005358421,0.005358421,-0.001323545,0.001323545,7.05E-12,-7.50E-12,4.95E-14,-4.89E-13,-0.00138593,0.00138593,-0.00138593,0.00138593,-0.00138593,0.00138593,-0.00138593,0.00138593,-0.001255922,0.001255922,-0.001255922,0.001255922,3.12E-13,8.61E-13,1.19E-12,5.33E-13,-0.001323545,0.001323545,-0.00138593,0.00138593,-0.00138593,0.00138593,-0.00138593,0.00138593,-0.00138593,0.00138593,-0.001255922,0.001255922,-0.001255922,0.001255922,-0.001255922,0.001255922,-0.001255922,0.001255922,-7.01E-12,7.52E-12,-0.001323545,0.001323545,-7.72E-14,5.78E-13,-0.00138593,0.00138593,-0.00138593,0.00138593,-0.00138593,0.00138593,-0.00138593,0.00138593,-0.001255922,0.001255922,-0.001255922,0.001255922,0.75988224,0.735595881,1368840,32768,0.00549939,0.00549939,0.00549939,29.28300359,29.28183301,0.000149464,0.000149464,0.000149464,439395.2294,0.016635959
32638446,0.999958668,0.016075289,0.00535843,0.00535843,0.00535843,-0.001323011,0.001323011,7.04E-12,-7.51E-12,1.77E-14,-5.17E-13,-0.001385642,0.001385642,-0.001385642,0.001385642,-0.001385642,0.001385642,-0.001385642,0.001385642,-0.001255161,0.001255161,-0.001255161,0.001255161,3.15E-13,8.61E-13,1.18E-12,5.07E-13,-0.001323011,0.001323011,-0.001385642,0.001385642,-0.001385642,0.001385642,-0.001385642,0.001385642,-0.001385642,0.001385642,-0.001255161,0.001255161,-0.001255161,0.001255161,-0.001255161,0.001255161,-0.001255161,0.001255161,-7.00E-12,7.53E-12,-0.001323011,0.001323011,-7.66E-14,5.98E-13,-0.001385642,0.001385642,-0.001385642,0.001385642,-0.001385642,0.001385642,-0.001385642,0.001385642,-0.001255161,0.001255161,-0.001255161,0.001255161,0.752089364,0.631338056,1368840,32768,0.005497173,0.005497173,0.005497173,29.25798609,29.25633051,0.000149264,0.000149264,0.000149264,453407.4539,0.016629202
32724846,0.999960176,0.016075314,0.005358438,0.005358438,0.005358438,-0.001322426,0.001322426,7.03E-12,-7.52E-12,2.58E-14,-5.10E-13,-0.001385338,0.001385338,-0.001385338,0.001385338,-0.001385338,0.001385338,-0.001385338,0.001385338,-0.001254322,0.001254322,-0.001254322,0.001254322,3.08E-13,8.55E-13,1.17E-12,5.27E-13,-0.001322426,0.001322426,-0.001385338,0.001385338,-0.001385338,0.001385338,-0.001385338,0.001385338,-0.001385338,0.001385338,-0.001254322,0.001254322,-0.001254322,0.001254322,-0.001254322,0.001254322,-0.001254322,0.001254322,-7.00E-12,7.52E-12,-0.001322426,0.001322426,-6.51E-14,5.79E-13,-0.001385338,0.001385338,-0.001385338,0.001385338,-0.001385338,0.001385338,-0.001385338,0.001385338,-0.001254322,0.001254322,-0.001254322,0.001254322,0.743640237,0.527080232,1368840,32768,0.00549475,0.00549475,0.00549475,29.23252921,29.23082801,0.00014906,0.00014906,0.00014906,469343.1614,0.016621813
32811246,0.999961627,0.016075337,0.005358446,0.005358446,0.005358446,-0.001321789,0.001321789,7.02E-12,-7.51E-12,2.20E-14,-5.09E-13,-0.001385007,0.001385007,-0.001385007,0.001385007,-0.001385007,0.001385007,-0.001385007,0.001385007,-0.00125341,0.00125341,-0.00125341,0.00125341,3.09E-13,8.51E-13,1.18E-12,5.22E-13,-0.001321789,0.001321789,-0.001385007,0.001385007,-0.001385007,0.001385007,-0.001385007,0.001385007,-0.001385007,0.001385007,-0.00125341,0.00125341,-0.00125341,0.00125341,-0.00125341,0.00125341,-0.00125341,0.00125341,-6.99E-12,7.51E-12,-0.001321789,0.001321789,-6.50E-14,5.87E-13,-0.001385007,0.001385007,-0.001385007,0.001385007,-0.001385007,0.001385007,-0.001385007,0.001385007,-0.00125341,0.00125341,-0.00125341,0.00125341,0.734972912,0.42519166,1368840,32768,0.00549211,0.00549211,0.00549211,29.20703115,29.20532551,0.000148856,0.000148856,0.000148856,487092.0271,0.016613764
32897646,0.999963024,0.01607536,0.005358453,0.005358453,0.005358453,-0.001321109,0.001321109,7.02E-12,-7.50E-12,2.56E-14,-5.00E-13,-0.001384656,0.001384656,-0.001384656,0.001384656,-0.001384656,0.001384656,-0.001384656,0.001384656,-0.001252433,0.001252433,-0.001252433,0.001252433,3.02E-13,8.39E-13,1.16E-12,5.45E-13,-0.001321109,0.001321109,-0.001384656,0.001384656,-0.001384656,0.001384656,-0.001384656,0.001384656,-0.001384656,0.001384656,-0.001252433,0.001252433,-0.001252433,0.001252433,-0.001252433,0.001252433,-0.001252433,0.001252433,-6.99E-12,7.50E-12,-0.001321109,0.001321109,-4.96E-14,5.61E-13,-0.001384656,0.001384656,-0.001384656,0.001384656,-0.001384656,0.001384656,-0.001384656,0.001384656,-0.001252433,0.001252433,-0.001252433,0.001252433,0.740811327,0.540375726,1368840,32768,0.005489293,0.005489293,0.005489293,29.18152905,29.179823,0.000148652,0.000148652,0.000148652,506402.7327,0.016605175
32984046,0.999964367,0.016075381,0.00535846,0.00535846,0.00535846,-0.001321727,0.001321727,7.02E-12,-7.51E-12,2.25E-14,-5.05E-13,-0.001384938,0.001384938,-0.001384938,0.001384938,-0.001384938,0.001384938,-0.001384938,0.001384938,-0.001253364,0.001253364,-0.001253364,0.001253364,3.11E-13,8.50E-13,1.15E-12,5.51E-13,-0.001321727,0.001321727,-0.001384938,0.001384938,-0.001384938,0.001384938,-0.001384938,0.001384938,-0.001384938,0.001384938,-0.001253364,0.001253364,-0.001253364,0.001253364,-0.001253364,0.001253364,-0.001253364,0.001253364,-7.00E-12,7.50E-12,-0.001321727,0.001321727,-4.78E-14,5.48E-13,-0.001384938,0.001384938,-0.001384938,0.001384938,-0.001384938,0.001384938,-0.001384938,0.001384938,-0.001253364,0.001253364,-0.001253364,0.001253364,0.743794178,0.603879557,1368840,32768,0.005491853,0.005491853,0.005491853,29.15602646,29.1543205,0.000148448,0.000148448,0.000148448,485789.071,0.016612979
33070446,0.99996566,0.016075403,0.005358468,0.005358468,0.005358468,-0.001322021,0.001322021,7.00E-12,-7.48E-12,1.26E-14,-5.03E-13,-0.001385061,0.001385061,-0.001385061,0.001385061,-0.001385061,0.001385061,-0.001385061,0.001385061,-0.00125382,0.00125382,-0.00125382,0.00125382,3.32E-13,8.58E-13,1.16E-12,5.61E-13,-0.001322021,0.001322021,-0.001385061,0.001385061,-0.001385061,0.001385061,-0.001385061,0.001385061,-0.001385061,0.001385061,-0.00125382,0.00125382,-0.00125382,0.00125382,-0.00125382,0.00125382,-0.00125382,0.00125382,-6.98E-12,7.47E-12,-0.001322021,0.001322021,-4.49E-14,5.55E-13,-0.001385061,0.001385061,-0.001385061,0.001385061,-0.001385061,0.001385061,-0.001385061,0.001385061,-0.00125382,0.00125382,-0.00125382,0.00125382,0.754610626,0.794612413,1368840,32768,0.005493073,0.005493073,0.005493073,29.1305233,29.128818,0.000148244,0.000148244,0.000148244,475086.4063,0.016616698
33156846,0.999966904,0.016075423,0.005358474,0.005358474,0.005358474,-0.001322921,0.001322921,7.00E-12,-7.48E-12,1.71E-14,-4.96E-13,-0.001385482,0.001385482,-0.001385482,0.001385482,-0.001385482,0.001385482,-0.001385482,0.001385482,-0.001255164,0.001255164,-0.001255164,0.001255164,3.18E-13,8.42E-13,1.16E-12,5.41E-13,-0.001322921,0.001322921,-0.001385482,0.001385482,-0.001385482,0.001385482,-0.001385482,0.001385482,-0.001385482,0.001385482,-0.001255164,0.001255164,-0.001255164,0.001255164,-0.001255164,0.001255164,-0.001255164,0.001255164,-6.97E-12,7.48E-12,-0.001322921,0.001322921,-5.35E-14,5.60E-13,-0.001385482,0.001385482,-0.001385482,0.001385482,-0.001385482,0.001385482,-0.001385482,0.001385482,-0.001255164,0.001255164,-0.001255164,0.001255164,0.757407187,0.816129504,1368840,32768,0.005496801,0.005496801,0.005496801,29.10502041,29.10331549,0.00014804,0.00014804,0.00014804,446366.0714,0.016628064
33243246,0.999968102,0.016075443,0.005358481,0.005358481,0.005358481,-0.001322985,0.001322985,7.01E-12,-7.49E-12,2.03E-14,-4.98E-13,-0.001385485,0.001385485,-0.001385485,0.001385485,-0.001385485,0.001385485,-0.001385485,0.001385485,-0.001255279,0.001255279,-0.001255279,0.001255279,3.19E-13,8.48E-13,1.16E-12,5.45E-13,-0.001322985,0.001322985,-0.001385485,0.001385485,-0.001385485,0.001385485,-0.001385485,0.001385485,-0.001385485,0.001385485,-0.001255279,0.001255279,-0.001255279,0.001255279,-0.001255279,0.001255279,-0.001255279,0.001255279,-6.98E-12,7.49E-12,-0.001322985,0.001322985,-5.26E-14,5.56E-13,-0.001385485,0.001385485,-0.001385485,0.001385485,-0.001385485,0.001385485,-0.001385485,0.001385485,-0.001255279,0.001255279,-0.001255279,0.001255279,0.760410591,0.837646595,1368840,32768,0.005497067,0.005497067,0.005497067,29.07951749,29.07781299,0.000147836,0.000147836,0.000147836,442189.4111,0.016628874
33329646,0.999969262,0.016075463,0.005358488,0.005358488,0.005358488,-0.001323281,0.001323281,7.00E-12,-7.49E-12,5.04E-14,-5.39E-13,-0.001385719,0.001385719,-0.001385719,0.001385719,-0.001385719,0.001385719,-0.001385719,0.001385719,-0.001255627,0.001255627,-0.001255627,0.001255627,2.83E-13,8.83E-13,1.17E-12,5.43E-13,-0.001323281,0.001323281,-0.001385719,0.001385719,-0.001385719,0.001385719,-0.001385719,0.001385719,-0.001385719,0.001385719,-0.001255627,0.001255627,-0.001255627,0.001255627,-0.001255627,0.001255627,-0.001255627,0.001255627,-6.98E-12,7.49E-12,-0.001323281,0.001323281,-5.69E-14,5.65E-13,-0.001385719,0.001385719,-0.001385719,0.001385719,-0.001385719,0.001385719,-0.001385719,0.001385719,-0.001255627,0.001255627,-0.001255627,0.001255627,0.763620383,0.859163687,1368840,32768,0.005498293,0.005498293,0.005498293,29.17527746,29.18140154,0.000148602,0.000148602,0.000148602,437989.3982,0.016632614
33416046,0.999970388,0.016075481,0.005358494,0.005358494,0.005358494,-0.001323638,0.001323638,7.08E-12,-7.46E-12,-7.77E-15,-5.33E-13,-0.001386019,0.001386019,-0.001386019,0.001386019,-0.001386019,0.001386019,-0.001386019,0.001386019,-0.001256031,0.001256031,-0.001256031,0.001256031,3.03E-13,8.40E-13,1.13E-12,5.02E-13,-0.001323638,0.001323638,-0.001386019,0.001386019,-0.001386019,0.001386019,-0.001386019,0.001386019,-0.001386019,0.001386019,-0.001256031,0.001256031,-0.001256031,0.001256031,-0.001256031,0.001256031,-0.001256031,0.001256031,-6.85E-12,7.65E-12,-0.001323638,0.001323638,9.00E-14,7.14E-13,-0.001386019,0.001386019,-0.001386019,0.001386019,-0.001386019,0.001386019,-0.001386019,0.001386019,-0.001256031,0.001256031,-0.001256031,0.001256031,0.767015658,0.880680778,1368840,32768,0.005499775,0.005499775,0.005499775,29.30409577,29.31261776,0.000149633,0.000149633,0.000149633,433905.8944,0.016637133
33502446,0.999971481,0.0160755,0.0053585,0.0053585,0.0053585,-0.001323998,0.001323998,6.94E-12,-7.61E-12,-1.59E-13,-5.95E-13,-0.001386322,0.001386322,-0.001386322,0.001386322,-0.001386322,0.001386322,-0.001386322,0.001386322,-0.001256436,0.001256436,-0.001256436,0.001256436,4.38E-13,8.86E-13,1.19E-12,5.51E-13,-0.001323998,0.001323998,-0.001386322,0.001386322,-0.001386322,0.001386322,-0.001386322,0.001386322,-0.001386322,0.001386322,-0.001256436,0.001256436,-0.001256436,0.001256436,-0.001256436,0.001256436,-0.001256436,0.001256436,-6.92E-12,7.60E-12,-0.001323998,0.001323998,-1.44E-15,6.35E-13,-0.001386322,0.001386322,-0.001386322,0.001386322,-0.001386322,0.001386322,-0.001386322,0.001386322,-0.001256436,0.001256436,-0.001256436,0.001256436,0.770569329,0.902197869,1368840,32768,0.005501265,0.005501265,0.005501265,29.43508501,29.44383397,0.000150681,0.000150681,0.000150681,429870.4433,0.016641677
33588846,0.999972542,0.016075518,0.005358506,0.005358506,0.005358506,-0.001324355,0.001324355,7.00E-12,-7.54E-12,-9.34E-14,-5.54E-13,-0.001386625,0.001386625,-0.001386625,0.001386625,-0.001386625,0.001386625,-0.001386625,0.001386625,-0.001256837,0.001256837,-0.001256837,0.001256837,3.44E-13,8.17E-13,1.17E-12,4.97E-13,-0.001324355,0.001324355,-0.001386625,0.001386625,-0.001386625,0.001386625,-0.001386625,0.001386625,-0.001386625,0.001386625,-0.001256837,0.001256837,-0.001256837,0.001256837,-0.001256837,0.001256837,-0.001256837,0.001256837,-7.04E-12,7.47E-12,-0.001324355,0.001324355,-9.64E-14,5.77E-13,-0.001386625,0.001386625,-0.001386625,0.001386625,-0.001386625,0.001386625,-0.001386625,0.001386625,-0.001256837,0.001256837,-0.001256837,0.001256837,0.774254621,0.92371496,1368840,32768,0.005502746,0.005502746,0.005502746,29.56627745,29.57505018,0.00015173,0.00015173,0.00015173,425906.9246,0.016646195
33675246,0.999973571,0.016075535,0.005358512,0.005358512,0.005358512,-0.00132471,0.00132471,7.01E-12,-7.52E-12,-5.20E-15,-4.65E-13,-0.001386924,0.001386924,-0.001386924,0.001386924,-0.001386924,0.001386924,-0.001386924,0.001386924,-0.001257236,0.001257236,-0.001257236,0.001257236,3.06E-13,7.77E-13,1.19E-12,5.03E-13,-0.00132471,0.00132471,-0.001386924,0.001386924,-0.001386924,0.001386924,-0.001386924,0.001386924,-0.001386924,0.001386924,-0.001257236,0.001257236,-0.001257236,0.001257236,-0.001257236,0.001257236,-0.001257236,0.001257236,-7.00E-12,7.50E-12,-0.00132471,0.00132471,-6.26E-14,6.27E-13,-0.001386924,0.001386924,-0.001386924,0.001386924,-0.001386924,0.001386924,-0.001386924,0.001386924,-0.001257236,0.001257236,-0.001257236,0.001257236,0.77655585,0.921424785,1368840,32768,0.005504218,0.005504218,0.005504218,29.69748891,29.7062664,0.00015278,0.00015278,0.00015278,421974.0836,0.016650683
33761646,0.999974569,0.016075552,0.005358517,0.005358517,0.005358517,-0.001324965,0.001324965,7.06E-12,-7.47E-12,-6.02E-15,-4.37E-13,-0.001387174,0.001387174,-0.001387174,0.001387174,-0.001387174,0.001387174,-0.001387174,0.001387174,-0.001257487,0.001257488,-0.001257488,0.001257487,3.59E-13,8.01E-13,1.19E-12,4.95E-13,-0.001324965,0.001324965,-0.001387174,0.001387174,-0.001387174,0.001387174,-0.001387174,0.001387174,-0.001387174,0.001387174,-0.001257488,0.001257488,-0.001257488,0.001257488,-0.001257488,0.001257488,-0.001257488,0.001257488,-6.98E-12,7.52E-12,-0.001324965,0.001324965,-5.24E-14,6.37E-13,-0.001387174,0.001387174,-0.001387174,0.001387174,-0.001387174,0.001387174,-0.001387174,0.001387174,-0.001257487,0.001257488,-0.001257488,0.001257488,0.779857236,0.939561788,1368840,32768,0.005505273,0.005505273,0.005505273,29.82870319,29.83748261,0.00015383,0.00015383,0.00015383,420988.0523,0.016653901
33848046,0.999975536,0.016075569,0.005358523,0.005358523,0.005358523,-0.0013253,0.0013253,7.04E-12,-7.49E-12,-2.02E-14,-4.41E-13,-0.001387467,0.001387467,-0.001387467,0.001387467,-0.001387467,0.001387467,-0.001387467,0.001387467,-0.001257856,0.001257856,-0.001257856,0.001257856,3.60E-13,7.92E-13,1.20E-12,4.90E-13,-0.0013253,0.0013253,-0.001387467,0.001387467,-0.001387467,0.001387467,-0.001387467,0.001387467,-0.001387467,0.001387467,-0.001257856,0.001257856,-0.001257856,0.001257856,-0.001257856,0.001257856,-0.001257856,0.001257856,-6.97E-12,7.53E-12,-0.0013253,0.0013253,-6.87E-14,6.37E-13,-0.001387467,0.001387467,-0.001387467,0.001387467,-0.001387467,0.001387467,-0.001387467,0.001387467,-0.001257856,0.001257856,-0.001257856,0.001257856,0.773965382,0.826326197,1368840,32768,0.005506663,0.005506663,0.005506663,29.95991102,29.96869882,0.000154879,0.000154879,0.000154879,417708.7122,0.016658143
33934446,0.999976473,0.016075585,0.005358528,0.005358528,0.005358528,-0.001325076,0.001325076,7.06E-12,-7.54E-12,2.66E-15,-4.44E-13,-0.001387478,0.001387478,-0.001387478,0.001387478,-0.001387478,0.001387478,-0.001387478,0.001387478,-0.00125741,0.00125741,-0.00125741,0.00125741,3.66E-13,8.24E-13,1.21E-12,4.99E-13,-0.001325076,0.001325076,-0.001387478,0.001387478,-0.001387478,0.001387478,-0.001387478,0.001387478,-0.001387478,0.001387478,-0.00125741,0.00125741,-0.00125741,0.00125741,-0.00125741,0.00125741,-0.00125741,0.00125741,-7.04E-12,7.53E-12,-0.001325076,0.001325076,-8.93E-14,6.14E-13,-0.001387478,0.001387478,-0.001387478,0.001387478,-0.001387478,0.001387478,-0.001387478,0.001387478,-0.00125741,0.00125741,-0.00125741,0.00125741,0.770746392,0.779953885,1368840,32768,0.005505731,0.005505731,0.005505731,30.09112113,30.09991504,0.000155929,0.000155929,0.000155929,431028.6644,0.0166553
34020846,0.999977381,0.0160756,0.005358533,0.005358533,0.005358533,-0.001325112,0.001325112,7.12E-12,-7.49E-12,6.88E-14,-3.92E-13,-0.00138763,0.00138763,-0.00138763,0.00138763,-0.00138763,0.00138763,-0.00138763,0.00138763,-0.001257342,0.001257342,-0.001257342,0.001257342,2.73E-13,7.46E-13,1.11E-12,4.25E-13,-0.001325112,0.001325112,-0.00138763,0.00138763,-0.00138763,0.00138763,-0.00138763,0.00138763,-0.00138763,0.00138763,-0.001257342,0.001257342,-0.001257342,0.001257342,-0.001257342,0.001257342,-0.001257342,0.001257342,-7.00E-12,7.58E-12,-0.001325112,0.001325112,-5.83E-14,6.27E-13,-0.00138763,0.00138763,-0.00138763,0.00138763,-0.00138763,0.00138763,-0.00138763,0.00138763,-0.001257342,0.001257342,-0.001257342,0.001257342,0.768565735,0.756596961,1368840,32768,0.005505881,0.005505881,0.005505881,30.22233231,30.23113125,0.000156979,0.000156979,0.000156979,437081.2117,0.016655761
34107246,0.999978267,0.016075615,0.005358538,0.005358538,0.005358538,-0.001325473,0.001325473,7.11E-12,-7.50E-12,5.79E-14,-3.81E-13,-0.001388052,0.001388052,-0.001388052,0.001388052,-0.001388052,0.001388052,-0.001388052,0.001388052,-0.001257647,0.001257647,-0.001257647,0.001257647,4.19E-13,8.68E-13,1.26E-12,6.14E-13,-0.001325473,0.001325473,-0.001388052,0.001388052,-0.001388052,0.001388052,-0.001388052,0.001388052,-0.001388052,0.001388052,-0.001257647,0.001257647,-0.001257647,0.001257647,-0.001257647,0.001257647,-0.001257647,0.001257647,-6.92E-12,7.66E-12,-0.001325473,0.001325473,1.20E-14,6.57E-13,-0.001388052,0.001388052,-0.001388052,0.001388052,-0.001388052,0.001388052,-0.001388052,0.001388052,-0.001257647,0.001257647,-0.001257647,0.001257647,0.766210336,0.733240038,1368840,32768,0.005507378,0.005507378,0.005507378,30.47049009,30.48687761,0.000158964,0.000158964,0.000158964,440217.4281,0.016660325
34193646,0.999979131,0.016075629,0.005358543,0.005358543,0.005358543,-0.001325887,0.001325887,7.06E-12,-7.52E-12,2.70E-14,-4.83E-13,-0.001388532,0.001388532,-0.001388532,0.001388532,-0.001388532,0.001388532,-0.001388532,0.001388532,-0.001258003,0.001258003,-0.001258003,0.001258003,3.16E-13,8.36E-13,1.18E-12,5.68E-13,-0.001325887,0.001325887,-0.001388532,0.001388532,-0.001388532,0.001388532,-0.001388532,0.001388532,-0.001388532,0.001388532,-0.001258003,0.001258003,-0.001258003,0.001258003,-0.001258003,0.001258003,-0.001258003,0.001258003,-7.03E-12,7.52E-12,-0.001325887,0.001325887,-7.70E-14,5.34E-13,-0.001388532,0.001388532,-0.001388532,0.001388532,-0.001388532,0.001388532,-0.001388532,0.001388532,-0.001258003,0.001258003,-0.001258003,0.001258003,0.762464726,0.691469418,1368840,32768,0.005509094,0.005509094,0.005509094,30.74691304,30.76540624,0.000161175,0.000161175,0.000161175,443500.8526,0.016665559
34280046,0.999979973,0.016075643,0.005358548,0.005358548,0.005358548,-0.001326213,0.001326213,7.07E-12,-7.56E-12,3.47E-14,-5.15E-13,-0.00138897,0.00138897,-0.00138897,0.00138897,-0.00138897,0.00138897,-0.00138897,0.00138897,-0.001258229,0.001258229,-0.001258229,0.001258229,1.74E-13,7.34E-13,1.06E-12,6.24E-13,-0.001326213,0.001326213,-0.00138897,0.00138897,-0.00138897,0.00138897,-0.00138897,0.00138897,-0.00138897,0.00138897,-0.001258229,0.001258229,-0.001258229,0.001258229,-0.001258229,0.001258229,-0.001258229,0.001258229,-7.03E-12,7.57E-12,-0.001326213,0.001326213,3.22E-14,4.64E-13,-0.00138897,0.00138897,-0.00138897,0.00138897,-0.00138897,0.00138897,-0.00138897,0.00138897,-0.001258229,0.001258229,-0.001258229,0.001258229,0.75488872,0.597695819,1368840,32768,0.005510444,0.005510444,0.005510444,31.02522379,31.04393487,0.000163402,0.000163402,0.000163402,449569.2117,0.016669679
34366446,0.999980795,0.016075657,0.005358552,0.005358552,0.005358552,-0.001326261,0.001326261,7.04E-12,-7.50E-12,5.06E-14,-4.77E-13,-0.001389266,0.001389266,-0.001389266,0.001389266,-0.001389266,0.001389266,-0.001389266,0.001389266,-0.001258054,0.001258054,-0.001258054,0.001258054,2.45E-13,7.83E-13,1.02E-12,7.28E-13,-0.001326261,0.001326261,-0.001389266,0.001389266,-0.001389266,0.001389266,-0.001389266,0.001389266,-0.001389266,0.001389266,-0.001258054,0.001258054,-0.001258054,0.001258054,-0.001258054,0.001258054,-0.001258054,0.001258054,-7.11E-12,7.40E-12,-0.001326261,0.001326261,1.11E-14,3.05E-13,-0.001389266,0.001389266,-0.001389266,0.001389266,-0.001389266,0.001389266,-0.001389266,0.001389266,-0.001258054,0.001258054,-0.001258054,0.001258054,0.756987376,0.653499329,1368840,32768,0.005510642,0.005510642,0.005510642,31.3037164,31.3224635,0.00016563,0.00016563,0.00016563,464075.6223,0.016670283
34452846,0.999981595,0.01607567,0.005358557,0.005358557,0.005358557,-0.001327074,0.001327074,7.06E-12,-7.41E-12,6.93E-14,-4.72E-13,-0.001389956,0.001389956,-0.001389956,0.001389956,-0.001389956,0.001389956,-0.001389956,0.001389956,-0.001258985,0.001258985,-0.001258985,0.001258985,3.53E-13,9.06E-13,1.01E-12,7.06E-13,-0.001327074,0.001327074,-0.001389956,0.001389956,-0.001389956,0.001389956,-0.001389956,0.001389956,-0.001389956,0.001389956,-0.001258985,0.001258985,-0.001258985,0.001258985,-0.001258985,0.001258985,-0.001258985,0.001258985,-6.62E-12,7.82E-12,-0.001327074,0.001327074,4.24E-13,7.22E-13,-0.001389956,0.001389956,-0.001389956,0.001389956,-0.001389956,0.001389956,-0.001389956,0.001389956,-0.001258985,0.001258985,-0.001258985,0.001258985,0.759570141,0.709302838,1368840,32768,0.005514011,0.005514011,0.005514011,31.58222784,31.60099213,0.000167858,0.000167858,0.000167858,455795.0858,0.016680557
34539246,0.999982374,0.016075683,0.005358561,0.005358561,0.005358561,-0.001327882,0.001327882,6.97E-12,-7.46E-12,3.12E-14,-5.16E-13,-0.001390625,0.001390625,-0.001390625,0.001390625,-0.001390625,0.001390625,-0.001390625,0.001390625,-0.001259925,0.001259925,-0.001259925,0.001259925,3.18E-13,8.77E-13,1.05E-12,6.62E-13,-0.001327882,0.001327882,-0.001390625,0.001390625,-0.001390625,0.001390625,-0.001390625,0.001390625,-0.001390625,0.001390625,-0.001259925,0.001259925,-0.001259925,0.001259925,-0.001259925,0.001259925,-0.001259925,0.001259925,-6.98E-12,7.42E-12,-0.001327882,0.001327882,1.61E-14,4.02E-13,-0.001390625,0.001390625,-0.001390625,0.001390625,-0.001390625,0.001390625,-0.001390625,0.001390625,-0.001259925,0.001259925,-0.001259925,0.001259925,0.762797716,0.765106348,1368840,32768,0.005517359,0.005517359,0.005517359,31.86074273,31.87952077,0.000170086,0.000170086,0.000170086,447354.0931,0.016690768
34625646,0.999983131,0.016075696,0.005358565,0.005358565,0.005358565,-0.001328684,0.001328684,6.93E-12,-7.39E-12,1.90E-14,-4.91E-13,-0.001391294,0.001391294,-0.001391294,0.001391294,-0.001391294,0.001391294,-0.001391294,0.001391294,-0.001260851,0.001260851,-0.001260851,0.001260851,2.91E-13,8.12E-13,1.06E-12,5.81E-13,-0.001328684,0.001328684,-0.001391294,0.001391294,-0.001391294,0.001391294,-0.001391294,0.001391294,-0.001391294,0.001391294,-0.001260851,0.001260851,-0.001260851,0.001260851,-0.001260851,0.001260851,-0.001260851,0.001260851,-6.93E-12,7.36E-12,-0.001328684,0.001328684,-4.50E-14,4.28E-13,-0.001391294,0.001391294,-0.001391294,0.001391294,-0.001391294,0.001391294,-0.001391294,0.001391294,-0.001260851,0.001260851,-0.001260851,0.001260851,0.766915526,0.820909858,1368840,32768,0.005520684,0.005520684,0.005520684,32.13926012,32.1580494,0.000172314,0.000172314,0.000172314,439053.1686,0.016700909
34712046,0.99998387,0.016075708,0.005358569,0.005358569,0.005358569,-0.001329634,0.001329634,7.26E-12,-7.32E-12,2.10E-13,-3.27E-13,-0.001392112,0.001392112,-0.001392112,0.001392112,-0.001392112,0.001392112,-0.001392112,0.001392112,-0.00126192,0.00126192,-0.00126192,0.00126192,3.38E-13,8.86E-13,1.02E-12,5.18E-13,-0.001329634,0.001329634,-0.001392112,0.001392112,-0.001392112,0.001392112,-0.001392112,0.001392112,-0.001392112,0.001392112,-0.00126192,0.00126192,-0.00126192,0.00126192,-0.00126192,0.00126192,-0.00126192,0.00126192,-7.09E-12,7.46E-12,-0.001329634,0.001329634,-9.51E-14,4.03E-13,-0.001392112,0.001392112,-0.001392112,0.001392112,-0.001392112,0.001392112,-0.001392112,0.001392112,-0.00126192,0.00126192,-0.00126192,0.00126192,0.771959825,0.876713367,1368840,32768,0.005524619,0.005524619,0.005524619,32.4967567,32.52070734,0.000175174,0.000175174,0.000175174,430754.1548,0.016712908
34798446,0.999984595,0.01607572,0.005358573,0.005358573,0.005358573,-0.001330739,0.001330739,6.99E-12,-7.55E-12,2.56E-14,-6.51E-13,-0.001393082,0.001393082,-0.001393082,0.001393082,-0.001393082,0.001393082,-0.001393082,0.001393082,-0.001263144,0.001263144,-0.001263144,0.001263144,2.47E-13,9.35E-13,1.04E-12,6.73E-13,-0.001330739,0.001330739,-0.001393082,0.001393082,-0.001393082,0.001393082,-0.001393082,0.001393082,-0.001393082,0.001393082,-0.001263144,0.001263144,-0.001263144,0.001263144,-0.001263144,0.001263144,-0.001263144,0.001263144,-7.05E-12,7.45E-12,-0.001330739,0.001330739,6.04E-14,4.27E-13,-0.001393082,0.001393082,-0.001393082,0.001393082,-0.001393082,0.001393082,-0.001393082,0.001393082,-0.001263144,0.001263144,-0.001263144,0.001263144,0.777751151,0.932516877,1368840,32768,0.005529198,0.005529198,0.005529198,32.93807922,32.96769309,0.000178705,0.000178705,0.000178705,422422.6889,0.016726875
34884846,0.999985304,0.016075732,0.005358577,0.005358577,0.005358577,-0.001331846,0.001331846,6.96E-12,-7.47E-12,5.15E-14,-5.19E-13,-0.001394063,0.001394063,-0.001394063,0.001394063,-0.001394063,0.001394063,-0.001394063,0.001394063,-0.001264362,0.001264362,-0.001264362,0.001264362,2.97E-13,8.78E-13,1.13E-12,6.89E-13,-0.001331846,0.001331846,-0.001394063,0.001394063,-0.001394063,0.001394063,-0.001394063,0.001394063,-0.001394063,0.001394063,-0.001264362,0.001264362,-0.001264362,0.001264362,-0.001264362,0.001264362,-0.001264362,0.001264362,-6.99E-12,7.41E-12,-0.001331846,0.001331846,7.37E-14,5.13E-13,-0.001394063,0.001394063,-0.001394063,0.001394063,-0.001394063,0.001394063,-0.001394063,0.001394063,-0.001264362,0.001264362,-0.001264362,0.001264362,0.772687854,0.824072438,1368840,32768,0.005533787,0.005533787,0.005533787,33.38448107,33.41467883,0.000182276,0.000182276,0.000182276,414309.4507,0.016740871
34971246,0.999985997,0.016075744,0.005358581,0.005358581,0.005358581,-0.00133226,0.00133226,7.00E-12,-7.38E-12,1.15E-13,-3.55E-13,-0.001394695,0.001394695,-0.001394695,0.001394695,-0.001394695,0.001394695,-0.001394695,0.001394695,-0.001264571,0.001264571,-0.001264571,0.001264571,3.24E-13,8.05E-13,9.72E-13,5.47E-13,-0.00133226,0.00133226,-0.001394695,0.001394695,-0.001394695,0.001394695,-0.001394695,0.001394695,-0.001394695,0.001394695,-0.001264571,0.001264571,-0.001264571,0.001264571,-0.001264571,0.001264571,-0.001264571,0.001264571,-7.04E-12,7.30E-12,-0.00133226,0.00133226,2.60E-16,4.24E-13,-0.001394695,0.001394695,-0.001394695,0.001394695,-0.001394695,0.001394695,-0.001394695,0.001394695,-0.001264571,0.001264571,-0.001264571,0.001264571,0.767972189,0.753879868,1368840,32768,0.005535503,0.005535503,0.005535503,33.83136082,33.86166457,0.000185851,0.000185851,0.000185851,426638.5834,0.016746107
35057646,0.999986673,0.016075755,0.005358585,0.005358585,0.005358585,-0.001332803,0.001332803,6.99E-12,-7.50E-12,-4.62E-14,-3.76E-13,-0.001395404,0.001395404,-0.001395404,0.001395404,-0.001395404,0.001395404,-0.001395404,0.001395404,-0.001264962,0.001264962,-0.001264962,0.001264962,3.19E-13,6.61E-13,8.88E-13,4.97E-13,-0.001332803,0.001332803,-0.001395404,0.001395404,-0.001395404,0.001395404,-0.001395404,0.001395404,-0.001395404,0.001395404,-0.001264962,0.001264962,-0.001264962,0.001264962,-0.001264962,0.001264962,-0.001264962,0.001264962,-7.06E-12,7.41E-12,-0.001332803,0.001332803,-7.60E-15,3.83E-13,-0.001395404,0.001395404,-0.001395404,0.001395404,-0.001395404,0.001395404,-0.001395404,0.001395404,-0.001264962,0.001264962,-0.001264962,0.001264962,0.764590317,0.715458743,1368840,32768,0.00553775,0.00553775,0.00553775,34.27829294,34.30865032,0.000189426,0.000189426,0.000189426,435773.9643,0.016752962
35144046,0.999987333,0.016075766,0.005358589,0.005358589,0.005358589,-0.001333476,0.001333476,7.03E-12,-7.51E-12,-2.65E-14,-4.05E-13,-0.001396179,0.001396179,-0.001396179,0.001396179,-0.001396179,0.001396179,-0.001396179,0.001396179,-0.001265546,0.001265546,-0.001265546,0.001265546,2.80E-13,6.70E-13,8.97E-13,4.54E-13,-0.001333476,0.001333476,-0.001396179,0.001396179,-0.001396179,0.001396179,-0.001396179,0.001396179,-0.001396179,0.001396179,-0.001265546,0.001265546,-0.001265546,0.001265546,-0.001265546,0.001265546,-0.001265546,0.001265546,-6.88E-12,7.64E-12,-0.001333476,0.001333476,1.51E-13,5.92E-13,-0.001396179,0.001396179,-0.001396179,0.001396179,-0.001396179,0.001396179,-0.001396179,0.001396179,-0.001265546,0.001265546,-0.001265546,0.001265546,0.760934372,0.677037619,1368840,32768,0.005540541,0.005540541,0.005540541,34.72523097,34.75563606,0.000193002,0.000193002,0.000193002,441174.4857,0.016761477
35230446,0.999987976,0.016075777,0.005358592,0.005358592,0.005358592,-0.001334144,0.001334144,7.04E-12,-7.35E-12,1.65E-14,-3.47E-13,-0.001396949,0.001396949,-0.001396949,0.001396949,-0.001396949,0.001396949,-0.001396949,0.001396949,-0.001266121,0.001266121,-0.001266121,0.001266121,4.19E-13,7.94E-13,1.07E-12,7.49E-13,-0.001334144,0.001334144,-0.001396949,0.001396949,-0.001396949,0.001396949,-0.001396949,0.001396949,-0.001396949,0.001396949,-0.001266121,0.001266121,-0.001266121,0.001266121,-0.001266121,0.001266121,-0.001266121,0.001266121,-7.05E-12,7.31E-12,-0.001334144,0.001334144,-7.43E-14,2.44E-13,-0.001396949,0.001396949,-0.001396949,0.001396949,-0.001396949,0.001396949,-0.001396949,0.001396949,-0.001266121,0.001266121,-0.001266121,0.001266121,0.757099489,0.638616494,1368840,32768,0.005543305,0.005543305,0.005543305,35.17217033,35.2026218,0.000196577,0.000196577,0.000196577,446824.8877,0.01676991
35316846,0.999988599,0.016075787,0.005358596,0.005358596,0.005358596,-0.001334757,0.001334757,7.21E-12,-7.43E-12,-5.66E-14,-1.65E-13,-0.001397671,0.001397671,-0.001397671,0.001397671,-0.001397671,0.001397671,-0.001397671,0.001397671,-0.00126664,0.00126664,-0.00126664,0.00126664,3.39E-13,4.58E-13,8.59E-13,6.50E-13,-0.001334757,0.001334757,-0.001397671,0.001397671,-0.001397671,0.001397671,-0.001397671,0.001397671,-0.001397671,0.001397671,-0.00126664,0.00126664,-0.00126664,0.00126664,-0.00126664,0.00126664,-0.00126664,0.00126664,-7.10E-12,7.51E-12,-0.001334757,0.001334757,1.98E-13,4.09E-13,-0.001397671,0.001397671,-0.001397671,0.001397671,-0.001397671,0.001397671,-0.001397671,0.001397671,-0.00126664,0.00126664,-0.00126664,0.00126664,0.75314282,0.60019537,1368840,32768,0.005545847,0.005545847,0.005545847,35.59456497,35.62344328,0.000199957,0.000199957,0.000199957,452745.2031,0.016777664
35403246,0.9999892,0.016075797,0.005358599,0.005358599,0.005358599,-0.0013351,0.0013351,7.11E-12,-7.53E-12,-1.60E-13,-2.98E-13,-0.001398128,0.001398128,-0.001398128,0.001398128,-0.001398128,0.001398128,-0.001398128,0.001398128,-0.001266884,0.001266884,-0.001266884,0.001266884,4.50E-13,5.99E-13,7.96E-13,6.89E-13,-0.0013351,0.0013351,-0.001398128,0.001398128,-0.001398128,0.001398128,-0.001398128,0.001398128,-0.001398128,0.001398128,-0.001266884,0.001266884,-0.001266884,0.001266884,-0.001266884,0.001266884,-0.001266884,0.001266884,-7.21E-12,7.40E-12,-0.0013351,0.0013351,1.00E-13,2.07E-13,-0.001398128,0.001398128,-0.001398128,0.001398128,-0.001398128,0.001398128,-0.001398128,0.001398128,-0.001266884,0.001266884,-0.001266884,0.001266884,0.749106551,0.561774245,1368840,32768,0.005547268,0.005547268,0.005547268,35.88011983,35.89995081,0.000202241,0.000202241,0.000202241,458962.003,0.016781998
35489646,0.999989778,0.016075807,0.005358602,0.005358602,0.005358602,-0.00133542,0.00133542,7.20E-12,-7.42E-12,-9.59E-14,-1.98E-13,-0.001398564,0.001398564,-0.001398564,0.001398564,-0.001398564,0.001398564,-0.001398564,0.001398564,-0.001267104,0.001267104,-0.001267104,0.001267104,4.23E-13,5.36E-13,9.71E-13,6.14E-13,-0.00133542,0.00133542,-0.001398564,0.001398564,-0.001398564,0.001398564,-0.001398564,0.001398564,-0.001398564,0.001398564,-0.001267104,0.001267104,-0.001267104,0.001267104,-0.001267104,0.001267104,-0.001267104,0.001267104,-7.07E-12,7.53E-12,-0.00133542,0.00133542,2.68E-14,3.82E-13,-0.001398564,0.001398564,-0.001398564,0.001398564,-0.001398564,0.001398564,-0.001398564,0.001398564,-0.001267104,0.001267104,-0.001267104,0.001267104,0.756569769,0.701446497,1368840,32768,0.005548595,0.005548595,0.005548595,36.15746495,36.17645834,0.00020446,0.00020446,0.00020446,465369.6392,0.016786048
35576046,0.999990332,0.016075816,0.005358605,0.005358605,0.005358605,-0.001336658,0.001336658,7.25E-12,-7.52E-12,-8.11E-14,-3.23E-13,-0.001399448,0.001399448,-0.001399448,0.001399448,-0.001399448,0.001399448,-0.001399448,0.001399448,-0.001268673,0.001268673,-0.001268673,0.001268673,3.58E-13,6.10E-13,8.76E-13,7.06E-13,-0.001336658,0.001336658,-0.001399448,0.001399448,-0.001399448,0.001399448,-0.001399448,0.001399448,-0.001399448,0.001399448,-0.001268673,0.001268673,-0.001268673,0.001268673,-0.001268673,0.001268673,-0.001268673,0.001268673,-7.27E-12,7.46E-12,-0.001336658,0.001336658,4.75E-14,2.17E-13,-0.001399448,0.001399448,-0.001399448,0.001399448,-0.001399448,0.001399448,-0.001399448,0.001399448,-0.001268673,0.001268673,-0.001268673,0.001268673,0.736857523,0.427173277,1368840,32768,0.005553725,0.005553725,0.005553725,36.4340377,36.45296587,0.000206672,0.000206672,0.000206672,444024.9291,0.016801693
35662446,0.999990865,0.016075824,0.005358608,0.005358608,0.005358608,-0.001335702,0.001335702,7.20E-12,-7.58E-12,-6.31E-14,-3.25E-13,-0.001399255,0.001399255,-0.001399255,0.001399255,-0.001399255,0.001399255,-0.001399255,0.001399255,-0.001267024,0.001267024,-0.001267024,0.001267024,3.93E-13,6.65E-13,8.82E-13,7.11E-13,-0.001335702,0.001335702,-0.001399255,0.001399255,-0.001399255,0.001399255,-0.001399255,0.001399255,-0.001399255,0.001399255,-0.001267024,0.001267024,-0.001267024,0.001267024,-0.001267024,0.001267024,-0.001267024,0.001267024,-7.20E-12,7.54E-12,-0.001335702,0.001335702,9.00E-14,2.61E-13,-0.001399255,0.001399255,-0.001399255,0.001399255,-0.001399255,0.001399255,-0.001399255,0.001399255,-0.001267024,0.001267024,-0.001267024,0.001267024,0.739801774,0.498050035,1368840,32768,0.00554976,0.00554976,0.00554976,36.71053625,36.7294734,0.000208884,0.000208884,0.000208884,489277.2474,0.016789604
35748846,0.999991375,0.016075832,0.005358611,0.005358611,0.005358611,-0.001336637,0.001336637,7.15E-12,-7.57E-12,1.61E-15,-3.66E-13,-0.001399992,0.001399992,-0.001399992,0.001399992,-0.001399992,0.001399992,-0.001399992,0.001399992,-0.001268149,0.001268149,-0.001268149,0.001268149,3.84E-13,7.63E-13,9.07E-13,7.08E-13,-0.001336637,0.001336637,-0.001399992,0.001399992,-0.001399992,0.001399992,-0.001399992,0.001399992,-0.001399992,0.001399992,-0.001268149,0.001268149,-0.001268149,0.001268149,-0.001268149,0.001268149,-0.001268149,0.001268149,-7.21E-12,7.48E-12,-0.001336637,0.001336637,4.10E-14,2.40E-13,-0.001399992,0.001399992,-0.001399992,0.001399992,-0.001399992,0.001399992,-0.001399992,0.001399992,-0.001268149,0.001268149,-0.001268149,0.001268149,0.744074784,0.58373927,1368840,32768,0.005553637,0.005553637,0.005553637,36.98702817,37.00598093,0.000211096,0.000211096,0.000211096,476877.3723,0.01680143
35835246,0.999991864,0.01607584,0.005358613,0.005358613,0.005358613,-0.001337636,0.001337636,7.10E-12,-7.56E-12,-2.15E-14,-4.95E-13,-0.001400755,0.001400755,-0.001400755,0.001400755,-0.001400755,0.001400755,-0.001400755,0.001400755,-0.00126937,0.00126937,-0.00126937,0.00126937,3.62E-13,8.45E-13,1.09E-12,8.25E-13,-0.001337636,0.001337636,-0.001400755,0.001400755,-0.001400755,0.001400755,-0.001400755,0.001400755,-0.001400755,0.001400755,-0.00126937,0.00126937,-0.00126937,0.00126937,-0.00126937,0.00126937,-0.00126937,0.00126937,-7.11E-12,7.51E-12,-0.001337636,0.001337636,2.87E-14,2.90E-13,-0.001400755,0.001400755,-0.001400755,0.001400755,-0.001400755,0.001400755,-0.001400755,0.001400755,-0.00126937,0.00126937,-0.00126937,0.00126937,0.748739096,0.669428506,1368840,32768,0.005557776,0.005557776,0.005557776,37.26352078,37.28248846,0.000213308,0.000213308,0.000213308,462500.0239,0.016814053
35921646,0.999992333,0.016075848,0.005358616,0.005358616,0.005358616,-0.001338609,0.001338609,7.06E-12,-7.65E-12,-1.53E-14,-4.65E-13,-0.001401504,0.001401504,-0.001401504,0.001401504,-0.001401504,0.001401504,-0.001401504,0.001401504,-0.001270552,0.001270552,-0.001270552,0.001270552,3.57E-13,8.18E-13,9.10E-13,7.16E-13,-0.001338609,0.001338609,-0.001401504,0.001401504,-0.001401504,0.001401504,-0.001401504,0.001401504,-0.001401504,0.001401504,-0.001270552,0.001270552,-0.001270552,0.001270552,-0.001270552,0.001270552,-0.001270552,0.001270552,-7.21E-12,7.48E-12,-0.001338609,0.001338609,8.34E-14,2.77E-13,-0.001401504,0.001401504,-0.001401504,0.001401504,-0.001401504,0.001401504,-0.001401504,0.001401504,-0.001270552,0.001270552,-0.001270552,0.001270552,0.754195183,0.755117741,1368840,32768,0.005561808,0.005561808,0.005561808,37.540016,37.55899598,0.00021552,0.00021552,0.00021552,448937.6904,0.016826349
36008046,0.99999278,0.016075856,0.005358619,0.005358619,0.005358619,-0.001339559,0.001339559,7.18E-12,-7.68E-12,-4.20E-14,-3.17E-13,-0.001402241,0.001402241,-0.001402241,0.001402241,-0.001402241,0.001402241,-0.001402241,0.001402241,-0.001271698,0.001271698,-0.001271698,0.001271698,3.58E-13,6.44E-13,8.52E-13,7.93E-13,-0.001339559,0.001339559,-0.001402241,0.001402241,-0.001402241,0.001402241,-0.001402241,0.001402241,-0.001402241,0.001402241,-0.001271698,0.001271698,-0.001271698,0.001271698,-0.001271698,0.001271698,-0.001271698,0.001271698,-7.43E-12,7.40E-12,-0.001339559,0.001339559,4.38E-14,1.03E-13,-0.001402241,0.001402241,-0.001402241,0.001402241,-0.001402241,0.001402241,-0.001402241,0.001402241,-0.001271698,0.001271698,-0.001271698,0.001271698,0.761867538,0.849359662,1368840,32768,0.005565745,0.005565745,0.005565745,37.81651722,37.83550351,0.000217732,0.000217732,0.000217732,435993.6316,0.016838357
36094446,0.999993207,0.016075863,0.005358621,0.005358621,0.005358621,-0.001340394,0.001340394,7.27E-12,-7.61E-12,-6.64E-14,-2.75E-13,-0.00140285,0.00140285,-0.00140285,0.00140285,-0.00140285,0.00140285,-0.00140285,0.00140285,-0.001272734,0.001272734,-0.001272734,0.001272734,4.19E-13,6.38E-13,8.14E-13,8.20E-13,-0.001340394,0.001340394,-0.00140285,0.00140285,-0.00140285,0.00140285,-0.00140285,0.00140285,-0.00140285,0.00140285,-0.001272734,0.001272734,-0.001272734,0.001272734,-0.001272734,0.001272734,-0.001272734,0.001272734,-7.26E-12,7.59E-12,-0.001340394,0.001340394,1.59E-13,1.53E-13,-0.00140285,0.00140285,-0.00140285,0.00140285,-0.00140285,0.00140285,-0.00140285,0.00140285,-0.001272734,0.001272734,-0.001272734,0.001272734,0.758662175,0.772104054,1368840,32768,0.005569206,0.005569206,0.005569206,38.02357292,38.03797161,0.000219389,0.000219389,0.000219389,422237.2709,0.016848912
36180846,0.999993605,0.016075869,0.005358623,0.005358623,0.005358623,-0.001339828,0.001339828,7.20E-12,-7.60E-12,-7.46E-14,-3.35E-13,-0.001402452,0.001402452,-0.001402452,0.001402452,-0.001402452,0.001402452,-0.001402452,0.001402452,-0.00127201,0.00127201,-0.00127201,0.00127201,3.94E-13,6.65E-13,8.49E-13,8.01E-13,-0.001339828,0.001339828,-0.001402452,0.001402452,-0.001402452,0.001402452,-0.001402452,0.001402452,-0.001402452,0.001402452,-0.00127201,0.00127201,-0.00127201,0.00127201,-0.00127201,0.00127201,-0.00127201,0.00127201,-7.20E-12,7.58E-12,-0.001339828,0.001339828,1.77E-13,2.25E-13,-0.001402452,0.001402452,-0.001402452,0.001402452,-0.001402452,0.001402452,-0.001402452,0.001402452,-0.00127201,0.00127201,-0.00127201,0.00127201,0.75659056,0.735004701,1368840,32768,0.005566858,0.005566858,0.005566858,37.89939255,37.89166512,0.000218395,0.000218395,0.000218395,431316.996,0.016841753
36267246,0.999993977,0.016075875,0.005358625,0.005358625,0.005358625,-0.001339382,0.001339382,7.17E-12,-7.60E-12,-5.19E-14,-3.61E-13,-0.001402093,0.001402093,-0.001402093,0.001402093,-0.001402093,0.001402093,-0.001402093,0.001402093,-0.001271486,0.001271486,-0.001271486,0.001271486,3.91E-13,7.11E-13,8.59E-13,7.88E-13,-0.001339382,0.001339382,-0.001402093,0.001402093,-0.001402093,0.001402093,-0.001402093,0.001402093,-0.001402093,0.001402093,-0.001271486,0.001271486,-0.001271486,0.001271486,-0.001271486,0.001271486,-0.001271486,0.001271486,-7.21E-12,7.53E-12,-0.001339382,0.001339382,1.28E-13,1.99E-13,-0.001402093,0.001402093,-0.001402093,0.001402093,-0.001402093,0.001402093,-0.001402093,0.001402093,-0.001271486,0.001271486,-0.001271486,0.001271486,0.755190468,0.716051205,1368840,32768,0.005565014,0.005565014,0.005565014,37.75517395,37.74535862,0.000217241,0.000217241,0.000217241,435845.5759,0.016836128
36353646,0.999994325,0.016075881,0.005358627,0.005358627,0.005358627,-0.001339012,0.001339012,7.17E-12,-7.58E-12,-5.08E-14,-3.57E-13,-0.001401768,0.001401768,-0.001401768,0.001401768,-0.001401768,0.001401768,-0.001401768,0.001401768,-0.001271074,0.001271074,-0.001271074,0.001271074,3.96E-13,7.13E-13,8.73E-13,7.49E-13,-0.001339012,0.001339012,-0.001401768,0.001401768,-0.001401768,0.001401768,-0.001401768,0.001401768,-0.001401768,0.001401768,-0.001271074,0.001271074,-0.001271074,0.001271074,-0.001271074,0.001271074,-0.001271074,0.001271074,-7.18E-12,7.53E-12,-0.001339012,0.001339012,1.03E-13,2.27E-13,-0.001401768,0.001401768,-0.001401768,0.001401768,-0.001401768,0.001401768,-0.001401768,0.001401768,-0.001271074,0.001271074,-0.001271074,0.001271074,0.753571397,0.69709771,1368840,32768,0.005563477,0.005563477,0.005563477,37.60907485,37.59905213,0.000216073,0.000216073,0.000216073,438114.4492,0.01683144
36440046,0.99999465,0.016075887,0.005358629,0.005358629,0.005358629,-0.001338638,0.001338638,7.18E-12,-7.57E-12,-6.03E-14,-3.48E-13,-0.001401441,0.001401441,-0.001401441,0.001401441,-0.001401441,0.001401441,-0.001401441,0.001401441,-0.001270658,0.001270658,-0.001270658,0.001270658,3.88E-13,6.87E-13,8.77E-13,7.55E-13,-0.001338638,0.001338638,-0.001401441,0.001401441,-0.001401441,0.001401441,-0.001401441,0.001401441,-0.001401441,0.001401441,-0.001270658,0.001270658,-0.001270658,0.001270658,-0.001270658,0.001270658,-0.001270658,0.001270658,-7.18E-12,7.53E-12,-0.001338638,0.001338638,1.07E-13,2.28E-13,-0.001401441,0.001401441,-0.001401441,0.001401441,-0.001401441,0.001401441,-0.001401441,0.001401441,-0.001270658,0.001270658,-0.001270658,0.001270658,0.751793009,0.678144214,1368840,32768,0.005561927,0.005561927,0.005561927,37.4627861,37.45274564,0.000214902,0.000214902,0.000214902,440512.3283,0.016826714
36526446,0.999994954,0.016075892,0.005358631,0.005358631,0.005358631,-0.001338261,0.001338261,7.16E-12,-7.60E-12,-4.85E-14,-3.94E-13,-0.001401112,0.001401112,-0.001401112,0.001401112,-0.001401112,0.001401112,-0.001401112,0.001401112,-0.001270239,0.001270239,-0.001270239,0.001270239,3.20E-13,6.76E-13,7.69E-13,7.26E-13,-0.001338261,0.001338261,-0.001401112,0.001401112,-0.001401112,0.001401112,-0.001401112,0.001401112,-0.001401112,0.001401112,-0.001270239,0.001270239,-0.001270239,0.001270239,-0.001270239,0.001270239,-0.001270239,0.001270239,-7.15E-12,7.58E-12,-0.001338261,0.001338261,2.18E-13,2.62E-13,-0.001401112,0.001401112,-0.001401112,0.001401112,-0.001401112,0.001401112,-0.001401112,0.001401112,-0.001270239,0.001270239,-0.001270239,0.001270239,0.745066122,0.58809781,1368840,32768,0.005560368,0.005560368,0.005560368,37.31647874,37.30643914,0.000213732,0.000213732,0.000213732,443000.2577,0.016821957
36612846,0.999995239,0.016075896,0.005358632,0.005358632,0.005358632,-0.001337521,0.001337521,7.18E-12,-7.68E-12,-2.88E-14,-4.18E-13,-0.001400603,0.001400603,-0.001400603,0.001400603,-0.001400603,0.001400603,-0.001400603,0.001400603,-0.001269289,0.001269289,-0.001269289,0.001269289,4.02E-13,8.03E-13,8.93E-13,8.21E-13,-0.001337521,0.001337521,-0.001400603,0.001400603,-0.001400603,0.001400603,-0.001400603,0.001400603,-0.001400603,0.001400603,-0.001269289,0.001269289,-0.001269289,0.001269289,-0.001269289,0.001269289,-0.001269289,0.001269289,-7.30E-12,7.54E-12,-0.001337521,0.001337521,6.93E-14,1.41E-13,-0.001400603,0.001400603,-0.001400603,0.001400603,-0.001400603,0.001400603,-0.001400603,0.001400603,-0.001269289,0.001269289,-0.001269289,0.001269289,0.73831273,0.506016885,1368840,32768,0.005557297,0.005557297,0.005557297,37.17016876,37.16013265,0.000212561,0.000212561,0.000212561,456570.6447,0.016812592
36699246,0.999995506,0.0160759,0.005358633,0.005358633,0.005358633,-0.001336784,0.001336784,7.18E-12,-7.63E-12,-4.92E-14,-4.27E-13,-0.001400097,0.001400097,-0.001400097,0.001400097,-0.001400097,0.001400097,-0.001400097,0.001400097,-0.001268345,0.001268345,-0.001268345,0.001268345,4.35E-13,8.24E-13,9.19E-13,8.23E-13,-0.001336784,0.001336784,-0.001400097,0.001400097,-0.001400097,0.001400097,-0.001400097,0.001400097,-0.001400097,0.001400097,-0.001268345,0.001268345,-0.001268345,0.001268345,-0.001268345,0.001268345,-0.001268345,0.001268345,-7.16E-12,7.62E-12,-0.001336784,0.001336784,6.67E-14,1.61E-13,-0.001400097,0.001400097,-0.001400097,0.001400097,-0.001400097,0.001400097,-0.001400097,0.001400097,-0.001268345,0.001268345,-0.001268345,0.001268345,0.739032176,0.538713293,1368840,32768,0.005554246,0.005554246,0.005554246,37.02385809,37.01382616,0.000211391,0.000211391,0.000211391,470216.1808,0.016803285
36785646,0.999995756,0.016075904,0.005358635,0.005358635,0.005358635,-0.001336671,0.001336671,7.14E-12,-7.63E-12,-1.19E-14,-4.70E-13,-0.001399909,0.001399909,-0.001399909,0.001399909,-0.001399909,0.001399909,-0.001399909,0.001399909,-0.001268306,0.001268306,-0.001268306,0.001268306,3.26E-13,7.95E-13,8.36E-13,8.19E-13,-0.001336671,0.001336671,-0.001399909,0.001399909,-0.001399909,0.001399909,-0.001399909,0.001399909,-0.001399909,0.001399909,-0.001268306,0.001268306,-0.001268306,0.001268306,-0.001268306,0.001268306,-0.001268306,0.001268306,-7.21E-12,7.53E-12,-0.001336671,0.001336671,1.29E-13,1.47E-13,-0.001399909,0.001399909,-0.001399909,0.001399909,-0.001399909,0.001399909,-0.001399909,0.001399909,-0.001268306,0.001268306,-0.001268306,0.001268306,0.729123139,0.410750863,1368840,32768,0.005553777,0.005553777,0.005553777,36.87754742,36.86751967,0.00021022,0.00021022,0.00021022,465005.6913,0.016801855
36872046,0.99999599,0.016075908,0.005358636,0.005358636,0.005358636,-0.001335745,0.001335745,7.14E-12,-7.61E-12,1.12E-14,-4.63E-13,-0.001399366,0.001399366,-0.001399366,0.001399366,-0.001399366,0.001399366,-0.001399366,0.001399366,-0.001267034,0.001267034,-0.001267034,0.001267034,3.25E-13,8.11E-13,8.17E-13,8.54E-13,-0.001335745,0.001335745,-0.001399366,0.001399366,-0.001399366,0.001399366,-0.001399366,0.001399366,-0.001399366,0.001399366,-0.001267034,0.001267034,-0.001267034,0.001267034,-0.001267034,0.001267034,-0.001267034,0.001267034,-7.23E-12,7.49E-12,-0.001335745,0.001335745,1.48E-13,1.12E-13,-0.001399366,0.001399366,-0.001399366,0.001399366,-0.001399366,0.001399366,-0.001399366,0.001399366,-0.001267034,0.001267034,-0.001267034,0.001267034,0.733394851,0.498963417,1368840,32768,0.00554994,0.00554994,0.00554994,36.78456173,36.77806277,0.000209476,0.000209476,0.000209476,487818.3834,0.016790152
36958446,0.999996213,0.016075912,0.005358637,0.005358637,0.005358637,-0.001336496,0.001336496,7.13E-12,-7.65E-12,1.56E-14,-5.13E-13,-0.001399859,0.001399859,-0.001399859,0.001399859,-0.001399859,0.001399859,-0.001399859,0.001399859,-0.001268027,0.001268027,-0.001268027,0.001268027,3.24E-13,8.63E-13,8.54E-13,9.28E-13,-0.001336496,0.001336496,-0.001399859,0.001399859,-0.001399859,0.001399859,-0.001399859,0.001399859,-0.001399859,0.001399859,-0.001268027,0.001268027,-0.001268027,0.001268027,-0.001268027,0.001268027,-0.001268027,0.001268027,-7.24E-12,7.50E-12,-0.001336496,0.001336496,1.77E-13,1.03E-13,-0.001399859,0.001399859,-0.001399859,0.001399859,-0.001399859,0.001399859,-0.001399859,0.001399859,-0.001268027,0.001268027,-0.001268027,0.001268027,0.738002062,0.587175971,1368840,32768,0.005553053,0.005553053,0.005553053,36.91247402,36.92070637,0.0002105,0.0002105,0.0002105,472056.508,0.016799647
37044846,0.999996426,0.016075915,0.005358638,0.005358638,0.005358638,-0.001337243,0.001337243,7.07E-12,-7.73E-12,-7.18E-14,-6.14E-13,-0.001400365,0.001400365,-0.001400365,0.001400365,-0.001400365,0.001400365,-0.001400365,0.001400365,-0.001269,0.001269,-0.001269,0.001269,3.38E-13,8.91E-13,8.40E-13,8.88E-13,-0.001337243,0.001337243,-0.001400365,0.001400365,-0.001400365,0.001400365,-0.001400365,0.001400365,-0.001400365,0.001400365,-0.001269,0.001269,-0.001269,0.001269,-0.001269,0.001269,-0.001269,0.001269,-7.30E-12,7.47E-12,-0.001337243,0.001337243,9.50E-14,4.83E-14,-0.001400365,0.001400365,-0.001400365,0.001400365,-0.001400365,0.001400365,-0.001400365,0.001400365,-0.001269,0.001269,-0.001269,0.001269,0.742977418,0.675388525,1368840,32768,0.00555615,0.00555615,0.00555615,37.05372546,37.06334997,0.00021163,0.00021163,0.00021163,457330.4663,0.01680909
37131246,0.999996628,0.016075919,0.00535864,0.00535864,0.00535864,-0.001337965,0.001337965,7.18E-12,-7.60E-12,-9.42E-15,-4.82E-13,-0.001400859,0.001400859,-0.001400859,0.001400859,-0.001400859,0.001400859,-0.001400859,0.001400859,-0.001269932,0.001269932,-0.001269932,0.001269932,3.55E-13,8.39E-13,8.31E-13,8.72E-13,-0.001337965,0.001337965,-0.001400859,0.001400859,-0.001400859,0.001400859,-0.001400859,0.001400859,-0.001400859,0.001400859,-0.001269932,0.001269932,-0.001269932,0.001269932,-0.001269932,0.001269932,-0.001269932,0.001269932,-7.22E-12,7.53E-12,-0.001337965,0.001337965,1.72E-13,1.32E-13,-0.001400859,0.001400859,-0.001400859,0.001400859,-0.001400859,0.001400859,-0.001400859,0.001400859,-0.001269932,0.001269932,-0.001269932,0.001269932,0.748852481,0.763601079,1368840,32768,0.005559139,0.005559139,0.005559139,37.19622692,37.20599356,0.00021277,0.00021277,0.00021277,443526.6694,0.016818206
37217646,0.99999682,0.016075922,0.005358641,0.005358641,0.005358641,-0.001338662,0.001338662,7.10E-12,-7.59E-12,2.17E-14,-5.15E-13,-0.001401339,0.001401339,-0.001401339,0.001401339,-0.001401339,0.001401339,-0.001401339,0.001401339,-0.001270828,0.001270828,-0.001270828,0.001270828,2.81E-13,8.28E-13,8.62E-13,8.31E-13,-0.001338662,0.001338662,-0.001401339,0.001401339,-0.001401339,0.001401339,-0.001401339,0.001401339,-0.001401339,0.001401339,-0.001270828,0.001270828,-0.001270828,0.001270828,-0.001270828,0.001270828,-0.001270828,0.001270828,-7.12E-12,7.54E-12,-0.001338662,0.001338662,1.46E-13,1.77E-13,-0.001401339,0.001401339,-0.001401339,0.001401339,-0.001401339,0.001401339,-0.001401339,0.001401339,-0.001270828,0.001270828,-0.001270828,0.001270828,0.756522055,0.851813633,1368840,32768,0.00556203,0.00556203,0.00556203,37.33885662,37.34863716,0.000213911,0.000213911,0.000213911,430323.1775,0.016827022
37304046,0.999997002,0.016075925,0.005358642,0.005358642,0.005358642,-0.001339341,0.001339341,7.11E-12,-7.54E-12,-1.07E-14,-4.10E-13,-0.001401806,0.001401806,-0.001401806,0.001401806,-0.001401806,0.001401806,-0.001401806,0.001401806,-0.001271692,0.001271692,-0.001271692,0.001271692,3.54E-13,7.64E-13,8.56E-13,8.25E-13,-0.001339341,0.001339341,-0.001401806,0.001401806,-0.001401806,0.001401806,-0.001401806,0.001401806,-0.001401806,0.001401806,-0.001271692,0.001271692,-0.001271692,0.001271692,-0.001271692,0.001271692,-0.001271692,0.001271692,-7.13E-12,7.49E-12,-0.001339341,0.001339341,1.50E-13,1.82E-13,-0.001401806,0.001401806,-0.001401806,0.001401806,-0.001401806,0.001401806,-0.001401806,0.001401806,-0.001271692,0.001271692,-0.001271692,0.001271692,0.756042104,0.804678312,1368840,32768,0.005564842,0.005564842,0.005564842,37.48149342,37.49128076,0.000215052,0.000215052,0.000215052,417382.6137,0.016835601
37390446,0.999997176,0.016075928,0.005358643,0.005358643,0.005358643,-0.001339431,0.001339431,7.08E-12,-7.58E-12,1.57E-14,-4.54E-13,-0.001401984,0.001401984,-0.001401984,0.001401984,-0.001401984,0.001401984,-0.001401984,0.001401984,-0.001271694,0.001271694,-0.001271694,0.001271694,3.20E-13,8.00E-13,8.57E-13,8.62E-13,-0.001339431,0.001339431,-0.001401984,0.001401984,-0.001401984,0.001401984,-0.001401984,0.001401984,-0.001401984,0.001401984,-0.001271694,0.001271694,-0.001271694,0.001271694,-0.001271694,0.001271694,-0.001271694,0.001271694,-7.15E-12,7.48E-12,-0.001339431,0.001339431,1.56E-13,1.52E-13,-0.001401984,0.001401984,-0.001401984,0.001401984,-0.001401984,0.001401984,-0.001401984,0.001401984,-0.001271694,0.001271694,-0.001271694,0.001271694,0.747766482,0.670958245,1368840,32768,0.005565216,0.005565216,0.005565216,37.62412846,37.63392436,0.000216193,0.000216193,0.000216193,421937.4278,0.016836742
37476846,0.99999734,0.01607593,0.005358643,0.005358643,0.005358643,-0.001339096,0.001339096,7.04E-12,-7.60E-12,1.84E-14,-5.37E-13,-0.001401952,0.001401952,-0.001401952,0.001401952,-0.001401952,0.001401952,-0.001401952,0.001401952,-0.00127108,0.00127108,-0.00127108,0.00127108,3.70E-13,9.35E-13,8.92E-13,9.25E-13,-0.001339096,0.001339096,-0.001401952,0.001401952,-0.001401952,0.001401952,-0.001401952,0.001401952,-0.001401952,0.001401952,-0.00127108,0.00127108,-0.00127108,0.00127108,-0.00127108,0.00127108,-0.00127108,0.00127108,-7.19E-12,7.42E-12,-0.001339096,0.001339096,1.78E-13,1.47E-13,-0.001401952,0.001401952,-0.001401952,0.001401952,-0.001401952,0.001401952,-0.001401952,0.001401952,-0.00127108,0.00127108,-0.00127108,0.00127108,0.742040104,0.595441009,1368840,32768,0.005563826,0.005563826,0.005563826,37.76676628,37.77656796,0.000217334,0.000217334,0.000217334,439707.7666,0.016832505
37563246,0.999997496,0.016075933,0.005358644,0.005358644,0.005358644,-0.001338989,0.001338989,7.11E-12,-7.60E-12,6.82E-14,-5.28E-13,-0.001402043,0.001402043,-0.001402043,0.001402043,-0.001402043,0.001402043,-0.001402043,0.001402043,-0.001270794,0.001270794,-0.001270794,0.001270794,2.77E-13,8.85E-13,8.49E-13,8.94E-13,-0.001338989,0.001338989,-0.001402043,0.001402043,-0.001402043,0.001402043,-0.001402043,0.001402043,-0.001402043,0.001402043,-0.001270794,0.001270794,-0.001270794,0.001270794,-0.001270794,0.001270794,-0.001270794,0.001270794,-7.19E-12,7.49E-12,-0.001338989,0.001338989,1.92E-13,1.48E-13,-0.001402043,0.001402043,-0.001402043,0.001402043,-0.001402043,0.001402043,-0.001402043,0.001402043,-0.001270794,0.001270794,-0.001270794,0.001270794,0.738083772,0.552700366,1368840,32768,0.005563382,0.005563382,0.005563382,37.90940488,37.91921156,0.000218475,0.000218475,0.000218475,451073.7092,0.016831153
37649646,0.999997644,0.016075935,0.005358645,0.005358645,0.005358645,-0.001338933,0.001338933,7.09E-12,-7.63E-12,3.06E-14,-6.06E-13,-0.001402111,0.001402111,-0.001402111,0.001402111,-0.001402111,0.001402111,-0.001402111,0.001402111,-0.001270628,0.001270628,-0.001270628,0.001270628,2.58E-13,9.06E-13,8.54E-13,8.72E-13,-0.001338933,0.001338933,-0.001402111,0.001402111,-0.001402111,0.001402111,-0.001402111,0.001402111,-0.001402111,0.001402111,-0.001270628,0.001270628,-0.001270628,0.001270628,-0.001270628,0.001270628,-0.001270628,0.001270628,-7.18E-12,7.51E-12,-0.001338933,0.001338933,1.57E-13,1.40E-13,-0.001402111,0.001402111,-0.001402111,0.001402111,-0.001402111,0.001402111,-0.001402111,0.001402111,-0.001270628,0.001270628,-0.001270628,0.001270628,0.734004862,0.509959724,1368840,32768,0.005563151,0.005563151,0.005563151,38.00110629,38.00753576,0.000219209,0.000219209,0.000219209,458041.7481,0.016830448
37736046,0.999997782,0.016075937,0.005358646,0.005358646,0.005358646,-0.001338511,0.001338511,7.11E-12,-7.64E-12,8.68E-14,-6.15E-13,-0.001401819,0.001401819,-0.001401819,0.001401819,-0.001401819,0.001401819,-0.001401819,0.001401819,-0.00127009,0.00127009,-0.00127009,0.00127009,2.56E-13,9.68E-13,8.81E-13,8.80E-13,-0.001338511,0.001338511,-0.001401819,0.001401819,-0.001401819,0.001401819,-0.001401819,0.001401819,-0.001401819,0.001401819,-0.00127009,0.00127009,-0.00127009,0.00127009,-0.00127009,0.00127009,-0.00127009,0.00127009,-7.24E-12,7.48E-12,-0.001338511,0.001338511,1.08E-13,1.09E-13,-0.001401819,0.001401819,-0.001401819,0.001401819,-0.001401819,0.001401819,-0.001401819,0.001401819,-0.00127009,0.00127009,-0.00127009,0.00127009,0.729837805,0.467219082,1368840,32768,0.005561399,0.005561399,0.005561399,37.90742924,37.90144096,0.000218459,0.000218459,0.000218459,465400.3103,0.016825106
37822446,0.999997911,0.016075939,0.005358646,0.005358646,0.005358646,-0.001338057,0.001338057,7.15E-12,-7.68E-12,1.23E-13,-6.29E-13,-0.001401497,0.001401497,-0.001401497,0.001401497,-0.001401497,0.001401497,-0.001401497,0.001401497,-0.001269521,0.001269521,-0.001269521,0.001269521,2.14E-13,9.78E-13,8.72E-13,8.35E-13,-0.001338057,0.001338057,-0.001401497,0.001401497,-0.001401497,0.001401497,-0.001401497,0.001401497,-0.001401497,0.001401497,-0.001269521,0.001269521,-0.001269521,0.001269521,-0.001269521,0.001269521,-0.001269521,0.001269521,-7.30E-12,7.51E-12,-0.001338057,0.001338057,1.17E-13,1.55E-13,-0.001401497,0.001401497,-0.001401497,0.001401497,-0.001401497,0.001401497,-0.001401497,0.001401497,-0.001269521,0.001269521,-0.001269521,0.001269521,0.725600381,0.42447844,1368840,32768,0.005559519,0.005559519,0.005559519,37.80250707,37.79534616,0.00021762,0.00021762,0.00021762,472995.343,0.016819372
37908846,0.999998033,0.016075941,0.005358647,0.005358647,0.005358647,-0.001337591,0.001337591,7.16E-12,-7.71E-12,8.15E-14,-6.24E-13,-0.00140117,0.00140117,-0.00140117,0.00140117,-0.00140117,0.00140117,-0.00140117,0.00140117,-0.001268933,0.001268933,-0.001268933,0.001268933,2.51E-13,9.67E-13,9.16E-13,8.40E-13,-0.001337591,0.001337591,-0.00140117,0.00140117,-0.00140117,0.00140117,-0.00140117,0.00140117,-0.00140117,0.00140117,-0.001268933,0.001268933,-0.001268933,0.001268933,-0.001268933,0.001268933,-0.001268933,0.001268933,-7.26E-12,7.58E-12,-0.001337591,0.001337591,1.18E-13,1.95E-13,-0.00140117,0.00140117,-0.00140117,0.00140117,-0.00140117,0.00140117,-0.00140117,0.00140117,-0.001268933,0.001268933,-0.001268933,0.001268933,0.730230596,0.516711054,1368840,32768,0.00555759,0.00555759,0.00555759,37.69652878,37.68925137,0.000216772,0.000216772,0.000216772,480966.9712,0.016813488
37995246,0.999998146,0.016075943,0.005358648,0.005358648,0.005358648,-0.001337904,0.001337904,7.17E-12,-7.71E-12,9.57E-14,-6.10E-13,-0.001401225,0.001401225,-0.001401225,0.001401225,-0.001401225,0.001401225,-0.001401225,0.001401225,-0.001269488,0.001269488,-0.001269488,0.001269488,2.42E-13,9.59E-13,9.22E-13,8.55E-13,-0.001337904,0.001337904,-0.001401225,0.001401225,-0.001401225,0.001401225,-0.001401225,0.001401225,-0.001401225,0.001401225,-0.001269488,0.001269488,-0.001269488,0.001269488,-0.001269488,0.001269488,-0.001269488,0.001269488,-7.28E-12,7.58E-12,-0.001337904,0.001337904,1.28E-13,1.95E-13,-0.001401225,0.001401225,-0.001401225,0.001401225,-0.001401225,0.001401225,-0.001401225,0.001401225,-0.001269488,0.001269488,-0.001269488,0.001269488,0.731735079,0.553217758,1368840,32768,0.005558886,0.005558886,0.005558886,37.59044379,37.58315657,0.000215924,0.000215924,0.000215924,464944.3281,0.016817438
38081646,0.999998252,0.016075945,0.005358648,0.005358648,0.005358648,-0.001337894,0.001337894,7.19E-12,-7.73E-12,8.18E-14,-6.31E-13,-0.001401111,0.001401111,-0.001401111,0.001401111,-0.001401111,0.001401111,-0.001401111,0.001401111,-0.001269576,0.001269576,-0.001269576,0.001269576,2.52E-13,9.75E-13,9.22E-13,8.53E-13,-0.001337894,0.001337894,-0.001401111,0.001401111,-0.001401111,0.001401111,-0.001401111,0.001401111,-0.001401111,0.001401111,-0.001269576,0.001269576,-0.001269576,0.001269576,-0.001269576,0.001269576,-0.001269576,0.001269576,-7.29E-12,7.59E-12,-0.001337894,0.001337894,1.23E-13,1.93E-13,-0.001401111,0.001401111,-0.001401111,0.001401111,-0.001401111,0.001401111,-0.001401111,0.001401111,-0.001269576,0.001269576,-0.001269576,0.001269576,0.732436613,0.574034135,1368840,32768,0.005558844,0.005558844,0.005558844,37.48434785,37.47706177,0.000215075,0.000215075,0.000215075,458655.5972,0.01681731
38168046,0.999998352,0.016075946,0.005358649,0.005358649,0.005358649,-0.001337798,0.001337798,7.17E-12,-7.74E-12,8.12E-14,-6.36E-13,-0.001400959,0.001400959,-0.001400959,0.001400959,-0.001400959,0.001400959,-0.001400959,0.001400959,-0.001269534,0.001269534,-0.001269534,0.001269534,2.50E-13,9.79E-13,9.38E-13,8.29E-13,-0.001337798,0.001337798,-0.001400959,0.001400959,-0.001400959,0.001400959,-0.001400959,0.001400959,-0.001400959,0.001400959,-0.001269534,0.001269534,-0.001269534,0.001269534,-0.001269534,0.001269534,-0.001269534,0.001269534,-7.27E-12,7.60E-12,-0.001337798,0.001337798,1.08E-13,2.17E-13,-0.001400959,0.001400959,-0.001400959,0.001400959,-0.001400959,0.001400959,-0.001400959,0.001400959,-0.001269534,0.001269534,-0.001269534,0.001269534,0.7327609,0.58714899,1368840,32768,0.005558449,0.005558449,0.005558449,37.37825078,37.37096697,0.000214226,0.000214226,0.000214226,455014.6586,0.016816105
38254446,0.999998446,0.016075948,0.005358649,0.005358649,0.005358649,-0.001337662,0.001337662,7.18E-12,-7.72E-12,8.11E-14,-6.30E-13,-0.001400788,0.001400788,-0.001400788,0.001400788,-0.001400788,0.001400788,-0.001400788,0.001400788,-0.001269433,0.001269433,-0.001269433,0.001269433,2.59E-13,9.80E-13,9.36E-13,8.32E-13,-0.001337662,0.001337662,-0.001400788,0.001400788,-0.001400788,0.001400788,-0.001400788,0.001400788,-0.001400788,0.001400788,-0.001269433,0.001269433,-0.001269433,0.001269433,-0.001269433,0.001269433,-0.001269433,0.001269433,-7.27E-12,7.60E-12,-0.001337662,0.001337662,1.14E-13,2.17E-13,-0.001400788,0.001400788,-0.001400788,0.001400788,-0.001400788,0.001400788,-0.001400788,0.001400788,-0.001269433,0.001269433,-0.001269433,0.001269433,0.733152163,0.600263844,1368840,32768,0.005557886,0.005557886,0.005557886,37.27215357,37.26487218,0.000213377,0.000213377,0.000213377,452598.5544,0.016814386
38340846,0.999998534,0.016075949,0.00535865,0.00535865,0.00535865,-0.001337589,0.001337589,7.18E-12,-7.73E-12,8.36E-14,-6.43E-13,-0.001400678,0.001400678,-0.001400678,0.001400678,-0.001400678,0.001400678,-0.001400678,0.001400678,-0.001269395,0.001269395,-0.001269395,0.001269395,2.47E-13,9.85E-13,9.38E-13,8.25E-13,-0.001337589,0.001337589,-0.001400678,0.001400678,-0.001400678,0.001400678,-0.001400678,0.001400678,-0.001400678,0.001400678,-0.001269395,0.001269395,-0.001269395,0.001269395,-0.001269395,0.001269395,-0.001269395,0.001269395,-7.27E-12,7.60E-12,-0.001337589,0.001337589,1.09E-13,2.21E-13,-0.001400678,0.001400678,-0.001400678,0.001400678,-0.001400678,0.001400678,-0.001400678,0.001400678,-0.001269395,0.001269395,-0.001269395,0.001269395,0.733610163,0.613378699,1368840,32768,0.005557582,0.005557582,0.005557582,37.19872491,37.1936084,0.00021279,0.00021279,0.00021279,450164.9067,0.016813459
38427246,0.999998616,0.016075951,0.00535865,0.00535865,0.00535865,-0.001337648,0.001337648,7.18E-12,-7.71E-12,6.51E-14,-6.01E-13,-0.001400701,0.001400701,-0.001400701,0.001400701,-0.001400701,0.001400701,-0.001400701,0.001400701,-0.001269489,0.001269489,-0.001269489,0.001269489,2.70E-13,9.47E-13,9.21E-13,8.36E-13,-0.001337648,0.001337648,-0.001400701,0.001400701,-0.001400701,0.001400701,-0.001400701,0.001400701,-0.001400701,0.001400701,-0.001269489,0.001269489,-0.001269489,0.001269489,-0.001269489,0.001269489,-0.001269489,0.001269489,-7.30E-12,7.56E-12,-0.001337648,0.001337648,1.23E-13,2.07E-13,-0.001400701,0.001400701,-0.001400701,0.001400701,-0.001400701,0.001400701,-0.001400701,0.001400701,-0.001269489,0.001269489,-0.001269489,0.001269489,0.744938925,0.79944244,1368840,32768,0.005557828,0.005557828,0.005557828,37.19409509,37.1936084,0.000212753,0.000212753,0.000212753,447716.0532,0.016814208
38513646,0.999998695,0.016075952,0.005358651,0.005358651,0.005358651,-0.001338522,0.001338522,7.18E-12,-7.71E-12,6.62E-14,-5.97E-13,-0.00140113,0.00140113,-0.00140113,0.00140113,-0.00140113,0.00140113,-0.00140113,0.00140113,-0.001270769,0.001270769,-0.001270769,0.001270769,2.69E-13,9.43E-13,9.26E-13,8.22E-13,-0.001338522,0.001338522,-0.00140113,0.00140113,-0.00140113,0.00140113,-0.00140113,0.00140113,-0.00140113,0.00140113,-0.001270769,0.001270769,-0.001270769,0.001270769,-0.001270769,0.001270769,-0.001270769,0.001270769,-7.26E-12,7.59E-12,-0.001338522,0.001338522,1.15E-13,2.19E-13,-0.00140113,0.00140113,-0.00140113,0.00140113,-0.00140113,0.00140113,-0.00140113,0.00140113,-0.001270769,0.001270769,-0.001270769,0.001270769,0.747284744,0.79944244,1368840,32768,0.00556145,0.00556145,0.00556145,37.19365759,37.1936084,0.000212749,0.000212749,0.000212749,421003.5011,0.016825252
38600046,0.999998768,0.016075953,0.005358651,0.005358651,0.005358651,-0.00133854,0.00133854,7.18E-12,-7.71E-12,6.70E-14,-5.98E-13,-0.001401132,0.001401132,-0.001401132,0.001401132,-0.001401132,0.001401132,-0.001401132,0.001401132,-0.001270793,0.001270793,-0.001270793,0.001270793,2.68E-13,9.44E-13,9.36E-13,8.14E-13,-0.00133854,0.00133854,-0.001401132,0.001401132,-0.001401132,0.001401132,-0.001401132,0.001401132,-0.001401132,0.001401132,-0.001270793,0.001270793,-0.001270793,0.001270793,-0.001270793,0.001270793,-0.001270793,0.001270793,-7.26E-12,7.60E-12,-0.00133854,0.00133854,1.09E-13,2.30E-13,-0.001401132,0.001401132,-0.001401132,0.001401132,-0.001401132,0.001401132,-0.001401132,0.001401132,-0.001270793,0.001270793,-0.001270793,0.001270793,0.74929192,0.79944244,1368840,32768,0.005561523,0.005561523,0.005561523,37.19361345,37.1936084,0.000212749,0.000212749,0.000212749,419549.3777,0.016825477
38686446,0.999998838,0.016075954,0.005358651,0.005358651,0.005358651,-0.001338554,0.001338554,7.18E-12,-7.71E-12,6.66E-14,-5.97E-13,-0.001401134,0.001401134,-0.001401134,0.001401134,-0.001401134,0.001401134,-0.001401134,0.001401134,-0.00127081,0.00127081,-0.00127081,0.00127081,2.69E-13,9.43E-13,9.43E-13,8.05E-13,-0.001338554,0.001338554,-0.001401134,0.001401134,-0.001401134,0.001401134,-0.001401134,0.001401134,-0.001401134,0.001401134,-0.00127081,0.00127081,-0.00127081,0.00127081,-0.00127081,0.00127081,-0.00127081,0.00127081,-7.25E-12,7.60E-12,-0.001338554,0.001338554,1.03E-13,2.41E-13,-0.001401134,0.001401134,-0.001401134,0.001401134,-0.001401134,0.001401134,-0.001401134,0.001401134,-0.00127081,0.00127081,-0.00127081,0.00127081,0.751027684,0.79944244,1368840,32768,0.005561582,0.005561582,0.005561582,37.19360892,37.1936084,0.000212749,0.000212749,0.000212749,418296.2906,0.016825657
38772846,0.999998904,0.016075955,0.005358652,0.005358652,0.005358652,-0.001338565,0.001338565,7.18E-12,-7.71E-12,6.59E-14,-5.95E-13,-0.001401137,0.001401137,-0.001401137,0.001401137,-0.001401137,0.001401137,-0.001401137,0.001401137,-0.001270824,0.001270824,-0.001270824,0.001270824,2.72E-13,9.44E-13,9.48E-13,8.06E-13,-0.001338565,0.001338565,-0.001401137,0.001401137,-0.001401137,0.001401137,-0.001401137,0.001401137,-0.001401137,0.001401137,-0.001270824,0.001270824,-0.001270824,0.001270824,-0.001270824,0.001270824,-0.001270824,0.001270824,-7.25E-12,7.60E-12,-0.001338565,0.001338565,1.03E-13,2.44E-13,-0.001401137,0.001401137,-0.001401137,0.001401137,-0.001401137,0.001401137,-0.001401137,0.001401137,-0.001270824,0.001270824,-0.001270824,0.001270824,0.75254203,0.79944244,1368840,32768,0.005561629,0.005561629,0.005561629,37.19360845,37.1936084,0.000212749,0.000212749,0.000212749,417207.4854,0.0168258
38859246,0.999998966,0.016075956,0.005358652,0.005358652,0.005358652,-0.001338574,0.001338574,7.18E-12,-7.71E-12,6.88E-14,-5.94E-13,-0.001401138,0.001401138,-0.001401138,0.001401138,-0.001401138,0.001401138,-0.001401138,0.001401138,-0.001270834,0.001270834,-0.001270834,0.001270834,2.73E-13,9.47E-13,9.52E-13,8.04E-13,-0.001338574,0.001338574,-0.001401138,0.001401138,-0.001401138,0.001401138,-0.001401138,0.001401138,-0.001401138,0.001401138,-0.001270834,0.001270834,-0.001270834,0.001270834,-0.001270834,0.001270834,-0.001270834,0.001270834,-7.25E-12,7.60E-12,-0.001338574,0.001338574,9.97E-14,2.47E-13,-0.001401138,0.001401138,-0.001401138,0.001401138,-0.001401138,0.001401138,-0.001401138,0.001401138,-0.001270834,0.001270834,-0.001270834,0.001270834,0.753874329,0.79944244,1368840,32768,0.005561665,0.005561665,0.005561665,37.19360841,37.1936084,0.000212749,0.000212749,0.000212749,416240.1753,0.016825911
38880000,0.99999898,0.016075957,0.005358652,0.005358652,0.005358652,-0.001338581,0.001338581,7.18E-12,-7.71E-12,6.65E-14,-5.96E-13,-0.001401138,0.001401138,-0.001401138,0.001401138,-0.001401138,0.001401138,-0.001401138,0.001401138,-0.001270841,0.001270841,-0.001270841,0.001270841,2.69E-13,9.42E-13,9.53E-13,7.95E-13,-0.001338581,0.001338581,-0.001401138,0.001401138,-0.001401138,0.001401138,-0.001401138,0.001401138,-0.001401138,0.001401138,-0.001270841,0.001270841,-0.001270841,0.001270841,-0.001270841,0.001270841,-0.001270841,0.001270841,-7.25E-12,7.60E-12,-0.001338581,0.001338581,9.71E-14,2.55E-13,-0.001401138,0.001401138,-0.001401138,0.001401138,-0.001401138,0.001401138,-0.001401138,0.001401138,-0.001270841,0.001270841,-0.001270841,0.001270841,0.754184302,0.79944244,1368840,32768,0.005561693,0.005561693,0.005561693,37.1936084,37.1936084,0.000212749,0.000212749,0.000212749,415678.0926,0.016825995