time,ASR_ext,ASR_strain,ASR_strain_xx,ASR_strain_yy,ASR_strain_zz,disp_x_101,disp_x_102,disp_x_103,disp_x_104,disp_x_105,disp_x_106,disp_x_p1_neg,disp_x_p1_pos,disp_x_p2_neg,disp_x_p2_pos,disp_x_p3_neg,disp_x_p3_pos,disp_x_p4_neg,disp_x_p4_pos,disp_x_p5_neg,disp_x_p5_pos,disp_x_p6_neg,disp_x_p6_pos,disp_y_101,disp_y_102,disp_y_103,disp_y_104,disp_y_105,disp_y_106,disp_y_p1_neg,disp_y_p1_pos,disp_y_p2_neg,disp_y_p2_pos,disp_y_p3_neg,disp_y_p3_pos,disp_y_p4_neg,disp_y_p4_pos,disp_y_p5_neg,disp_y_p5_pos,disp_y_p6_neg,disp_y_p6_pos,disp_y_p7_neg,disp_y_p7_pos,disp_y_p8_neg,disp_y_p8_pos,disp_z_101,disp_z_102,disp_z_103,disp_z_104,disp_z_105,disp_z_106,disp_z_p1_neg,disp_z_p1_pos,disp_z_p2_neg,disp_z_p2_pos,disp_z_p3_neg,disp_z_p3_pos,disp_z_p4_neg,disp_z_p4_pos,disp_z_p5_neg,disp_z_p5_pos,disp_z_p6_neg,disp_z_p6_pos,humidity,ndof,nelem,strain_xx,strain_yy,strain_zz,temp,thermal_strain_xx,thermal_strain_yy,thermal_strain_zz,vonmises,vstrain
2419200,0,0,0,0,0,0,0,0,0,0,0,0,0,0,0,0,0,0,0,0,0,0,0,0,0,0,0,0,0,0,0,0,0,0,0,0,0,0,0,0,0,0,0,0,0,0,0,0,0,0,0,0,0,0,0,0,0,0,0,0,0,0,0,0,0,0,0,0,0,0,0,0,0,0,0
2505600,0.009435649,0.000167482,5.58E-05,5.58E-05,5.58E-05,-5.03E-05,5.09E-05,2.96E-08,5.45E-07,9.15E-08,7.36E-07,-4.98E-05,4.99E-05,-4.97E-05,4.99E-05,-4.98E-05,5.01E-05,-4.94E-05,5.03E-05,-5.11E-05,5.09E-05,-5.03E-05,5.18E-05,2.46E-07,-3.87E-07,3.93E-08,5.70E-08,-5.06E-05,5.06E-05,-4.99E-05,5.01E-05,-4.98E-05,5.00E-05,-4.99E-05,4.96E-05,-5.00E-05,4.96E-05,-5.09E-05,5.07E-05,-5.11E-05,5.10E-05,-5.12E-05,5.15E-05,-5.16E-05,5.06E-05,1.40E-06,8.69E-07,-4.82E-05,5.04E-05,1.18E-06,1.15E-06,-4.76E-05,5.00E-05,-4.74E-05,5.00E-05,-4.76E-05,4.97E-05,-4.78E-05,4.97E-05,-4.94E-05,5.08E-05,-4.86E-05,5.16E-05,0.806083524,1473840,32975,0.000210732,0.000210872,0.000205384,29.88866687,0.000154309,0.000154309,0.000154309,333323.021,0.000627185
2592000,0.020796206,0.000368767,0.00012313,0.000123152,0.000122486,-7.06E-05,7.02E-05,-5.54E-07,1.92E-07,-4.15E-07,1.60E-07,-7.04E-05,6.96E-05,-7.02E-05,6.98E-05,-7.03E-05,6.98E-05,-7.00E-05,7.01E-05,-7.10E-05,6.99E-05,-7.01E-05,7.08E-05,2.20E-07,-3.57E-07,-4.18E-08,3.88E-09,-7.05E-05,7.04E-05,-7.00E-05,7.01E-05,-6.99E-05,7.01E-05,-7.01E-05,6.98E-05,-7.01E-05,6.98E-05,-7.05E-05,7.02E-05,-7.05E-05,7.04E-05,-7.08E-05,7.13E-05,-7.14E-05,7.05E-05,8.37E-07,8.48E-08,-6.77E-05,6.86E-05,4.88E-07,4.43E-07,-6.74E-05,6.85E-05,-6.73E-05,6.85E-05,-6.76E-05,6.83E-05,-6.76E-05,6.82E-05,-6.91E-05,6.92E-05,-6.82E-05,7.00E-05,0.807821014,1473840,32975,0.000293351,0.000293376,0.000283888,31.68382944,0.000168671,0.000168671,0.000168671,255860.8401,0.000870994
2678400,0.033275638,0.000590466,0.000197493,0.000197516,0.000195457,-8.99E-05,8.99E-05,-4.86E-07,5.08E-07,-3.58E-07,4.43E-07,-8.98E-05,8.92E-05,-8.95E-05,8.95E-05,-8.96E-05,8.95E-05,-8.92E-05,8.99E-05,-9.02E-05,8.94E-05,-8.92E-05,9.05E-05,5.30E-08,-7.51E-07,-2.78E-07,-3.62E-07,-9.03E-05,8.96E-05,-8.97E-05,8.94E-05,-8.97E-05,8.93E-05,-9.00E-05,8.91E-05,-9.00E-05,8.90E-05,-9.02E-05,8.94E-05,-9.03E-05,8.93E-05,-9.06E-05,9.07E-05,-9.14E-05,8.98E-05,8.64E-07,-1.34E-07,-8.63E-05,8.71E-05,3.27E-07,4.11E-07,-8.61E-05,8.71E-05,-8.60E-05,8.71E-05,-8.64E-05,8.68E-05,-8.64E-05,8.68E-05,-8.82E-05,8.79E-05,-8.71E-05,8.89E-05,0.809253115,1473840,32975,0.000374635,0.000374661,0.000361201,32.4917188,0.000175134,0.000175134,0.000175134,298934.7133,0.001111114
2764800,0.046385364,0.000823662,0.000275895,0.000275918,0.000271849,-0.000109408,0.000109622,-5.28E-07,7.33E-07,-3.38E-07,5.99E-07,-0.000109356,0.000108849,-0.000108963,0.000109235,-0.000109088,0.000109143,-0.000108642,0.000109584,-0.000109658,0.000108855,-0.000108366,0.000110159,3.23E-07,-6.13E-07,-5.59E-08,-1.76E-07,-0.000109652,0.000109391,-0.000109082,0.000109172,-0.000109101,0.000109119,-0.000109354,0.000108832,-0.000109417,0.000108783,-0.000109439,0.000109011,-0.000109593,0.000108936,-0.000110115,0.000110695,-0.000111023,0.000109701,9.47E-07,-3.18E-07,-0.000104861,0.000105486,2.60E-07,3.79E-07,-0.000104653,0.000105649,-0.000104575,0.000105684,-0.000105058,0.000105221,-0.000105031,0.000105244,-0.000107249,0.000106612,-0.000105926,0.000107885,0.810510699,1473840,32975,0.00045621,0.000456235,0.000438128,32.83029123,0.000177842,0.000177842,0.000177842,349781.9417,0.001351485
2851200,0.059634122,0.001059573,0.000355379,0.000355402,0.000348792,-0.000128404,0.000128654,-6.27E-07,8.69E-07,-3.91E-07,6.88E-07,-0.000128419,0.000127821,-0.000127947,0.000128287,-0.000128104,0.000128164,-0.00012758,0.000128684,-0.000128578,0.000127632,-0.00012706,0.000129167,3.86E-07,-6.93E-07,-1.11E-07,-1.39E-07,-0.000128674,0.000128396,-0.000128101,0.00012819,-0.000128088,0.000128168,-0.00012842,0.000127803,-0.000128452,0.000127785,-0.000128367,0.000127783,-0.000128431,0.000127798,-0.000129214,0.000129947,-0.000130263,0.000128818,9.52E-07,-5.48E-07,-0.000122746,0.000123147,1.94E-07,2.21E-07,-0.000122566,0.000123447,-0.000122519,0.000123451,-0.000123049,0.000122941,-0.000123053,0.000122933,-0.000125688,0.000124566,-0.00012414,0.000126071,0.811622799,1473840,32975,0.000535394,0.000535419,0.000512145,32.73477602,0.000177078,0.000177078,0.000177078,398929.1681,0.001584212
2937600,0.072981654,0.001297458,0.000435689,0.000435711,0.000426058,-0.000147654,0.000147734,-8.60E-07,9.33E-07,-2.72E-07,3.95E-07,-0.000147655,0.000146924,-0.000147083,0.000147489,-0.000147474,0.000147129,-0.00014685,0.000147748,-0.000147848,0.000146306,-0.000146039,0.000148132,2.39E-07,-4.29E-07,-1.18E-07,-1.74E-08,-0.000147782,0.000147618,-0.0001473,0.000147325,-0.000147245,0.000147347,-0.000147486,0.000147076,-0.000147475,0.000147101,-0.000147278,0.000146818,-0.000147215,0.00014696,-0.000148679,0.00014917,-0.000149328,0.000148449,1.08E-06,-7.20E-07,-0.000140556,0.00014091,2.35E-07,1.33E-07,-0.000140373,0.00014135,-0.000140369,0.000141311,-0.000140955,0.000140744,-0.000141001,0.000140694,-0.000144137,0.000142635,-0.000142301,0.000144432,0.812622323,1473840,32975,0.000615203,0.000615227,0.000586215,32.61246084,0.0001761,0.0001761,0.0001761,449591.673,0.001818297
3024000,0.086414457,0.001536776,0.000516637,0.000516659,0.00050348,-0.000166906,0.000167121,-9.59E-07,1.17E-06,-3.18E-07,5.76E-07,-0.000167017,0.000166235,-0.000166334,0.000166911,-0.000166763,0.000166516,-0.000166029,0.000167245,-0.000166986,0.000165329,-0.000164851,0.00016748,4.46E-07,-4.46E-07,-5.37E-08,1.11E-07,-0.000167005,0.000167033,-0.000166515,0.000166783,-0.000166439,0.000166827,-0.000166775,0.00016646,-0.000166743,0.000166507,-0.000166329,0.000165925,-0.000166206,0.000166129,-0.00016796,0.000168884,-0.000168831,0.000167941,1.23E-06,-8.97E-07,-0.000158372,0.000158706,2.56E-07,9.11E-08,-0.000158197,0.000159286,-0.000158213,0.000159225,-0.000158889,0.000158568,-0.000158956,0.000158496,-0.000162626,0.000160758,-0.000160466,0.000162881,0.812597339,1473840,32975,0.000695646,0.00069567,0.000660362,32.48765003,0.000175101,0.000175101,0.000175101,497944.9082,0.002053785
3110400,0.099921467,0.001776951,0.000598032,0.000598054,0.000580865,-0.000186336,0.000186555,-1.04E-06,1.25E-06,-2.66E-07,5.27E-07,-0.000186501,0.000185701,-0.000185762,0.000186433,-0.000186277,0.000185948,-0.000185489,0.000186733,-0.000186217,0.000184366,-0.000183915,0.000186679,3.44E-07,-4.49E-07,-1.11E-07,6.03E-08,-0.000186491,0.000186412,-0.000186058,0.000186186,-0.000185982,0.000186233,-0.000186288,0.000185898,-0.000186254,0.000185946,-0.000185502,0.000185019,-0.000185371,0.000185228,-0.000187654,0.000188377,-0.000188428,0.000187529,1.42E-06,-8.78E-07,-0.00017606,0.000176594,3.59E-07,1.89E-07,-0.000175943,0.000177289,-0.000175962,0.000177227,-0.00017669,0.000176515,-0.00017676,0.000176443,-0.000180907,0.000179075,-0.000178582,0.000181363,0.811279719,1473840,32975,0.000776554,0.000776578,0.000734426,32.36259176,0.000174101,0.000174101,0.000174101,541992.3814,0.002290178
3196800,0.113491847,0.002017724,0.000679793,0.000679815,0.000658116,-0.000205903,0.000206045,-1.18E-06,1.32E-06,-3.18E-07,5.02E-07,-0.000206174,0.00020522,-0.000205365,0.000206021,-0.000205943,0.000205476,-0.000205086,0.000206329,-0.000205517,0.000203396,-0.000203015,0.000205912,5.67E-07,-2.51E-07,9.91E-08,2.76E-07,-0.000205808,0.000206151,-0.000205442,0.000205996,-0.000205362,0.000206044,-0.000205678,0.000205699,-0.000205643,0.000205749,-0.000204462,0.00020439,-0.000204327,0.000204604,-0.000207098,0.000208272,-0.0002079,0.0002074,1.45E-06,-1.05E-06,-0.000193873,0.000194272,2.94E-07,1.18E-07,-0.000193823,0.000195105,-0.000193842,0.000195039,-0.000194639,0.000194262,-0.000194709,0.000194186,-0.000199347,0.000197176,-0.000196821,0.000199665,0.809765118,1473840,32975,0.000857856,0.00085788,0.000808311,32.23750845,0.0001731,0.0001731,0.0001731,582570.8948,0.002527236
3283200,0.127114776,0.002257952,0.000761542,0.000761564,0.000734845,-0.000225419,0.000225592,-1.25E-06,1.41E-06,-3.74E-07,6.01E-07,-0.000225852,0.000224824,-0.000224996,0.000225675,-0.000225578,0.000225127,-0.00022466,0.000226043,-0.000224673,0.000222444,-0.000221984,0.000225145,7.64E-07,-2.08E-07,1.87E-07,4.41E-07,-0.000225216,0.000225806,-0.000224951,0.00022577,-0.00022484,0.000225851,-0.000225235,0.000225428,-0.000225177,0.000225499,-0.000223481,0.000223549,-0.000223285,0.000223834,-0.000226503,0.000228115,-0.000227468,0.000227051,1.36E-06,-1.31E-06,-0.000211654,0.0002117,1.57E-07,-9.76E-08,-0.000211719,0.000212725,-0.000211762,0.000212635,-0.000212589,0.000211834,-0.000212687,0.000211729,-0.000217694,0.000214968,-0.000214985,0.000217628,0.805016525,1473840,32975,0.000939165,0.000939186,0.0008816,32.11242438,0.000172099,0.000172099,0.000172099,614563.858,0.002763765
3369600,0.140779346,0.002497843,0.000843369,0.000843391,0.000811083,-0.000244961,0.000245147,-1.23E-06,1.41E-06,-3.83E-07,6.12E-07,-0.00024556,0.000244547,-0.000244705,0.00024539,-0.00024527,0.000244859,-0.000244366,0.000245758,-0.00024361,0.00024145,-0.000240965,0.000244104,4.98E-07,-4.97E-07,-1.87E-07,2.48E-07,-0.000245045,0.000245074,-0.000244966,0.000245179,-0.000244804,0.000245316,-0.000245261,0.000244827,-0.000245143,0.000244961,-0.000242843,0.000242151,-0.000242457,0.000242614,-0.000246338,0.000247463,-0.000247318,0.000246404,1.68E-06,-9.55E-07,-0.000228808,0.00022953,5.82E-07,1.50E-07,-0.000229008,0.00023074,-0.000229114,0.000230592,-0.000229869,0.000229854,-0.000230026,0.000229693,-0.000235368,0.000233296,-0.000232702,0.000235923,0.801702657,1473840,32975,0.001020536,0.00102056,0.000954417,31.98733894,0.000171099,0.000171099,0.000171099,644466.332,0.003000005
3456000,0.154474503,0.002737139,0.000925187,0.000925208,0.000886744,-0.000264891,0.000264313,-1.74E-06,1.15E-06,-7.98E-07,2.67E-07,-0.000265743,0.000263861,-0.000264806,0.00026479,-0.000265429,0.000264196,-0.000264443,0.000265181,-0.000263015,0.000259863,-0.000260129,0.000262767,5.03E-07,-5.68E-07,-1.92E-07,1.87E-07,-0.000264626,0.000264589,-0.000264729,0.000264916,-0.000264583,0.000265035,-0.000265046,0.000264541,-0.000264944,0.000264656,-0.000261773,0.000261046,-0.000261441,0.000261453,-0.000265906,0.00026702,-0.000266957,0.000265884,1.63E-06,-1.26E-06,-0.000246316,0.000246684,3.79E-07,1.54E-09,-0.000246686,0.000248131,-0.000246775,0.000248003,-0.000247634,0.000247166,-0.000247773,0.000247023,-0.000253471,0.000250817,-0.000250553,0.000253681,0.798218276,1473840,32975,0.001101901,0.001101924,0.001026558,31.86225313,0.000170098,0.000170098,0.000170098,674805.658,0.003235607
3542400,0.1683278,0.002977979,0.00100772,0.001007741,0.000962518,-0.000284588,0.000284556,-1.52E-06,1.48E-06,-5.83E-07,5.96E-07,-0.000285725,0.000284313,-0.000284749,0.00028528,-0.000285375,0.000284686,-0.000284349,0.000285708,-0.000282018,0.000279336,-0.000279014,0.00028235,5.45E-07,-6.36E-07,-2.46E-07,2.16E-07,-0.000284609,0.000284547,-0.000284951,0.000285125,-0.000284781,0.000285272,-0.000285308,0.000284715,-0.00028518,0.000284857,-0.000281078,0.000280211,-0.000280668,0.000280698,-0.000285812,0.000287038,-0.000286972,0.00028579,1.87E-06,-1.14E-06,-0.00026372,0.000264439,5.94E-07,1.36E-07,-0.000264282,0.000266141,-0.000264398,0.000265987,-0.000265265,0.000265137,-0.000265431,0.000264968,-0.000271419,0.000268981,-0.00026839,0.000271958,0.794621798,1473840,32975,0.001185013,0.001185038,0.00109973,31.86607787,0.000170129,0.000170129,0.000170129,712528.1974,0.003475809
3628800,0.182471316,0.003222766,0.001091769,0.001091791,0.001039205,-0.000305105,0.000305226,-1.51E-06,1.62E-06,-5.09E-07,6.75E-07,-0.000306565,0.000305262,-0.00030555,0.00030627,-0.000306212,0.000305637,-0.000305148,0.000306702,-0.000301752,0.000299107,-0.00029863,0.000302243,5.39E-07,-6.47E-07,-3.13E-07,2.65E-07,-0.000305211,0.000305132,-0.000305873,0.000305992,-0.000305663,0.000306179,-0.000306233,0.000305581,-0.000306065,0.000305761,-0.000300899,0.0002999,-0.000300375,0.000300501,-0.00030636,0.000307609,-0.000307524,0.000306358,1.77E-06,-1.36E-06,-0.000281899,0.000282303,4.95E-07,-8.04E-08,-0.000282661,0.000284285,-0.000282816,0.000284092,-0.000283684,0.00028324,-0.000283889,0.000283031,-0.000290185,0.000287269,-0.000287037,0.00029037,0.791726125,1473840,32975,0.001270714,0.001270738,0.001174736,32.00302935,0.000171224,0.000171224,0.000171224,761027.9843,0.003723102
3715200,0.196903125,0.003471988,0.00117751,0.001177532,0.001116946,-0.000326092,0.000326279,-1.66E-06,1.83E-06,-5.50E-07,7.83E-07,-0.000327983,0.000326575,-0.000326846,0.000327705,-0.000327581,0.000327,-0.000326394,0.000328186,-0.00032197,0.000319082,-0.000318492,0.000322578,6.08E-07,-7.26E-07,-3.18E-07,2.60E-07,-0.000326236,0.000326147,-0.000327221,0.000327379,-0.000327009,0.000327566,-0.000327628,0.000326916,-0.00032746,0.000327098,-0.000321027,0.000319966,-0.000320504,0.000320568,-0.000327276,0.000328663,-0.000328583,0.000327266,1.85E-06,-1.64E-06,-0.000300262,0.000300471,3.97E-07,-1.79E-07,-0.000301218,0.000302771,-0.000301373,0.000302576,-0.000302363,0.000301602,-0.00030257,0.000301394,-0.000309287,0.000305815,-0.000305782,0.000309274,0.790758881,1473840,32975,0.001358181,0.001358207,0.00125075,32.14809701,0.000172385,0.000172385,0.000172385,815195.8714,0.003975019
3801600,0.211613936,0.00372554,0.001264918,0.00126494,0.001195682,-0.000347429,0.000347819,-1.59E-06,1.97E-06,-5.05E-07,9.42E-07,-0.000349734,0.000348461,-0.000348571,0.000349617,-0.000349291,0.000348927,-0.000348077,0.000350138,-0.00034233,0.000339618,-0.000338779,0.000343184,1.61E-07,-1.29E-06,-8.14E-07,-2.64E-07,-0.000348181,0.000347079,-0.000349521,0.000348718,-0.000349316,0.000348895,-0.000349967,0.000348212,-0.000349808,0.000348385,-0.000341989,0.000339894,-0.000341493,0.00034047,-0.000349136,0.000349611,-0.000350557,0.000348108,1.96E-06,-1.61E-06,-0.000318678,0.000319015,4.48E-07,-9.91E-08,-0.000319907,0.000321604,-0.000320055,0.000321423,-0.000321078,0.000320409,-0.000321277,0.000320213,-0.000328338,0.000324933,-0.000324766,0.000328471,0.789977246,1473840,32975,0.001447384,0.001447408,0.001327651,32.29391748,0.000173551,0.000173551,0.000173551,870987.5026,0.004231371
3888000,0.226592602,0.003983285,0.001353956,0.001353978,0.001275351,-0.000369247,0.00036968,-1.66E-06,2.09E-06,-5.30E-07,1.01E-06,-0.000372013,0.000370693,-0.000370788,0.00037191,-0.000371543,0.000371188,-0.000370268,0.00037246,-0.000363158,0.000360337,-0.000359424,0.000364084,5.94E-07,-9.46E-07,-4.66E-07,1.73E-07,-0.000369631,0.000369308,-0.000371388,0.000371361,-0.000371155,0.000371568,-0.000371862,0.000370827,-0.000371675,0.000371029,-0.000362428,0.000361,-0.000361845,0.000361665,-0.000370498,0.000371869,-0.000372007,0.000370277,2.04E-06,-1.72E-06,-0.000337371,0.000337682,4.79E-07,-1.58E-07,-0.000338866,0.000340628,-0.000339041,0.000340414,-0.000340098,0.000339371,-0.000340325,0.000339143,-0.000347789,0.000344147,-0.000344035,0.000347864,0.78934685,1473840,32975,0.001538245,0.001538268,0.001405381,32.4398128,0.000174719,0.000174719,0.000174719,926560.0263,0.004491954
3974400,0.241826527,0.004245055,0.001444564,0.001444586,0.001355904,-0.000391559,0.00039182,-1.92E-06,2.17E-06,-4.28E-07,7.33E-07,-0.000394772,0.000393294,-0.000393436,0.000394623,-0.000394426,0.000393663,-0.00039304,0.000395047,-0.000384557,0.000381109,-0.000380496,0.000385185,4.88E-07,-6.74E-07,-3.46E-07,2.16E-07,-0.000391775,0.000391616,-0.000394036,0.000394072,-0.000393827,0.000394253,-0.000394385,0.000393665,-0.000394224,0.000393841,-0.000383332,0.00038227,-0.000382825,0.000382858,-0.000392807,0.000393948,-0.000393947,0.000392728,2.21E-06,-1.88E-06,-0.000356233,0.000356549,4.43E-07,-1.16E-07,-0.00035802,0.000359874,-0.000358169,0.000359685,-0.000359364,0.000358505,-0.000359564,0.000358303,-0.000367502,0.000363563,-0.00036342,0.000367609,0.788842658,1473840,32975,0.001630707,0.001630731,0.001483871,32.58571574,0.000175886,0.000175886,0.000175886,981252.0112,0.004756587
4060800,0.257301798,0.004510651,0.001536672,0.001536694,0.001437284,-0.00041419,0.000414383,-2.01E-06,2.19E-06,-4.30E-07,6.68E-07,-0.000417902,0.000416339,-0.000416527,0.000417706,-0.000417577,0.000416687,-0.000416151,0.000418109,-0.000406043,0.000402395,-0.000401869,0.000406582,4.42E-07,-6.58E-07,-3.69E-07,2.09E-07,-0.000414387,0.000414197,-0.000417151,0.000417131,-0.000416938,0.000417317,-0.00041748,0.000416744,-0.000417313,0.000416926,-0.00040473,0.000403642,-0.000404207,0.000404247,-0.000415414,0.000416467,-0.000416492,0.00041531,2.28E-06,-1.93E-06,-0.000375252,0.000375599,4.67E-07,-1.09E-07,-0.000377377,0.000379305,-0.000377532,0.000379111,-0.000378759,0.000377898,-0.000378966,0.000377691,-0.00038733,0.000383305,-0.000383136,0.000387463,0.788446862,1473840,32975,0.001724702,0.001724726,0.001563065,32.73161952,0.000177053,0.000177053,0.000177053,1034639.15,0.005025078
4147200,0.273003226,0.004779854,0.0016302,0.001630223,0.001519431,-0.000437128,0.000437342,-2.19E-06,2.39E-06,-4.39E-07,6.97E-07,-0.000441437,0.000439755,-0.000439936,0.000441248,-0.000441099,0.000440116,-0.000439548,0.000441664,-0.000427881,0.000423894,-0.000423337,0.000428452,4.59E-07,-6.79E-07,-3.91E-07,2.27E-07,-0.000437338,0.000437145,-0.000440629,0.000440604,-0.000440402,0.000440804,-0.00044097,0.000440205,-0.00044079,0.0004404,-0.000426426,0.000425284,-0.000425864,0.000425928,-0.000438308,0.000439409,-0.000439423,0.000438213,2.45E-06,-2.13E-06,-0.00039446,0.000394769,4.67E-07,-1.48E-07,-0.000396893,0.000398923,-0.000397061,0.000398716,-0.000398402,0.00039739,-0.000398621,0.000397169,-0.000407532,0.000403085,-0.000402967,0.000407613,0.788146947,1473840,32975,0.001820152,0.001820177,0.001642891,32.87752342,0.00017822,0.00017822,0.00017822,1086626.852,0.005297203
4233600,0.288914382,0.005052421,0.001725063,0.001725085,0.001602273,-0.000460416,0.000460615,-2.39E-06,2.58E-06,-4.31E-07,6.75E-07,-0.000465346,0.000463528,-0.000463712,0.000465153,-0.000465018,0.000463878,-0.000463335,0.000465558,-0.000450023,0.000445622,-0.000445089,0.000450569,4.48E-07,-6.58E-07,-3.19E-07,1.66E-07,-0.000460613,0.00046043,-0.000464448,0.000464467,-0.000464265,0.000464623,-0.000464779,0.000464078,-0.000464642,0.000464229,-0.000448286,0.000447294,-0.000447854,0.000447807,-0.000461595,0.000462631,-0.00046268,0.000461466,2.66E-06,-2.32E-06,-0.000413773,0.000414105,4.13E-07,-6.95E-08,-0.000416555,0.000418696,-0.000416679,0.000418533,-0.000418196,0.00041703,-0.000418372,0.000416854,-0.000427876,0.000423106,-0.000422921,0.000428024,0.787934222,1473840,32975,0.001916972,0.001916996,0.001723277,33.02342739,0.000179387,0.000179387,0.000179387,1137130.157,0.005572717
4320000,0.305105262,0.005329568,0.001821682,0.001821704,0.001686181,-0.000484287,0.000484474,-2.49E-06,2.67E-06,-4.17E-07,6.49E-07,-0.000489834,0.000487955,-0.000488139,0.000489643,-0.00048952,0.000488292,-0.000487774,0.000490034,-0.000472577,0.000467969,-0.000467462,0.000473098,4.37E-07,-6.30E-07,-3.19E-07,1.82E-07,-0.00048447,0.000484303,-0.000488907,0.000488924,-0.000488718,0.000489085,-0.000489224,0.000488548,-0.000489083,0.000488704,-0.00047073,0.000469752,-0.000470282,0.000470281,-0.000485453,0.000486472,-0.000486499,0.000485346,2.75E-06,-2.42E-06,-0.000433465,0.000433788,4.16E-07,-8.18E-08,-0.000436619,0.000438818,-0.000436748,0.000438651,-0.000438322,0.000437091,-0.000438503,0.00043691,-0.000448584,0.000443619,-0.000443448,0.000448718,0.787750658,1473840,32975,0.002016214,0.002016238,0.001805169,33.24704029,0.000181176,0.000181176,0.000181176,1186761.935,0.005854695
4406400,0.321641444,0.005612386,0.001920444,0.001920466,0.001771476,-0.000508821,0.000509013,-2.64E-06,2.82E-06,-4.15E-07,6.52E-07,-0.000515048,0.000513076,-0.000513255,0.000514862,-0.000514733,0.000513413,-0.00051289,0.000515254,-0.000495761,0.000490869,-0.000490357,0.000496288,4.39E-07,-6.29E-07,-3.24E-07,1.90E-07,-0.000509005,0.000508842,-0.000514074,0.000514092,-0.000513882,0.000514257,-0.000514393,0.000513715,-0.000514247,0.000513875,-0.000493777,0.000492789,-0.000493317,0.000493331,-0.000509976,0.000511004,-0.000511023,0.000509877,2.89E-06,-2.57E-06,-0.000453585,0.000453898,4.17E-07,-9.37E-08,-0.000457109,0.000459401,-0.000457243,0.000459229,-0.000458911,0.000457575,-0.000459096,0.000457389,-0.000469843,0.000464573,-0.000464417,0.000469962,0.787470284,1473840,32975,0.002118237,0.002118262,0.00188883,33.54463766,0.000183557,0.000183557,0.000183557,1236120.681,0.00614413
4492800,0.338508506,0.005900642,0.002021274,0.002021296,0.001858072,-0.000533876,0.000534069,-2.72E-06,2.91E-06,-4.18E-07,6.57E-07,-0.000540806,0.000538775,-0.000538955,0.000540618,-0.000540489,0.000539114,-0.000538587,0.000541013,-0.000519323,0.000514265,-0.000513749,0.000519853,4.42E-07,-6.34E-07,-3.32E-07,1.97E-07,-0.000534061,0.000533896,-0.000539805,0.000539818,-0.000539608,0.000539988,-0.000540126,0.000539438,-0.000539975,0.000539603,-0.000517265,0.000516258,-0.00051679,0.000516815,-0.000535021,0.000536059,-0.000536075,0.000534924,2.97E-06,-2.66E-06,-0.000473978,0.000474284,4.22E-07,-1.04E-07,-0.000477908,0.000480256,-0.000478047,0.000480079,-0.000479768,0.000478373,-0.000479958,0.000478182,-0.000491382,0.000485932,-0.000485787,0.000491489,0.787230958,1473840,32975,0.002222405,0.00222243,0.001973628,33.84677526,0.000185974,0.000185974,0.000185974,1285030.764,0.006439108
4579200,0.355685041,0.006193984,0.002124055,0.002124077,0.001945852,-0.000559413,0.000559609,-2.82E-06,3.00E-06,-4.20E-07,6.62E-07,-0.00056709,0.000564995,-0.000565175,0.000566903,-0.00056677,0.000565337,-0.000564804,0.0005673,-0.000543299,0.000538057,-0.000537536,0.000543834,4.45E-07,-6.38E-07,-2.88E-07,1.51E-07,-0.0005596,0.000559434,-0.000566042,0.000566085,-0.000565874,0.000566225,-0.000566365,0.000565704,-0.000566243,0.000565839,-0.000541107,0.000540184,-0.000540719,0.000540653,-0.000560574,0.000561588,-0.000561635,0.000560446,3.08E-06,-2.74E-06,-0.000494591,0.000494924,3.90E-07,-4.61E-08,-0.000498956,0.000501365,-0.000499065,0.000501218,-0.00050088,0.000499418,-0.000501041,0.000499257,-0.000513205,0.000507622,-0.00050742,0.000513368,0.787032388,1473840,32975,0.002328576,0.0023286,0.002059402,34.14933603,0.000188395,0.000188395,0.000188395,1333232.773,0.006739188
4665600,0.373146893,0.006492015,0.002228654,0.002228676,0.002034685,-0.000585229,0.000585746,-2.82E-06,3.32E-06,-3.47E-07,9.94E-07,-0.000593649,0.000591685,-0.000591654,0.000593635,-0.000593328,0.000592099,-0.000591174,0.000594196,-0.00056803,0.000562721,-0.000561782,0.000568883,8.36E-07,-5.08E-07,-3.78E-08,5.38E-07,-0.000585292,0.000585704,-0.000592387,0.000593061,-0.000592133,0.000593233,-0.000592725,0.00059254,-0.000592619,0.000592692,-0.000565532,0.000565001,-0.000565039,0.000565637,-0.000586084,0.000587971,-0.000587439,0.000586433,3.31E-06,-2.83E-06,-0.000515413,0.000515874,5.22E-07,-4.70E-08,-0.000520378,0.000523036,-0.00052047,0.000522837,-0.000522393,0.000520991,-0.000522605,0.000520765,-0.000535097,0.000529219,-0.000528877,0.000535333,0.786874177,1473840,32975,0.00243655,0.002436593,0.00214625,34.45193904,0.000190816,0.000190816,0.000190816,1372885.943,0.00704409
4752000,0.390867707,0.006794314,0.002334902,0.002334926,0.002124486,-0.00061179,0.000612025,-3.10E-06,3.32E-06,-3.89E-07,6.80E-07,-0.000621089,0.000618841,-0.00061898,0.000620936,-0.000620788,0.000619175,-0.00061861,0.000621343,-0.000592497,0.000586674,-0.000586117,0.000593051,4.85E-07,-5.86E-07,-2.07E-07,1.82E-07,-0.000611946,0.000611881,-0.000619913,0.000620069,-0.000619754,0.000620192,-0.00062022,0.000619686,-0.000620125,0.000619799,-0.000589919,0.000589161,-0.000589589,0.000589583,-0.000612953,0.000614045,-0.000614015,0.00061289,3.41E-06,-3.02E-06,-0.000536402,0.000536779,3.87E-07,9.98E-10,-0.00054165,0.000544281,-0.000541732,0.00054415,-0.000543772,0.000542136,-0.000543917,0.000541988,-0.000557746,0.000551624,-0.000551352,0.000557967,0.78675592,1473840,32975,0.002546357,0.002546384,0.002233345,34.75454647,0.000193236,0.000193236,0.000193236,1427307.22,0.007352992
4838400,0.408818505,0.007100383,0.002442687,0.002442711,0.002214985,-0.000638244,0.000639124,-2.81E-06,3.68E-06,-8.45E-08,1.08E-06,-0.000648299,0.000646642,-0.000646175,0.000648703,-0.000648043,0.000646996,-0.000645761,0.000649206,-0.00061762,0.000612274,-0.000611019,0.000618806,8.74E-07,-2.85E-07,2.92E-07,4.97E-07,-0.000638358,0.000639041,-0.000647001,0.000647986,-0.000646879,0.000648047,-0.000647286,0.000647551,-0.000647292,0.000647589,-0.00061476,0.000614974,-0.000614614,0.000615227,-0.000639373,0.000641181,-0.000640579,0.000639868,3.68E-06,-2.82E-06,-0.00055734,0.000558182,5.31E-07,3.31E-07,-0.000563319,0.000566352,-0.000563283,0.000566272,-0.000565451,0.000564188,-0.000565535,0.000564074,-0.000579708,0.000573955,-0.000573154,0.000580454,0.786677267,1473840,32975,0.002657636,0.002657699,0.00232136,35.05715429,0.000195657,0.000195657,0.000195657,1465562.567,0.007665933
4924800,0.426968718,0.007409743,0.002551792,0.002551818,0.002306133,-0.000665662,0.000665983,-3.21E-06,3.52E-06,-3.43E-07,7.28E-07,-0.000676683,0.000674421,-0.000674474,0.000676607,-0.000676394,0.000674754,-0.000674101,0.000677026,-0.000642737,0.000636679,-0.000636032,0.000643371,5.34E-07,-5.37E-07,-1.35E-07,2.28E-07,-0.000665808,0.000665851,-0.000675442,0.000675711,-0.000675287,0.000675826,-0.000675742,0.000675327,-0.000675661,0.000675428,-0.000639962,0.000639351,-0.000639661,0.000639746,-0.000666888,0.000668076,-0.000667964,0.00066691,3.60E-06,-3.14E-06,-0.000578692,0.000579147,4.13E-07,5.41E-08,-0.000584915,0.000587716,-0.000584979,0.000587591,-0.000587138,0.000585469,-0.000587275,0.000585325,-0.000602923,0.000596574,-0.000596213,0.000603231,0.786637937,1473840,32975,0.002770405,0.002770433,0.002409322,35.3597623,0.000198078,0.000198078,0.000198078,1517641.207,0.007981851
5011200,0.445285289,0.007721663,0.002662019,0.002662043,0.0023976,-0.000693007,0.000693419,-3.21E-06,3.59E-06,-1.40E-07,6.93E-07,-0.00070477,0.000702654,-0.000702547,0.000704826,-0.000704603,0.000702899,-0.000702243,0.000705197,-0.000668707,0.000662452,-0.000661818,0.000669244,8.26E-07,-2.99E-09,3.41E-07,6.23E-07,-0.000692791,0.000693684,-0.000703246,0.000704337,-0.000703098,0.000704388,-0.000703402,0.000703967,-0.000703382,0.000704033,-0.000665312,0.000665701,-0.000665061,0.000666069,-0.000693993,0.000695735,-0.000694829,0.000694737,4.11E-06,-2.71E-06,-0.000599514,0.000600904,8.49E-07,5.77E-07,-0.000606501,0.000610195,-0.000606493,0.000610102,-0.000608748,0.000607935,-0.000608853,0.000607811,-0.000624894,0.000619389,-0.000617985,0.000626121,0.786230749,1473840,32975,0.002884206,0.002884308,0.002497818,35.66236991,0.000200499,0.000200499,0.000200499,1553695.549,0.008300599
5097600,0.463618352,0.008032303,0.002771978,0.002772014,0.002488311,-0.000720258,0.000720538,-3.46E-06,3.73E-06,-3.02E-07,6.54E-07,-0.00073318,0.000730766,-0.00073082,0.000733099,-0.000732934,0.000731058,-0.000730483,0.000733483,-0.000693436,0.000686832,-0.000686268,0.000693976,5.46E-07,-4.08E-07,-4.82E-08,2.87E-07,-0.000720314,0.000720501,-0.000731814,0.000732197,-0.000731664,0.000732299,-0.000732066,0.000731844,-0.000731998,0.000731935,-0.000690281,0.000689878,-0.000690004,0.000690252,-0.000721485,0.000722692,-0.000722449,0.000721632,3.90E-06,-3.29E-06,-0.000620644,0.00062125,4.76E-07,1.45E-07,-0.000627911,0.000631002,-0.00062796,0.000630888,-0.000630289,0.000628604,-0.000630416,0.000628469,-0.000648024,0.000641378,-0.000640846,0.000648483,0.782574554,1473840,32975,0.002997143,0.002997182,0.002584019,35.86475625,0.000202118,0.000202118,0.000202118,1609134.651,0.008615249
5184000,0.481834607,0.008340702,0.002881357,0.002881392,0.002577954,-0.000747051,0.000747382,-3.44E-06,3.75E-06,-3.64E-07,7.67E-07,-0.000761027,0.000758604,-0.000758666,0.000760938,-0.000760723,0.000758955,-0.000758271,0.000761381,-0.000717957,0.00071146,-0.000710788,0.000718607,6.09E-07,-5.21E-07,5.33E-08,1.36E-07,-0.000747158,0.000747294,-0.00075961,0.000760086,-0.000759544,0.000760104,-0.00075992,0.000759675,-0.000759935,0.000759681,-0.000714786,0.000714524,-0.000714756,0.000714648,-0.000748257,0.000749502,-0.000749393,0.000748269,3.95E-06,-3.25E-06,-0.00064094,0.000641638,3.97E-07,3.17E-07,-0.000648794,0.000651894,-0.00064876,0.000651863,-0.000651173,0.000649495,-0.000651216,0.000649444,-0.000669797,0.000663325,-0.000662617,0.000670431,0.782334316,1473840,32975,0.003108545,0.003108583,0.002668566,35.97914261,0.000203033,0.000203033,0.000203033,1656931.339,0.008925296
5270400,0.499899505,0.008649212,0.002990879,0.002990913,0.00266742,-0.000773987,0.000774285,-3.65E-06,3.93E-06,-3.40E-07,7.09E-07,-0.000788942,0.000786386,-0.000786453,0.000788848,-0.000788665,0.000786709,-0.000786086,0.000789263,-0.000742983,0.000736049,-0.000735437,0.000743573,5.69E-07,-4.79E-07,3.63E-08,1.54E-07,-0.000774076,0.000774214,-0.000787477,0.000787915,-0.0007874,0.000787945,-0.000787761,0.000787532,-0.000787764,0.00078755,-0.000739596,0.000739329,-0.000739533,0.000739487,-0.000775363,0.000776541,-0.000776418,0.000775389,4.14E-06,-3.44E-06,-0.000661174,0.000661862,4.09E-07,2.95E-07,-0.000669461,0.000672691,-0.000669439,0.000672649,-0.000671967,0.000670163,-0.000672022,0.000670101,-0.000691943,0.000685073,-0.000684386,0.000692556,0.78946348,1473840,32975,0.003220351,0.003220388,0.002752636,36.08807436,0.000203905,0.000203905,0.000203905,1689342.482,0.009235771
5356800,0.517786199,0.008953474,0.003099096,0.003099129,0.002755248,-0.000800728,0.000800983,-3.86E-06,4.10E-06,-1.97E-07,5.19E-07,-0.000816592,0.000813973,-0.000813971,0.000816568,-0.000816421,0.000814184,-0.000813712,0.000816871,-0.000767842,0.000760365,-0.000759907,0.00076828,4.48E-07,-2.66E-07,7.47E-08,2.04E-07,-0.000800752,0.000800978,-0.000815105,0.000815518,-0.000815029,0.000815553,-0.000815283,0.000815249,-0.000815283,0.00081527,-0.000764091,0.000764013,-0.000764015,0.00076418,-0.000802367,0.000803314,-0.000803095,0.000802485,4.40E-06,-3.58E-06,-0.000680858,0.000681666,4.73E-07,3.48E-07,-0.000689698,0.000693184,-0.000689681,0.00069314,-0.000692337,0.000690526,-0.000692395,0.000690461,-0.00071352,0.000706377,-0.000705573,0.00071425,0.786379492,1473840,32975,0.003331315,0.003331354,0.002834685,36.1964893,0.000204772,0.000204772,0.000204772,1717699.262,0.009542607
5443200,0.53546762,0.009252253,0.003205582,0.003205615,0.002841055,-0.000826929,0.000827099,-4.14E-06,4.30E-06,-2.56E-07,4.93E-07,-0.000843932,0.000841059,-0.000841152,0.000843813,-0.000843751,0.000841282,-0.000840884,0.000844126,-0.000791925,0.000783913,-0.000783529,0.000792292,4.71E-07,-2.76E-07,1.66E-07,1.26E-07,-0.000826903,0.000827143,-0.00084228,0.000842772,-0.000842256,0.00084275,-0.000842467,0.000842492,-0.000842521,0.000842457,-0.000787825,0.000787916,-0.000787914,0.000787915,-0.000828538,0.000829475,-0.0008293,0.000828617,4.58E-06,-3.87E-06,-0.00070015,0.000700856,3.39E-07,3.82E-07,-0.000709501,0.000712988,-0.000709429,0.000712998,-0.000712298,0.00071017,-0.000712301,0.00071016,-0.000734642,0.000726987,-0.000726232,0.000735324,0.781292198,1473840,32975,0.003439938,0.003439975,0.002914642,36.30485246,0.000205639,0.000205639,0.000205639,1760586.636,0.009842688
5529600,0.552917198,0.009544675,0.003309992,0.003310024,0.002924659,-0.000852539,0.000852765,-4.36E-06,4.57E-06,-3.13E-07,6.04E-07,-0.000870804,0.000867768,-0.000867863,0.000870687,-0.000870567,0.000868046,-0.00086754,0.000871055,-0.000815262,0.000806879,-0.000806389,0.000815742,6.09E-07,-3.05E-07,2.12E-07,1.92E-07,-0.000852484,0.000852836,-0.000868989,0.00086964,-0.000868961,0.000869627,-0.000869234,0.000869308,-0.000869282,0.000869281,-0.000810957,0.000811087,-0.00081103,0.000811105,-0.000853928,0.000855149,-0.000854855,0.00085412,4.84E-06,-4.10E-06,-0.000718804,0.000719538,3.63E-07,3.86E-07,-0.00072868,0.000732366,-0.000728616,0.00073237,-0.000731641,0.000729387,-0.000731651,0.00072937,-0.000755081,0.000746966,-0.000746187,0.000755783,0.775299351,1473840,32975,0.003546387,0.00354642,0.002992211,36.41321082,0.000206506,0.000206506,0.000206506,1808556.45,0.010136054
5616000,0.570110177,0.009830725,0.003412289,0.003412321,0.003006114,-0.000877661,0.000877861,-4.37E-06,4.55E-06,-2.80E-07,5.45E-07,-0.000897151,0.000894126,-0.000894211,0.000897041,-0.000896947,0.000894374,-0.000893922,0.000897378,-0.000837772,0.000829343,-0.00082891,0.000838195,8.23E-07,1.30E-09,5.90E-07,3.36E-07,-0.000877333,0.000878204,-0.000895058,0.000896272,-0.000895107,0.000896183,-0.000895274,0.000895973,-0.000895398,0.000895868,-0.000833052,0.000833963,-0.00083335,0.00083375,-0.000878651,0.000880225,-0.000879488,0.000879287,4.86E-06,-4.07E-06,-0.000736873,0.000737657,2.72E-07,5.28E-07,-0.000747441,0.000751095,-0.000747297,0.000751174,-0.000750397,0.000748119,-0.000750327,0.000748178,-0.000774599,0.000766622,-0.000765715,0.000775425,0.770362092,1473840,32975,0.003650628,0.003650659,0.003067389,36.52156911,0.000207373,0.000207373,0.000207373,1859926.561,0.01042263
5702400,0.587023423,0.010110306,0.003512421,0.003512452,0.003085433,-0.000902221,0.000902502,-4.52E-06,4.78E-06,-3.81E-07,7.29E-07,-0.000923126,0.000919959,-0.00092006,0.000923,-0.000922825,0.000920302,-0.000919674,0.000923431,-0.000859742,0.000851122,-0.000850514,0.000860343,6.21E-07,-4.85E-07,1.83E-07,5.11E-08,-0.000902279,0.000902461,-0.00092128,0.000921864,-0.000921288,0.000921812,-0.000921588,0.000921466,-0.000921671,0.000921402,-0.000855384,0.00085539,-0.000855563,0.000855296,-0.000903154,0.000904353,-0.000904266,0.000903141,5.03E-06,-4.28E-06,-0.000754404,0.000755151,3.15E-07,4.49E-07,-0.000765596,0.000769382,-0.000765495,0.000769422,-0.00076868,0.000766278,-0.000768652,0.000766299,-0.000793798,0.000785374,-0.000784547,0.000794547,0.766135086,1473840,32975,0.003752748,0.003752783,0.003140147,36.62992751,0.000208239,0.000208239,0.000208239,1911414.994,0.010702559
5788800,0.603635481,0.010383098,0.003610267,0.003610298,0.003162534,-0.000926546,0.000926299,-4.92E-06,4.65E-06,-5.39E-07,3.58E-07,-0.000948826,0.00094511,-0.000945667,0.000948243,-0.000948593,0.000945383,-0.000945352,0.000948603,-0.000881426,0.000871939,-0.000871931,0.000881421,5.47E-07,-3.49E-07,2.80E-07,1.29E-08,-0.000926309,0.000926552,-0.000946689,0.000947305,-0.000946742,0.000947209,-0.000946924,0.000946979,-0.000947052,0.000946869,-0.000876501,0.00087677,-0.000876814,0.000876544,-0.000926954,0.000927963,-0.000927857,0.000926958,5.23E-06,-4.35E-06,-0.000771252,0.000772118,3.06E-07,5.76E-07,-0.000783191,0.000787142,-0.000783047,0.000787229,-0.000786369,0.00078395,-0.000786296,0.000784016,-0.000812173,0.000803651,-0.000802652,0.000813084,0.761860911,1473840,32975,0.003852618,0.003852651,0.003210388,36.73828605,0.000209106,0.000209106,0.000209106,1963264.724,0.010975467
5875200,0.619867288,0.010649479,0.003705921,0.003705951,0.003237608,-0.000950063,0.000949611,-5.23E-06,4.75E-06,-6.15E-07,2.30E-07,-0.000973779,0.000969744,-0.000970483,0.000973014,-0.000973565,0.000969997,-0.000970191,0.000973354,-0.000902349,0.000892235,-0.000892452,0.000902116,8.28E-07,-1.29E-08,5.39E-07,3.78E-07,-0.000949413,0.000950276,-0.000971198,0.000972377,-0.000971219,0.000972318,-0.000971417,0.000972076,-0.000971511,0.000972,-0.000896845,0.000897649,-0.000897055,0.000897531,-0.000949714,0.00095133,-0.000950567,0.000950368,5.55E-06,-4.45E-06,-0.000787389,0.000788473,4.67E-07,6.31E-07,-0.000800027,0.000804365,-0.000799916,0.000804416,-0.000803342,0.000801038,-0.000803302,0.000801068,-0.000829961,0.000821223,-0.000820031,0.000831052,0.762100759,1473840,32975,0.003949794,0.003949825,0.00327788,36.78457467,0.000209477,0.000209477,0.000209477,2010411.957,0.011240219
5961600,0.635659448,0.010906804,0.003798466,0.003798496,0.003309842,-0.000972625,0.000972467,-5.14E-06,4.96E-06,-4.13E-07,3.21E-07,-0.000997689,0.000993942,-0.000994356,0.000997251,-0.000997512,0.00099416,-0.000994097,0.000997555,-0.000922165,0.0009122,-0.000912159,0.000922196,6.84E-07,-4.47E-08,4.05E-07,3.35E-07,-0.000972211,0.000972897,-0.000995376,0.000996313,-0.000995364,0.000996283,-0.000995556,0.000996043,-0.000995619,0.000995999,-0.000916848,0.000917425,-0.000916969,0.000917393,-0.000972201,0.000973556,-0.000972942,0.000972712,5.38E-06,-4.73E-06,-0.000803035,0.000803676,2.93E-07,3.64E-07,-0.000816515,0.000820483,-0.000816435,0.000820502,-0.000819867,0.000817115,-0.000819859,0.000817114,-0.000847086,0.00083776,-0.000837052,0.000847706,0.757370283,1473840,32975,0.004044033,0.004044065,0.003341954,36.78061816,0.000209445,0.000209445,0.000209445,2049204.788,0.011495646
6048000,0.651002148,0.011155899,0.003888177,0.003888206,0.003379516,-0.000994404,0.000994382,-5.16E-06,5.12E-06,-3.12E-07,3.54E-07,-0.001020953,0.0010173,-0.001017554,0.00102067,-0.001020796,0.001017496,-0.001017316,0.001020952,-0.00094114,0.000931104,-0.000930943,0.000941283,5.11E-07,-1.52E-07,2.61E-07,1.94E-07,-0.000994199,0.000994603,-0.001018835,0.001019471,-0.001018825,0.00101944,-0.001018996,0.001019223,-0.00101906,0.001019178,-0.00093592,0.000936232,-0.000936036,0.0009362,-0.00099376,0.000994767,-0.000994436,0.000993993,5.78E-06,-4.52E-06,-0.000817472,0.00081873,6.01E-07,6.71E-07,-0.000831755,0.0008364,-0.000831677,0.000836419,-0.000835169,0.000832968,-0.000835163,0.000832966,-0.000862962,0.000854066,-0.000852745,0.000864202,0.755168905,1473840,32975,0.004134686,0.004134719,0.003403206,36.77352601,0.000209388,0.000209388,0.000209388,2095835.759,0.011741027
6134400,0.665889874,0.011397397,0.003975234,0.003975263,0.003446901,-0.001015715,0.001015689,-5.33E-06,5.28E-06,-3.05E-07,3.42E-07,-0.001043718,0.001039961,-0.001040211,0.001043439,-0.001043567,0.001040149,-0.00103998,0.001043715,-0.000959777,0.000949412,-0.000949265,0.00095991,5.78E-07,-6.39E-08,3.85E-07,2.26E-07,-0.001015431,0.00101599,-0.001041458,0.001042272,-0.001041479,0.001042213,-0.001041614,0.001042034,-0.001041708,0.001041958,-0.000954268,0.000954832,-0.000954473,0.000954712,-0.001014614,0.001015727,-0.001015268,0.00101497,5.86E-06,-4.76E-06,-0.000831712,0.000832799,4.70E-07,6.31E-07,-0.000846824,0.000851376,-0.000846715,0.000851426,-0.000850345,0.000847836,-0.000850308,0.000847866,-0.000878722,0.000869369,-0.000868185,0.00087982,0.755147286,1473840,32975,0.004223097,0.004223131,0.003462003,36.76613841,0.000209329,0.000209329,0.000209329,2131919.058,0.011979445
6220800,0.680319626,0.011631371,0.004059654,0.004059683,0.003512035,-0.001036493,0.001036477,-5.41E-06,5.38E-06,-3.35E-07,3.83E-07,-0.00106587,0.00106204,-0.001062304,0.001065578,-0.001065697,0.001062253,-0.00106205,0.001065877,-0.000977876,0.000967374,-0.000967188,0.000978045,6.39E-07,-7.45E-08,5.20E-07,1.42E-07,-0.001036188,0.001036798,-0.001063502,0.001064463,-0.001063593,0.00106433,-0.00106368,0.001064199,-0.001063845,0.001064051,-0.000972176,0.000972982,-0.000972597,0.000972647,-0.001035038,0.001036199,-0.001035765,0.001035375,5.98E-06,-4.82E-06,-0.000845257,0.000846401,3.90E-07,7.70E-07,-0.000861264,0.00086586,-0.000861081,0.000865982,-0.000864846,0.00086226,-0.000864735,0.000862362,-0.00089373,0.000884332,-0.00088302,0.000894961,0.755283236,1473840,32975,0.004309319,0.004309351,0.003518383,36.75872104,0.00020927,0.00020927,0.00020927,2158007.062,0.012211038
6307200,0.694290019,0.011857897,0.004141458,0.004141486,0.003574953,-0.001056728,0.001056592,-5.59E-06,5.44E-06,-3.42E-07,2.68E-07,-0.00108743,0.001083436,-0.001083786,0.001087053,-0.001087291,0.001083613,-0.001083566,0.001087316,-0.000995545,0.000984657,-0.000984629,0.000995557,5.09E-07,-9.72E-08,4.68E-07,3.86E-08,-0.00105644,0.001056896,-0.001085067,0.001085855,-0.001085174,0.001085704,-0.001085208,0.001085626,-0.00108539,0.001085461,-0.000989687,0.000990425,-0.000990158,0.000990037,-0.001055054,0.001055939,-0.001055676,0.001055223,6.04E-06,-5.00E-06,-0.000858317,0.000859345,3.07E-07,7.38E-07,-0.000875171,0.000879714,-0.000874973,0.000879854,-0.000878832,0.000876035,-0.000878705,0.000876156,-0.000908324,0.0008986,-0.000897387,0.000909457,0.755546224,1473840,32975,0.004393011,0.004393044,0.003572387,36.75130062,0.00020921,0.00020921,0.00020921,2179172.044,0.012435158
6393600,0.707801087,0.012076678,0.004220535,0.004220563,0.00363558,-0.001076198,0.001076193,-5.59E-06,5.57E-06,-3.41E-07,3.99E-07,-0.001108224,0.001104271,-0.001104534,0.001107934,-0.001108042,0.001104491,-0.001104271,0.001108241,-0.001012401,0.001001555,-0.001001352,0.001012591,5.48E-07,-1.88E-07,3.46E-07,1.09E-07,-0.001076001,0.001076406,-0.001105917,0.001106633,-0.00110596,0.001106547,-0.001106102,0.001106361,-0.00110622,0.00110626,-0.001006706,0.001007159,-0.001006989,0.00100696,-0.001074243,0.001075268,-0.001074993,0.001074425,6.06E-06,-5.11E-06,-0.00087077,0.000871711,3.59E-07,5.98E-07,-0.000888447,0.000893012,-0.000888313,0.000893088,-0.000892154,0.000889287,-0.000892091,0.000889344,-0.000922303,0.000912291,-0.000911233,0.000923285,0.754719713,1473840,32975,0.004474044,0.004474076,0.00362393,36.74387989,0.000209151,0.000209151,0.000209151,2197050.164,0.012651451
6480000,0.720854278,0.012289162,0.004297358,0.004297386,0.003694418,-0.001095466,0.001094894,-5.94E-06,5.34E-06,-5.71E-07,7.35E-08,-0.001128707,0.001124187,-0.001124986,0.00112788,-0.001128564,0.00112437,-0.001124749,0.001128165,-0.001029314,0.001017721,-0.00101813,0.001028895,5.50E-07,-9.25E-08,5.03E-07,6.75E-08,-0.001094932,0.001095442,-0.001126049,0.001126893,-0.001126149,0.001126749,-0.001126194,0.001126662,-0.00112638,0.001126488,-0.001023073,0.001023883,-0.001023561,0.001023485,-0.001093031,0.001094008,-0.001093705,0.001093216,6.02E-06,-5.27E-06,-0.00088277,0.000883506,1.58E-07,5.94E-07,-0.000901347,0.000905678,-0.000901145,0.000905823,-0.000905096,0.000901926,-0.000904961,0.000902045,-0.000935716,0.000925439,-0.000924503,0.000936549,0.758766431,1473840,32975,0.004552783,0.004552812,0.003673345,36.73645911,0.000209092,0.000209092,0.000209092,2211076.524,0.012860983
6566400,0.733452878,0.012495125,0.004371844,0.004371872,0.00375141,-0.001114032,0.001113597,-5.98E-06,5.52E-06,-4.68E-07,9.69E-08,-0.001148377,0.00114394,-0.001144575,0.001147718,-0.001148247,0.001144102,-0.001144367,0.001147967,-0.001045519,0.001033844,-0.001034134,0.001045219,1.10E-07,-4.58E-07,6.20E-08,-3.23E-07,-0.001113975,0.001113668,-0.001146185,0.001146183,-0.001146279,0.001146049,-0.001146315,0.001145971,-0.00114648,0.001145819,-0.00103967,0.001039611,-0.001040097,0.001039265,-0.001112093,0.001112197,-0.001112676,0.001111508,6.25E-06,-5.27E-06,-0.000894178,0.000895147,3.00E-07,6.85E-07,-0.000913498,0.000918155,-0.00091332,0.000918283,-0.00091732,0.000914322,-0.000917211,0.000914428,-0.000948911,0.000938638,-0.000937496,0.000949965,0.761996175,1473840,32975,0.004630065,0.004630094,0.003721212,36.72962389,0.000209037,0.000209037,0.000209037,2207265.564,0.01306604
6652800,0.745910598,0.012699795,0.004445871,0.004445899,0.003808025,-0.001133195,0.001133217,-5.77E-06,5.78E-06,-3.10E-07,3.96E-07,-0.001168598,0.001164557,-0.001164781,0.00116835,-0.001168428,0.001164765,-0.00116453,0.001168645,-0.001062334,0.00105112,-0.001050905,0.001062539,5.58E-07,-1.44E-07,4.23E-07,8.80E-08,-0.001132984,0.001133443,-0.00116621,0.001167001,-0.001166285,0.001166882,-0.001166384,0.001166741,-0.001166533,0.001166607,-0.001056375,0.001056993,-0.001056753,0.001056696,-0.001131081,0.001132097,-0.001131798,0.00113128,6.22E-06,-5.34E-06,-0.000906328,0.000907198,2.75E-07,6.11E-07,-0.000926435,0.000931026,-0.000926269,0.000931135,-0.000930271,0.000927173,-0.000930176,0.000927262,-0.000962783,0.000952348,-0.000951325,0.000963723,0.765505733,1473840,32975,0.004710481,0.004710512,0.003771468,37.16878887,0.00021255,0.00021255,0.00021255,2204747.742,0.013279915
6739200,0.758220485,0.012903192,0.004519449,0.004519476,0.003864267,-0.001152603,0.001152532,-5.91E-06,5.82E-06,-3.96E-07,3.88E-07,-0.001189047,0.001184825,-0.001185169,0.00118868,-0.001188852,0.00118506,-0.001184892,0.001189,-0.001079517,0.001068058,-0.001067911,0.001079655,5.58E-07,-2.22E-07,4.71E-07,-3.94E-08,-0.001152384,0.001152765,-0.001186567,0.001187363,-0.001186699,0.001187186,-0.001186766,0.001187078,-0.001186973,0.001186885,-0.001073404,0.001074089,-0.001073952,0.001073618,-0.001150597,0.001151552,-0.001151389,0.00115066,6.32E-06,-5.42E-06,-0.000918256,0.000919149,2.00E-07,7.11E-07,-0.000939162,0.000943779,-0.000938938,0.000943946,-0.00094306,0.000939866,-0.000942906,0.000940013,-0.000976535,0.000966004,-0.000964901,0.000977556,0.769541555,1473840,32975,0.004790764,0.004790796,0.003821056,37.63467331,0.000216277,0.000216277,0.000216277,2199860.74,0.013492885
6825600,0.770357899,0.013106684,0.004593018,0.004593046,0.00392062,-0.001172024,0.001171883,-6.02E-06,5.85E-06,-3.45E-07,2.66E-07,-0.001209365,0.001205092,-0.001205442,0.001208991,-0.001209229,0.001205265,-0.001205226,0.001209251,-0.001096885,0.001085159,-0.001085142,0.00109689,9.02E-07,2.97E-07,9.19E-07,3.81E-07,-0.001171338,0.001172582,-0.00120645,0.001208057,-0.001206595,0.001207871,-0.001206593,0.001207834,-0.001206813,0.001207632,-0.001090161,0.001091804,-0.001090742,0.001091309,-0.001169928,0.001171568,-0.001170553,0.001170838,6.47E-06,-5.42E-06,-0.000930034,0.00093107,2.57E-07,7.95E-07,-0.000951677,0.000956472,-0.000951441,0.000956647,-0.00095562,0.000952516,-0.000955455,0.000952669,-0.000990291,0.000979778,-0.000978513,0.000991463,0.780344224,1473840,32975,0.004871144,0.00487117,0.003870271,38.1030749,0.000220025,0.000220025,0.000220025,2189238.549,0.01370571
6912000,0.782297159,0.013303775,0.004664397,0.004664425,0.003974953,-0.001191131,0.001190959,-6.12E-06,5.93E-06,-2.62E-07,1.51E-07,-0.001229326,0.001225021,-0.001225341,0.001228982,-0.001229251,0.001225131,-0.001225186,0.001229178,-0.001113885,0.001101887,-0.001101964,0.001113799,4.34E-07,2.41E-08,5.78E-07,-2.77E-08,-0.001190802,0.001191303,-0.001226788,0.001227613,-0.001226954,0.001227404,-0.001226866,0.001227452,-0.001227105,0.001227227,-0.001107335,0.001108356,-0.001107977,0.001107792,-0.001189754,0.001190435,-0.001190184,0.001189908,6.54E-06,-5.53E-06,-0.000941298,0.000942305,2.09E-07,8.15E-07,-0.000963861,0.000968667,-0.000963606,0.000968867,-0.000967866,0.000964647,-0.000967681,0.000964826,-0.001003458,0.000992757,-0.000991507,0.001004625,0.768128235,1473840,32975,0.004950293,0.004950325,0.003916994,38.57168159,0.000223773,0.000223773,0.000223773,2177685.391,0.013913571
6998400,0.794013125,0.013496211,0.004734162,0.004734189,0.004027861,-0.001209062,0.001208679,-6.27E-06,5.86E-06,-3.71E-07,4.92E-08,-0.001248672,0.00124413,-0.001244659,0.001248114,-0.001248593,0.001244242,-0.001244503,0.001248313,-0.001129141,0.001116855,-0.00111714,0.001128839,4.46E-07,2.77E-08,4.90E-07,7.56E-08,-0.00120862,0.001209136,-0.001246035,0.001246816,-0.001246141,0.001246669,-0.001246117,0.001246653,-0.001246295,0.001246494,-0.001122533,0.001123377,-0.001122989,0.001123008,-0.001207309,0.001208076,-0.001207746,0.001207539,6.72E-06,-5.42E-06,-0.000951932,0.000953219,4.42E-07,8.59E-07,-0.000975016,0.000980188,-0.000974824,0.000980326,-0.000979048,0.000976144,-0.000978925,0.000976261,-0.001015805,0.001005248,-0.001003772,0.00101719,0.764002446,1473840,32975,0.005024191,0.005024222,0.003961737,39.04033285,0.000227523,0.000227523,0.000227523,2202779.974,0.014108809
7084800,0.805481427,0.013683976,0.004802259,0.004802286,0.004079431,-0.001226783,0.001226569,-6.27E-06,6.04E-06,-2.62E-07,1.09E-07,-0.001267622,0.001263203,-0.00126355,0.00126725,-0.001267561,0.001263299,-0.001263409,0.001267432,-0.001144381,0.001132076,-0.001132207,0.001144239,4.23E-07,5.52E-08,5.09E-07,6.03E-08,-0.001226424,0.001226943,-0.00126505,0.001265828,-0.001265163,0.001265671,-0.001265114,0.00126568,-0.001265301,0.001265509,-0.001137738,0.001138636,-0.001138226,0.001138228,-0.001225074,0.001225785,-0.001225463,0.001225304,6.67E-06,-5.66E-06,-0.000962449,0.00096346,2.89E-07,7.39E-07,-0.000986236,0.000991185,-0.000986034,0.000991333,-0.000990328,0.000987078,-0.000990196,0.000987205,-0.001028119,0.001017119,-0.001015917,0.00102924,0.761876009,1473840,32975,0.005097999,0.005098029,0.004004841,39.50898949,0.000231272,0.000231272,0.000231272,2212781.422,0.014302241
7171200,0.816679468,0.013866088,0.004868361,0.004868388,0.004129339,-0.001244148,0.001244077,-6.17E-06,6.07E-06,-2.21E-07,2.08E-07,-0.001286162,0.001281892,-0.001282116,0.001285914,-0.001286079,0.001282004,-0.001281953,0.001286114,-0.001159142,0.001147062,-0.001147038,0.001159163,4.22E-07,-4.04E-09,5.37E-07,-2.93E-08,-0.001243889,0.001244348,-0.001283663,0.001284437,-0.001283815,0.001284241,-0.001283748,0.001284275,-0.001283975,0.001284063,-0.001152603,0.001153538,-0.001153202,0.001153006,-0.001242473,0.001243143,-0.001242917,0.001242596,6.64E-06,-5.62E-06,-0.000972334,0.000973338,2.29E-07,7.95E-07,-0.000996973,0.001001849,-0.000996733,0.001002039,-0.001001041,0.000997769,-0.001000868,0.000997934,-0.001039632,0.001028724,-0.001027491,0.00104078,0.756900788,1473840,32975,0.005170271,0.005170297,0.004045883,39.97764584,0.000235021,0.000235021,0.000235021,2219162.726,0.014490498
7257600,0.827585957,0.014042134,0.004932319,0.004932346,0.004177469,-0.00126109,0.00126072,-6.39E-06,6.00E-06,-3.71E-07,6.21E-08,-0.001304417,0.001299802,-0.001300323,0.001303872,-0.001304336,0.001299915,-0.001300162,0.001304072,-0.001173452,0.001160935,-0.00116121,0.001173173,6.27E-07,2.00E-07,7.99E-07,1.23E-07,-0.001260475,0.001261346,-0.001301522,0.001302743,-0.001301712,0.001302511,-0.001301606,0.001302581,-0.001301868,0.001302332,-0.00116643,0.001167885,-0.001167138,0.001167249,-0.001258897,0.001259944,-0.001259344,0.001259392,6.72E-06,-5.68E-06,-0.000981671,0.000982709,1.90E-07,8.66E-07,-0.001007079,0.001012001,-0.001006801,0.001012224,-0.001011195,0.001007874,-0.001010985,0.001008074,-0.001050652,0.001039677,-0.00103837,0.001051866,0.751360271,1473840,32975,0.00523987,0.005239891,0.004084733,40.44630266,0.00023877,0.00023877,0.00023877,2230742.932,0.014671141
7344000,0.838082161,0.014210578,0.004993556,0.004993582,0.00422344,-0.001276806,0.001276512,-6.45E-06,6.14E-06,-3.12E-07,7.85E-08,-0.001321485,0.001316892,-0.001317324,0.00132103,-0.001321418,0.001316994,-0.001317178,0.001321218,-0.001186536,0.00117389,-0.001174097,0.00118632,4.92E-07,1.04E-07,6.94E-07,-6.69E-09,-0.001276348,0.001276985,-0.001318723,0.001319708,-0.00131892,0.001319467,-0.001318794,0.001319556,-0.001319064,0.001319299,-0.001179545,0.001180803,-0.00118028,0.001180145,-0.001274555,0.001275321,-0.001274966,0.001274818,6.84E-06,-5.77E-06,-0.000990114,0.000991179,1.91E-07,8.92E-07,-0.001016258,0.001021268,-0.001015971,0.001021499,-0.001020441,0.001017071,-0.001020225,0.001017281,-0.00106077,0.001049638,-0.001048296,0.001062025,0.747192977,1473840,32975,0.005305158,0.005305187,0.004119857,40.73773846,0.000241102,0.000241102,0.000241102,2241903.678,0.014839297
7430400,0.84803451,0.014369589,0.005051389,0.005051415,0.004266786,-0.001291402,0.001290956,-6.62E-06,6.15E-06,-3.20E-07,-6.78E-08,-0.001337361,0.001332598,-0.001333137,0.001336798,-0.001337338,0.001332653,-0.001333036,0.00133694,-0.001198608,0.001185579,-0.001185986,0.001198192,4.28E-07,1.78E-07,7.03E-07,-6.72E-09,-0.001290863,0.001291509,-0.00133453,0.001335481,-0.00133473,0.001335236,-0.001334556,0.001335376,-0.001334829,0.001335116,-0.001191393,0.001192714,-0.001192136,0.001192047,-0.00128892,0.001289557,-0.001289194,0.001289189,6.97E-06,-5.82E-06,-0.000997437,0.000998574,2.23E-07,9.33E-07,-0.001024352,0.001029492,-0.001024063,0.001029728,-0.001028598,0.001025234,-0.001028378,0.001025447,-0.001069698,0.001058461,-0.001057043,0.001071031,0.744052312,1473840,32975,0.005365328,0.005365356,0.004150426,40.78453015,0.000241476,0.000241476,0.000241476,2248344.219,0.01499246
7516800,0.857453583,0.014519464,0.005105917,0.005105943,0.004307604,-0.001305077,0.001304771,-6.58E-06,6.25E-06,-2.49E-07,1.14E-09,-0.001352254,0.001347612,-0.001348011,0.001351832,-0.001352231,0.001347667,-0.001347909,0.001351972,-0.001209754,0.001196811,-0.001197077,0.001209482,4.14E-07,1.67E-07,7.23E-07,-5.22E-08,-0.00130462,0.001305242,-0.001349486,0.001350432,-0.001349707,0.001350167,-0.00134951,0.001350327,-0.001349805,0.001350046,-0.001202563,0.001203925,-0.001203371,0.001203192,-0.001302492,0.001303081,-0.001302766,0.001302718,6.99E-06,-5.86E-06,-0.001004154,0.001005277,1.84E-07,9.58E-07,-0.001031882,0.001037007,-0.001031572,0.001037263,-0.001036148,0.001032728,-0.001035906,0.001032963,-0.001077915,0.001066626,-0.001065204,0.001079254,0.741141807,1473840,32975,0.005422282,0.005422311,0.004178303,40.81613777,0.000241729,0.000241729,0.000241729,2251342.068,0.015136386
7603200,0.866358661,0.014660693,0.005157312,0.005157338,0.004346043,-0.001318155,0.001317678,-6.73E-06,6.23E-06,-3.27E-07,-9.11E-08,-0.001366524,0.001361673,-0.001362237,0.001365936,-0.001366506,0.001361724,-0.00136214,0.001366073,-0.001220411,0.001207164,-0.001207607,0.001219962,4.10E-07,1.76E-07,7.75E-07,-1.00E-07,-0.00131761,0.001318237,-0.001363634,0.001364615,-0.001363889,0.001364316,-0.001363654,0.001364514,-0.001363983,0.0013642,-0.001213016,0.001214485,-0.001213921,0.001213653,-0.001315316,0.001315862,-0.001315576,0.001315513,7.11E-06,-5.87E-06,-0.001010229,0.001011459,1.88E-07,1.06E-06,-0.001038753,0.001043995,-0.001038411,0.001044286,-0.001043063,0.001039674,-0.001042789,0.001039942,-0.001085477,0.001074203,-0.001072638,0.001086956,0.738781594,1473840,32975,0.005476114,0.005476144,0.004203764,40.84630334,0.00024197,0.00024197,0.00024197,2252548.685,0.01527154
7689600,0.87477001,0.014793817,0.005205761,0.005205788,0.004382268,-0.001330369,0.001330088,-6.65E-06,6.35E-06,-2.38E-07,1.51E-08,-0.001379867,0.001375191,-0.001375565,0.001379469,-0.001379845,0.001375247,-0.001375464,0.001379611,-0.001230248,0.001217159,-0.001217398,0.00123,5.00E-07,2.52E-07,8.86E-07,-4.29E-08,-0.001329839,0.001330632,-0.00137697,0.001378141,-0.001377242,0.001377823,-0.001376995,0.001378034,-0.001377341,0.001377702,-0.001222821,0.001224504,-0.001223778,0.001223621,-0.001327386,0.001328096,-0.001327661,0.001327732,7.15E-06,-5.88E-06,-0.001015808,0.001017073,1.79E-07,1.11E-06,-0.001045131,0.001050405,-0.001044769,0.001050712,-0.001049455,0.001046067,-0.001049162,0.001046353,-0.001092478,0.001081212,-0.001079595,0.001094012,0.737305246,1473840,32975,0.005527126,0.005527155,0.004227019,40.87632208,0.000242211,0.000242211,0.000242211,2251150.083,0.015398744
7776000,0.882708075,0.01491921,0.005251399,0.005251426,0.004416385,-0.001342205,0.001341632,-6.87E-06,6.28E-06,-3.94E-07,-1.20E-07,-0.001392777,0.001387753,-0.001388427,0.001392079,-0.001392747,0.001387817,-0.001388318,0.001392228,-0.001239858,0.001226344,-0.00122687,0.001239323,4.23E-07,1.51E-07,8.11E-07,-1.48E-07,-0.001341619,0.001342233,-0.001389788,0.001390797,-0.00139007,0.001390469,-0.001389819,0.001390683,-0.001390174,0.00139034,-0.001232299,0.001233825,-0.001233285,0.00123291,-0.001339042,0.001339585,-0.001339338,0.001339198,7.22E-06,-5.95E-06,-0.001020913,0.001022175,1.62E-07,1.12E-06,-0.001051018,0.001056327,-0.001050648,0.001056645,-0.001055392,0.001051943,-0.001055089,0.001052239,-0.001099032,0.001087635,-0.00108601,0.001100572,0.735906664,1473840,32975,0.005575557,0.005575586,0.004248228,40.90632564,0.000242451,0.000242451,0.000242451,2246536.101,0.015518645
7862400,0.890193275,0.01503724,0.005294358,0.005294384,0.004448498,-0.001353105,0.001352819,-6.78E-06,6.48E-06,-2.78E-07,5.02E-08,-0.001404711,0.001399918,-0.001400322,0.001404282,-0.001404663,0.0014,-0.001400196,0.001404449,-0.001248591,0.00123527,-0.001235487,0.001248362,4.55E-07,1.31E-07,7.90E-07,-1.14E-07,-0.001352656,0.001353283,-0.00140183,0.001402852,-0.001402094,0.001402543,-0.00140188,0.00140272,-0.001402218,0.001402395,-0.001241158,0.001242624,-0.00124209,0.001241765,-0.00134994,0.001350564,-0.001350288,0.001350128,7.33E-06,-5.96E-06,-0.0010255,0.001026863,2.39E-07,1.14E-06,-0.00105636,0.001061826,-0.001056007,0.001062126,-0.001060772,0.001057402,-0.001060487,0.001057681,-0.001105033,0.001093606,-0.001091898,0.001106659,0.734568267,1473840,32975,0.005621305,0.005621335,0.004267502,40.93632761,0.000242691,0.000242691,0.000242691,2240665.349,0.015631146
7948800,0.897245873,0.015148262,0.005334764,0.00533479,0.004478708,-0.001363538,0.001363236,-6.85E-06,6.53E-06,-2.76E-07,3.14E-08,-0.001416124,0.001411286,-0.001411701,0.001415687,-0.001416084,0.001411361,-0.00141158,0.001415847,-0.001256943,0.001243493,-0.001243735,0.001256693,4.36E-07,1.32E-07,8.12E-07,-1.55E-07,-0.00136309,0.001363698,-0.001413224,0.001414241,-0.001413507,0.001413911,-0.001413267,0.001414116,-0.001413625,0.001413771,-0.00124942,0.001250937,-0.001250414,0.001250016,-0.001360303,0.00136087,-0.001360632,0.001360454,7.29E-06,-6.11E-06,-0.001029799,0.001030971,1.14E-07,1.08E-06,-0.001061412,0.001066704,-0.001061039,0.001067024,-0.00106586,0.001062244,-0.001065555,0.001062542,-0.001110691,0.001098984,-0.001097449,0.001112144,0.733277765,1473840,32975,0.005664489,0.005664518,0.004284977,40.96632943,0.000242931,0.000242931,0.000242931,2233695.842,0.01573662
8035200,0.903885882,0.01525262,0.005372741,0.005372768,0.004507112,-0.001373386,0.001373057,-6.89E-06,6.54E-06,-2.84E-07,1.30E-08,-0.001426909,0.001422026,-0.001422463,0.001426448,-0.001426872,0.001422097,-0.001422346,0.001426605,-0.001264766,0.001251222,-0.001251492,0.001264483,4.27E-07,1.33E-07,8.78E-07,-2.29E-07,-0.001372928,0.001373529,-0.001423968,0.00142502,-0.001424299,0.001424644,-0.001424008,0.001424899,-0.001424413,0.001424507,-0.00125713,0.001258778,-0.00125826,0.001257719,-0.001370094,0.001370595,-0.001370412,0.001370189,7.47E-06,-5.99E-06,-0.001033454,0.001034914,1.87E-07,1.29E-06,-0.00106582,0.001071373,-0.0010654,0.001071741,-0.00107029,0.001066891,-0.001069938,0.001067237,-0.001115632,0.001104199,-0.001102326,0.001117423,0.732026325,1473840,32975,0.005705225,0.005705255,0.004300773,40.99633123,0.000243171,0.000243171,0.000243171,2225800.644,0.01583543
8121600,0.910143774,0.015350819,0.005408473,0.005408499,0.004533847,-0.001382707,0.001382442,-6.91E-06,6.62E-06,-2.97E-07,9.05E-08,-0.00143715,0.00143227,-0.001432675,0.001436724,-0.001437083,0.001432372,-0.001432528,0.001436911,-0.001272127,0.001258588,-0.001258766,0.001271941,4.67E-07,8.28E-08,8.23E-07,-1.83E-07,-0.001382286,0.001382877,-0.001434219,0.001435257,-0.001434515,0.001434914,-0.001434288,0.001435105,-0.001434658,0.001434747,-0.001264564,0.001266073,-0.001265595,0.001265114,-0.001379327,0.001379941,-0.001379734,0.001379446,7.38E-06,-6.17E-06,-0.001037071,0.001038275,1.11E-07,1.12E-06,-0.001070121,0.001075485,-0.001069735,0.001075818,-0.001074622,0.001070972,-0.001074304,0.001071284,-0.001120559,0.001108745,-0.001107164,0.001122058,0.73080589,1473840,32975,0.005743967,0.005743996,0.004315278,41.05957648,0.000243677,0.000243677,0.000243677,2217223.698,0.015928883
8208000,0.916049735,0.015443354,0.005442138,0.005442165,0.004559051,-0.001391615,0.0013914,-6.95E-06,6.71E-06,-3.30E-07,1.74E-07,-0.001446955,0.001442043,-0.001442436,0.00144654,-0.00144685,0.001442184,-0.001442251,0.001446766,-0.001279157,0.001265579,-0.001265668,0.001279061,4.97E-07,-4.53E-09,6.45E-07,-6.28E-08,-0.001391248,0.001391782,-0.001444065,0.001444988,-0.001444264,0.001444745,-0.001444173,0.001444797,-0.001444446,0.001444538,-0.001271767,0.00127289,-0.001272509,0.001272223,-0.00138813,0.001388901,-0.001388652,0.001388291,7.39E-06,-6.30E-06,-0.001040357,0.001041439,1.97E-07,9.05E-07,-0.001074033,0.001079419,-0.001073746,0.001079653,-0.001078578,0.001074862,-0.001078359,0.001075075,-0.001125178,0.001113015,-0.001111654,0.001126457,0.729609794,1473840,32975,0.005780966,0.005780995,0.004328692,41.16502866,0.00024452,0.00024452,0.00024452,2208127.402,0.016017694
8294400,0.921619175,0.015530537,0.00547385,0.005473876,0.004582811,-0.001400075,0.001399862,-6.96E-06,6.73E-06,-3.30E-07,1.75E-07,-0.001456244,0.00145132,-0.001451712,0.001455829,-0.001456137,0.001451461,-0.001451527,0.001456055,-0.001285781,0.00127217,-0.001272257,0.001285686,4.69E-07,-3.25E-08,5.93E-07,-6.67E-08,-0.001399736,0.001400215,-0.001453384,0.001454235,-0.001453566,0.001454008,-0.001453492,0.001454043,-0.001453749,0.001453801,-0.001278427,0.001279445,-0.001279121,0.001278827,-0.001396571,0.001397302,-0.001397093,0.001396693,7.40E-06,-6.32E-06,-0.001043286,0.001044351,2.13E-07,8.72E-07,-0.001077625,0.001083021,-0.001077354,0.001083239,-0.001082181,0.001078452,-0.001081979,0.001078649,-0.001129322,0.00111709,-0.001115764,0.001130567,0.728845013,1473840,32975,0.005816007,0.005816036,0.00434084,41.27310893,0.000245385,0.000245385,0.000245385,2198434.212,0.016101249
8380800,0.926866574,0.015612622,0.005503699,0.005503725,0.004605198,-0.001408112,0.001407902,-6.98E-06,6.75E-06,-3.43E-07,1.91E-07,-0.001465058,0.001460117,-0.001460515,0.001464637,-0.001464942,0.001460267,-0.00146032,0.001464873,-0.001292064,0.001278433,-0.001278507,0.001291982,5.14E-07,-1.67E-08,6.34E-07,-4.58E-08,-0.001407745,0.001408284,-0.001462151,0.001463078,-0.00146234,0.001462845,-0.001462268,0.001462878,-0.001462532,0.001462629,-0.001284664,0.001285753,-0.001285377,0.001285116,-0.00140456,0.001405374,-0.001405111,0.001404736,7.42E-06,-6.33E-06,-0.001045918,0.001046997,2.10E-07,8.89E-07,-0.001080922,0.001086337,-0.001080645,0.001086562,-0.00108549,0.001081757,-0.001085281,0.00108196,-0.001133131,0.001120886,-0.001119539,0.001134397,0.728227489,1473840,32975,0.005849298,0.005849328,0.004351821,41.38143922,0.000246252,0.000246252,0.000246252,2187382.179,0.016180069
8467200,0.931806195,0.015689846,0.005531773,0.005531799,0.004626274,-0.001415729,0.001415508,-7.04E-06,6.80E-06,-3.51E-07,1.88E-07,-0.001473422,0.001468428,-0.001468839,0.001472988,-0.001473304,0.00146858,-0.001468643,0.001473226,-0.001298049,0.00128429,-0.001284374,0.001297957,5.03E-07,-3.29E-08,5.98E-07,-3.78E-08,-0.00141537,0.001415882,-0.001470508,0.001471396,-0.001470683,0.001471177,-0.001470627,0.001471194,-0.001470876,0.001470959,-0.00129062,0.001291638,-0.001291292,0.001291044,-0.001412184,0.00141299,-0.00141274,0.001412347,7.47E-06,-6.41E-06,-0.001048306,0.00104936,2.19E-07,8.55E-07,-0.001083931,0.001089376,-0.001083669,0.001089587,-0.00108854,0.001084756,-0.001088345,0.001084945,-0.001136718,0.001124316,-0.001123008,0.001137945,0.727655869,1473840,32975,0.00588082,0.005880849,0.004361708,41.48979502,0.000247118,0.000247118,0.000247118,2175722.705,0.016254185
8553600,0.936452093,0.015762439,0.005558155,0.005558182,0.004646102,-0.001422915,0.001422712,-7.06E-06,6.84E-06,-3.49E-07,2.04E-07,-0.001481308,0.001476314,-0.001476711,0.001480889,-0.001481186,0.00147647,-0.00147651,0.001481131,-0.001303633,0.001289854,-0.001289915,0.001303564,5.07E-07,-4.29E-08,5.24E-07,3.02E-08,-0.001422568,0.001423074,-0.001478418,0.001479258,-0.001478547,0.001479086,-0.001478542,0.00147905,-0.001478745,0.001478864,-0.001296269,0.001297137,-0.001296802,0.001296682,-0.001419372,0.001420233,-0.001419941,0.001419576,7.47E-06,-6.45E-06,-0.001050459,0.001051468,2.67E-07,7.61E-07,-0.00108668,0.001092141,-0.001086464,0.001092305,-0.001091303,0.001087506,-0.001091155,0.001087648,-0.001140018,0.00112748,-0.001126265,0.001141152,0.727125448,1473840,32975,0.005910614,0.005910644,0.004370579,41.59815347,0.000247985,0.000247985,0.000247985,2163771.131,0.016323764
8640000,0.940818072,0.015830625,0.005582928,0.005582955,0.004664742,-0.001429717,0.001429503,-7.10E-06,6.87E-06,-3.42E-07,1.86E-07,-0.001488777,0.001483753,-0.001484153,0.001488354,-0.001488663,0.001483901,-0.00148396,0.001488588,-0.001308926,0.001295049,-0.00129513,0.001308838,4.99E-07,-2.53E-08,5.33E-07,3.01E-08,-0.00142936,0.001429874,-0.00148587,0.001486713,-0.001486002,0.001486539,-0.001485986,0.001486515,-0.001486191,0.001486325,-0.0013015,0.001302394,-0.001302041,0.001301931,-0.001426209,0.00142705,-0.001426753,0.00142642,7.51E-06,-6.49E-06,-0.001052367,0.001053371,2.60E-07,7.63E-07,-0.001089179,0.00109466,-0.001088961,0.001094827,-0.001093829,0.001089998,-0.001093678,0.001090143,-0.001143033,0.001130414,-0.0011292,0.001144165,0.726632639,1473840,32975,0.005938758,0.005938787,0.004378516,41.70651221,0.000248852,0.000248852,0.000248852,2151626.083,0.016389042
8726400,0.94491765,0.015894623,0.005606172,0.005606198,0.004682252,-0.00143613,0.001435923,-7.14E-06,6.91E-06,-3.47E-07,1.99E-07,-0.001495829,0.001490782,-0.00149118,0.001495408,-0.001495709,0.001490936,-0.001490981,0.001495648,-0.001313887,0.00129995,-0.001300017,0.001313812,5.04E-07,-3.82E-08,4.96E-07,5.95E-08,-0.00143578,0.001436287,-0.001492923,0.001493742,-0.001493032,0.00149359,-0.001493044,0.001493537,-0.001493228,0.00149337,-0.00130647,0.001307286,-0.001306947,0.001306888,-0.001432649,0.001433524,-0.001433211,0.001432874,7.53E-06,-6.54E-06,-0.001054076,0.001055061,2.83E-07,7.20E-07,-0.001091445,0.001096953,-0.001091249,0.001097098,-0.00109612,0.001092266,-0.001095991,0.001092389,-0.001145824,0.00113309,-0.001131918,0.001146915,0.726174628,1473840,32975,0.005965326,0.005965356,0.004385594,41.81487099,0.000249719,0.000249719,0.000249719,2139374.71,0.016450248
8812800,0.948764016,0.015954132,0.005627794,0.00562782,0.004698518,-0.001442141,0.00144195,-7.16E-06,6.95E-06,-3.62E-07,2.33E-07,-0.001502452,0.001497383,-0.001497783,0.00150203,-0.001502317,0.001497554,-0.001497566,0.001502288,-0.001318544,0.001304574,-0.001304607,0.001318502,5.80E-07,-1.19E-08,5.59E-07,1.02E-07,-0.001441747,0.001442358,-0.001499472,0.001500417,-0.001499587,0.001500259,-0.001499609,0.001500198,-0.001499802,0.001500022,-0.001311053,0.001311979,-0.001311555,0.00131156,-0.001438612,0.001439632,-0.001439224,0.001438925,7.58E-06,-6.56E-06,-0.001055514,0.001056516,2.81E-07,7.39E-07,-0.001093489,0.001099028,-0.001093285,0.001099181,-0.001098186,0.00109432,-0.001098049,0.001094452,-0.001148207,0.001135434,-0.001134233,0.001149324,0.719619289,1473840,32975,0.00599025,0.00599028,0.004391624,41.92322966,0.000250586,0.000250586,0.000250586,2127801.173,0.016507049
8899200,0.952350592,0.016009415,0.005647879,0.005647905,0.004713631,-0.001447029,0.001446768,-7.19E-06,6.91E-06,-3.80E-07,1.78E-07,-0.001508256,0.00150313,-0.001503588,0.001507776,-0.001508132,0.001503289,-0.001503385,0.001508019,-0.001321704,0.00130766,-0.001307778,0.001321578,5.10E-07,-4.49E-08,5.02E-07,5.31E-08,-0.001446652,0.001447159,-0.001505306,0.001506134,-0.00150542,0.001505977,-0.001505432,0.001505925,-0.001505619,0.001505753,-0.001314229,0.001315052,-0.001314718,0.001314642,-0.001443266,0.001444149,-0.001443841,0.001443487,7.56E-06,-6.57E-06,-0.001056559,0.001057542,2.76E-07,7.26E-07,-0.001094813,0.001100335,-0.001094613,0.001100484,-0.001099507,0.001095629,-0.001099375,0.001095756,-0.001150172,0.001137386,-0.00113621,0.001151266,0.716806181,1473840,32975,0.006010345,0.006010374,0.004395944,41.92566026,0.000250605,0.000250605,0.000250605,2127517.051,0.016552296
8985600,0.955672708,0.016060694,0.005666497,0.005666523,0.004727674,-0.001451583,0.00145139,-7.14E-06,6.93E-06,-3.63E-07,2.29E-07,-0.001513475,0.001508419,-0.001508818,0.001513053,-0.001513339,0.001508588,-0.001508605,0.001513308,-0.001324841,0.001310909,-0.001310948,0.001324794,5.19E-07,-6.89E-08,5.09E-07,3.18E-08,-0.001451248,0.00145174,-0.001510558,0.00151139,-0.00151068,0.001511225,-0.001510694,0.001511171,-0.001510891,0.00151099,-0.001317421,0.001318246,-0.001317938,0.001317809,-0.001447769,0.00144866,-0.001448376,0.001447965,7.55E-06,-6.55E-06,-0.001057259,0.001058257,2.70E-07,7.47E-07,-0.001095947,0.001101463,-0.001095738,0.001101621,-0.00110063,0.001096768,-0.001100488,0.001096905,-0.001151712,0.001138981,-0.001137781,0.001152828,0.717841386,1473840,32975,0.006029342,0.006029372,0.004398903,41.80424852,0.000249634,0.000249634,0.000249634,2119346.914,0.016593933
9072000,0.958749069,0.016108118,0.00568371,0.005683736,0.004740672,-0.001456154,0.001455984,-7.13E-06,6.94E-06,-3.77E-07,2.66E-07,-0.001518462,0.001513414,-0.001513808,0.001518046,-0.00151831,0.001513601,-0.001513578,0.001518317,-0.00132827,0.001314388,-0.001314387,0.001328264,5.31E-07,-1.08E-07,5.19E-07,-6.04E-09,-0.001455844,0.001456309,-0.001515546,0.001516385,-0.001515685,0.001516203,-0.001515699,0.001516148,-0.001515912,0.001515951,-0.001320875,0.001321702,-0.001321438,0.001321217,-0.001452469,0.001453366,-0.001453126,0.001452621,7.56E-06,-6.53E-06,-0.001057845,0.001058862,2.56E-07,7.81E-07,-0.001097087,0.001102604,-0.001096862,0.001102778,-0.001101767,0.001097912,-0.001101609,0.001098065,-0.00115314,0.001140455,-0.00113922,0.001154293,0.716838421,1473840,32975,0.006048313,0.006048342,0.004401401,41.67508679,0.000248601,0.000248601,0.000248601,2103578.925,0.016635047
9158400,0.96159829,0.016151972,0.005699622,0.005699649,0.004752701,-0.001460209,0.001460006,-7.13E-06,6.90E-06,-3.54E-07,2.09E-07,-0.001523,0.001517956,-0.001518357,0.001522576,-0.001522874,0.001518116,-0.001518152,0.001522822,-0.001331155,0.001317246,-0.001317304,0.00133109,5.05E-07,-5.45E-08,4.70E-07,7.10E-08,-0.001459868,0.001460361,-0.001520106,0.001520903,-0.001520203,0.001520764,-0.001520233,0.001520693,-0.001520404,0.001520538,-0.001323781,0.001324539,-0.001324221,0.001324178,-0.001456524,0.001457414,-0.001457104,0.001456748,7.51E-06,-6.54E-06,-0.001058301,0.001059263,2.91E-07,6.90E-07,-0.001097963,0.001103456,-0.00109778,0.001103588,-0.001102633,0.001098775,-0.001102517,0.001098885,-0.001154393,0.001141641,-0.001140504,0.001155448,0.715540366,1473840,32975,0.006065031,0.00606506,0.004403204,41.54518585,0.000247561,0.000247561,0.000247561,2092461.632,0.016670875
9244800,0.964237692,0.016192529,0.005714335,0.005714361,0.004763833,-0.001463903,0.001463706,-7.14E-06,6.92E-06,-3.49E-07,2.10E-07,-0.001527188,0.001522143,-0.001522536,0.001526773,-0.001527064,0.001522302,-0.001522333,0.001527017,-0.001333746,0.001319813,-0.001319866,0.001333686,5.07E-07,-4.89E-08,4.77E-07,7.03E-08,-0.001463562,0.001464062,-0.00152429,0.001525095,-0.001524389,0.001524953,-0.001524416,0.001524887,-0.001524589,0.001524729,-0.001326352,0.001327126,-0.0013268,0.001326757,-0.001460222,0.001461111,-0.001460797,0.001460449,7.53E-06,-6.56E-06,-0.001058608,0.001059568,2.86E-07,6.93E-07,-0.001098664,0.001104163,-0.001098479,0.001104297,-0.001103344,0.001099472,-0.001103225,0.001099585,-0.00115546,0.001142681,-0.001141543,0.001156516,0.714249667,1473840,32975,0.006080338,0.006080367,0.004404497,41.41520942,0.000246522,0.000246522,0.000246522,2082274.237,0.016703317
9331200,0.966683292,0.016230045,0.00572794,0.005727966,0.004774139,-0.001467307,0.001467122,-7.13E-06,6.93E-06,-3.63E-07,2.37E-07,-0.001531065,0.001526015,-0.00152641,0.001530648,-0.001530927,0.001526188,-0.001526193,0.001530905,-0.001336089,0.001322175,-0.001322202,0.001336054,5.20E-07,-7.75E-08,4.83E-07,4.85E-08,-0.00146698,0.001467464,-0.00152816,0.001528974,-0.001528269,0.001528822,-0.001528299,0.001528751,-0.001528483,0.001528584,-0.001328705,0.001329477,-0.001329181,0.001329081,-0.001463625,0.00146453,-0.00146424,0.001463827,7.54E-06,-6.56E-06,-0.001058805,0.001059777,2.77E-07,7.13E-07,-0.001099239,0.001104741,-0.001099044,0.001104885,-0.00110392,0.001100048,-0.001103792,0.001100171,-0.001156364,0.001143599,-0.001142441,0.001157441,0.712965982,1473840,32975,0.006094455,0.006094484,0.004405361,41.28522515,0.000245482,0.000245482,0.000245482,2072409.38,0.016732902
9417600,0.968949889,0.016264758,0.005740525,0.005740551,0.004783682,-0.001470455,0.001470262,-7.14E-06,6.93E-06,-3.56E-07,2.21E-07,-0.001534648,0.001529598,-0.001529992,0.001534231,-0.001534518,0.001529762,-0.001529784,0.001534481,-0.001338242,0.001324309,-0.001324352,0.001338191,5.12E-07,-6.06E-08,4.91E-07,4.99E-08,-0.001470119,0.001470612,-0.001531741,0.001532558,-0.001531852,0.001532405,-0.001531873,0.001532344,-0.001532058,0.001532175,-0.001330837,0.001331633,-0.001331319,0.00133123,-0.001466778,0.001467667,-0.001467371,0.001466989,7.54E-06,-6.56E-06,-0.001058917,0.00105989,2.75E-07,7.17E-07,-0.001099701,0.001105204,-0.001099504,0.001105351,-0.001104384,0.00110051,-0.001104254,0.001100635,-0.001157148,0.001144383,-0.001143221,0.001158229,0.711688896,1473840,32975,0.006107469,0.006107499,0.004405847,41.15524006,0.000244442,0.000244442,0.000244442,2062877.333,0.016759864
9504000,0.971051141,0.016296884,0.005752169,0.005752196,0.004792519,-0.001473361,0.001473151,-7.14E-06,6.91E-06,-3.42E-07,1.90E-07,-0.001537959,0.001532914,-0.001533311,0.00153754,-0.001537843,0.001533063,-0.001533117,0.001537775,-0.001340198,0.001326256,-0.001326331,0.001340116,4.99E-07,-2.96E-08,5.04E-07,5.49E-08,-0.001473008,0.001473519,-0.001535052,0.001535874,-0.001535166,0.001535718,-0.001535169,0.001535674,-0.001535357,0.001535503,-0.001332769,0.001333604,-0.001333258,0.001333194,-0.001469693,0.001470553,-0.001470242,0.001469918,7.53E-06,-6.55E-06,-0.001058949,0.001059923,2.72E-07,7.21E-07,-0.001100067,0.001105562,-0.001099867,0.00110571,-0.001104742,0.001100875,-0.00110461,0.001101002,-0.001157804,0.001145066,-0.0011439,0.001158889,0.710417967,1473840,32975,0.006119465,0.006119494,0.004406003,41.02525487,0.000243402,0.000243402,0.000243402,2053684.731,0.016784417
9590400,0.972999655,0.016326626,0.005762947,0.005762973,0.004800707,-0.001476029,0.001475824,-7.13E-06,6.91E-06,-3.44E-07,1.97E-07,-0.00154102,0.00153598,-0.001536374,0.001540603,-0.001540902,0.001536132,-0.001536177,0.001540841,-0.001341966,0.001328038,-0.001328105,0.001341891,5.02E-07,-3.62E-08,4.71E-07,8.39E-08,-0.00147568,0.001476187,-0.001538126,0.001538927,-0.001538219,0.001538791,-0.001538246,0.001538724,-0.001538414,0.001538573,-0.001334578,0.001335345,-0.001335006,0.001334996,-0.001472353,0.001473239,-0.001472911,0.001472595,7.51E-06,-6.55E-06,-0.001058924,0.001059875,2.92E-07,6.79E-07,-0.001100341,0.001105831,-0.001100162,0.001105959,-0.001105013,0.001101146,-0.001104902,0.001101253,-0.001158389,0.001145615,-0.001144491,0.001159431,0.709152764,1473840,32975,0.006130517,0.006130546,0.004405869,40.89526968,0.000242362,0.000242362,0.000242362,2044834.024,0.016806758
9676800,0.974799542,0.016354054,0.005772883,0.005772909,0.004808262,-0.001478315,0.00147811,-7.12E-06,6.90E-06,-3.55E-07,2.09E-07,-0.00154368,0.001538637,-0.001539039,0.001543255,-0.001543554,0.001538797,-0.001538834,0.001543501,-0.001343401,0.001329497,-0.001329555,0.001343335,5.08E-07,-5.29E-08,4.71E-07,7.38E-08,-0.001477971,0.001478468,-0.001540784,0.001541586,-0.001540881,0.001541447,-0.001540912,0.001541375,-0.001541082,0.001541221,-0.001336028,0.001336789,-0.001336467,0.001336429,-0.001474634,0.00147553,-0.001475215,0.001474863,7.51E-06,-6.54E-06,-0.001058687,0.001059641,2.88E-07,6.85E-07,-0.001100395,0.001105879,-0.001100212,0.001106011,-0.001105063,0.001101199,-0.001104947,0.00110131,-0.001158705,0.001145951,-0.001144822,0.001159753,0.707896582,1473840,32975,0.00613998,0.006140009,0.004404912,40.68408916,0.000240673,0.000240673,0.000240673,2036086.889,0.016825031
9763200,0.976455639,0.016379313,0.005782029,0.005782055,0.004815228,-0.001480225,0.001480006,-7.13E-06,6.89E-06,-3.51E-07,1.89E-07,-0.001545931,0.001540884,-0.001541293,0.0015455,-0.001545813,0.001541036,-0.001541097,0.001545738,-0.001344534,0.001330614,-0.001330696,0.001344445,5.03E-07,-3.37E-08,4.89E-07,6.95E-08,-0.001479867,0.001480378,-0.001543027,0.001543842,-0.001543131,0.001543696,-0.001543146,0.00154364,-0.001543325,0.001543478,-0.001337131,0.001337935,-0.001337592,0.001337553,-0.001476547,0.001477426,-0.001477104,0.001476783,7.51E-06,-6.54E-06,-0.001058252,0.001059215,2.81E-07,7.00E-07,-0.001100226,0.001105708,-0.001100036,0.001105847,-0.001104891,0.001101031,-0.001104768,0.001101149,-0.001158786,0.001146055,-0.00114491,0.001159849,0.708396187,1473840,32975,0.006147856,0.006147885,0.004403141,40.38545895,0.000238284,0.000238284,0.000238284,2027364.597,0.016839248
9849600,0.977980353,0.016402587,0.005790453,0.005790479,0.004821655,-0.001482087,0.001481895,-7.11E-06,6.90E-06,-3.52E-07,2.18E-07,-0.001548012,0.001542986,-0.001543378,0.001547598,-0.001547884,0.001543148,-0.001543171,0.001547846,-0.001345754,0.001331884,-0.001331928,0.001345702,5.20E-07,-4.69E-08,4.99E-07,6.36E-08,-0.001481741,0.001482255,-0.001545109,0.001545943,-0.001545218,0.001545791,-0.001545238,0.00154573,-0.001545422,0.001545563,-0.001338372,0.001339185,-0.001338847,0.001338788,-0.001478509,0.001479416,-0.001479096,0.001478743,7.50E-06,-6.53E-06,-0.001057799,0.001058764,2.74E-07,7.10E-07,-0.001100091,0.001105567,-0.001099896,0.001105711,-0.001104752,0.001100894,-0.001104624,0.001101017,-0.001158831,0.001146121,-0.001144968,0.001159903,0.708887425,1473840,32975,0.006155619,0.006155648,0.004401284,40.08136017,0.000235851,0.000235851,0.000235851,2015634.902,0.016853149
9936000,0.979385341,0.016424045,0.005798216,0.005798242,0.004827586,-0.001483767,0.001483588,-7.09E-06,6.89E-06,-3.50E-07,2.29E-07,-0.001549892,0.001544882,-0.001545264,0.001549488,-0.001549761,0.001545047,-0.001545054,0.001549739,-0.001346834,0.001332998,-0.001333026,0.001346799,5.14E-07,-6.17E-08,5.00E-07,4.19E-08,-0.001483437,0.001483932,-0.001547002,0.001547826,-0.001547118,0.001547667,-0.001547134,0.001547611,-0.001547325,0.001547436,-0.001339469,0.001340282,-0.001339968,0.001339862,-0.001480301,0.001481189,-0.001480897,0.001480507,7.48E-06,-6.53E-06,-0.001057319,0.001058256,2.49E-07,7.07E-07,-0.001099909,0.001105343,-0.001099706,0.001105495,-0.001104564,0.001100676,-0.001104429,0.001100807,-0.001158817,0.001146103,-0.001144971,0.001159867,0.709143856,1473840,32975,0.006162599,0.006162628,0.00439925,39.7767414,0.000233414,0.000233414,0.000233414,2004489.754,0.016865279
10022400,0.980681174,0.016443848,0.005805378,0.005805405,0.004833066,-0.001485266,0.001485076,-7.09E-06,6.88E-06,-3.57E-07,2.24E-07,-0.001551592,0.001546572,-0.001546966,0.001551176,-0.00155146,0.001546738,-0.001546756,0.001551427,-0.001347768,0.001333926,-0.001333965,0.001347721,5.19E-07,-5.89E-08,4.99E-07,5.05E-08,-0.001484927,0.001485429,-0.001548694,0.001549523,-0.001548807,0.001549367,-0.001548827,0.001549307,-0.001549015,0.001549136,-0.001340402,0.001341211,-0.00134089,0.001340801,-0.001481868,0.001482768,-0.001482466,0.001482085,7.49E-06,-6.51E-06,-0.001056769,0.001057739,2.70E-07,7.19E-07,-0.001099621,0.001105089,-0.001099421,0.001105238,-0.001104274,0.001100424,-0.001104142,0.001100552,-0.001158712,0.001146034,-0.001144872,0.001159793,0.709471603,1473840,32975,0.00616878,0.006168809,0.004397052,39.47206971,0.000230977,0.000230977,0.000230977,1994283.447,0.016875616
10108800,0.981877411,0.016462143,0.005811992,0.005812018,0.004838133,-0.001486608,0.001486428,-7.09E-06,6.89E-06,-3.57E-07,2.36E-07,-0.001553117,0.001548106,-0.001548493,0.001552708,-0.001552982,0.001548276,-0.001548279,0.001552963,-0.001348582,0.001334761,-0.001334786,0.00134855,5.17E-07,-7.29E-08,4.90E-07,4.28E-08,-0.001486282,0.001486768,-0.00155023,0.001551047,-0.001550343,0.001550891,-0.001550367,0.001550827,-0.001550555,0.001550656,-0.001341237,0.001342025,-0.001341725,0.001341616,-0.001483299,0.001484194,-0.001483908,0.001483499,7.49E-06,-6.51E-06,-0.001056209,0.001057175,2.68E-07,7.16E-07,-0.001099311,0.001104773,-0.001099111,0.001104922,-0.001103962,0.00110011,-0.00110383,0.001100237,-0.001158571,0.001145894,-0.001144737,0.001159647,0.709865255,1473840,32975,0.006174354,0.006174383,0.004394737,39.16739253,0.000228539,0.000228539,0.000228539,1984392.36,0.016884599
10195200,0.9829827,0.01647906,0.005818105,0.005818132,0.004842823,-0.001487807,0.001487588,-7.10E-06,6.86E-06,-3.79E-07,2.22E-07,-0.001554441,0.001549392,-0.001549821,0.001553984,-0.001554305,0.001549565,-0.001549601,0.001554245,-0.001349462,0.001335612,-0.001335666,0.001349387,5.18E-07,-7.68E-08,5.03E-07,2.68E-08,-0.001487462,0.001487945,-0.001551528,0.001552355,-0.001551649,0.001552188,-0.001551663,0.001552134,-0.001551858,0.001551944,-0.001342084,0.001342898,-0.001342599,0.001342455,-0.001484536,0.001485424,-0.001485144,0.001484719,7.48E-06,-6.50E-06,-0.001055673,0.001056646,2.55E-07,7.33E-07,-0.001099069,0.001104521,-0.001098863,0.001104681,-0.001103714,0.001099867,-0.00110357,0.001100012,-0.001158283,0.001145649,-0.001144471,0.001159377,0.710320175,1473840,32975,0.006179235,0.006179259,0.004392539,38.86271485,0.000226102,0.000226102,0.000226102,1973815.728,0.016892287
10281600,0.984004871,0.016494718,0.005823762,0.005823788,0.004847169,-0.001488917,0.001488723,-7.08E-06,6.86E-06,-3.66E-07,2.31E-07,-0.001555739,0.001550724,-0.001551126,0.001555315,-0.001555602,0.001550895,-0.00155091,0.001555572,-0.001349941,0.001336139,-0.001336175,0.001349897,5.18E-07,-7.60E-08,5.06E-07,2.56E-08,-0.001488585,0.001489069,-0.001552845,0.001553672,-0.001552969,0.001553505,-0.001552983,0.00155345,-0.001553181,0.001553268,-0.001342591,0.001343408,-0.00134311,0.001342967,-0.001485769,0.001486656,-0.001486382,0.001485957,7.48E-06,-6.49E-06,-0.001055011,0.001055988,2.58E-07,7.38E-07,-0.001098582,0.001104034,-0.001098372,0.001104194,-0.001103223,0.001099382,-0.00110308,0.00109952,-0.001158123,0.0011455,-0.00114432,0.001159222,0.710832343,1473840,32975,0.006183881,0.00618391,0.004389816,38.55803696,0.000223664,0.000223664,0.000223664,1965516.261,0.016898973
10368000,0.984951015,0.016509226,0.005829,0.005829027,0.004851198,-0.001489901,0.001489693,-7.08E-06,6.85E-06,-3.66E-07,2.17E-07,-0.001556857,0.001551833,-0.001552245,0.001556423,-0.001556725,0.001552,-0.001552034,0.001556675,-0.001350507,0.00133669,-0.001336746,0.001350444,5.13E-07,-6.62E-08,5.16E-07,2.04E-08,-0.001489559,0.001490048,-0.001553956,0.001554789,-0.001554085,0.001554617,-0.001554089,0.001554572,-0.001554292,0.001554385,-0.001343137,0.001343979,-0.001343672,0.001343522,-0.001486835,0.001487708,-0.001487435,0.001487023,7.48E-06,-6.49E-06,-0.001054385,0.001055366,2.52E-07,7.48E-07,-0.00109817,0.00110362,-0.001097955,0.001103784,-0.00110281,0.001098969,-0.001102662,0.001099112,-0.001157846,0.001145235,-0.001144046,0.001158953,0.711398238,1473840,32975,0.006187922,0.006187951,0.004387237,38.25335911,0.000221227,0.000221227,0.000221227,1956505.768,0.016904571
10454400,0.98583387,0.016522776,0.005833892,0.005833918,0.004854966,-0.00149104,0.001490862,-7.06E-06,6.87E-06,-3.55E-07,2.36E-07,-0.001558121,0.001553128,-0.001553512,0.001557715,-0.001557986,0.001553297,-0.001553298,0.001557969,-0.001351241,0.001337465,-0.001337488,0.001351211,5.16E-07,-7.10E-08,4.96E-07,3.89E-08,-0.001490715,0.001491202,-0.001555241,0.001556061,-0.001555357,0.001555903,-0.001555377,0.001555842,-0.001555567,0.001555668,-0.001343913,0.001344712,-0.001344409,0.001344294,-0.001488068,0.00148896,-0.001488675,0.001488267,7.47E-06,-6.49E-06,-0.001053978,0.001054946,2.65E-07,7.22E-07,-0.001097963,0.001103409,-0.001097761,0.001103561,-0.001102599,0.001098761,-0.001102464,0.001098892,-0.001157792,0.001145164,-0.001144001,0.001158874,0.712012737,1473840,32975,0.006192699,0.006192728,0.004385536,38.08496592,0.00021988,0.00021988,0.00021988,1948175.682,0.016912557
10540800,0.986663942,0.016535465,0.005838472,0.005838499,0.004858494,-0.001492387,0.001492194,-7.07E-06,6.86E-06,-3.55E-07,2.21E-07,-0.001559583,0.001554582,-0.001554976,0.001559167,-0.001559453,0.001554746,-0.001554768,0.001559417,-0.0013522,0.001338409,-0.001338453,0.00135215,5.52E-07,-1.97E-08,5.46E-07,7.70E-08,-0.00149201,0.001492585,-0.001556656,0.001557563,-0.001556776,0.0015574,-0.001556787,0.001557349,-0.001556982,0.001557171,-0.001344812,0.001345717,-0.001345321,0.001345287,-0.00148946,0.001490421,-0.001490053,0.001489742,7.46E-06,-6.49E-06,-0.001053777,0.001054734,2.54E-07,7.23E-07,-0.00109797,0.0011034,-0.001097764,0.001103556,-0.001102605,0.001098754,-0.001102466,0.001098888,-0.001157928,0.001145298,-0.001144141,0.001159002,0.70913079,1473840,32975,0.006198243,0.006198272,0.004384691,38.05179732,0.000219614,0.000219614,0.000219614,1940563.193,0.016922974
10627200,0.987444765,0.016547384,0.005842775,0.005842801,0.004861808,-0.001493349,0.001493143,-7.07E-06,6.85E-06,-3.44E-07,1.96E-07,-0.001560853,0.001555852,-0.001556247,0.001560436,-0.001560735,0.001556004,-0.00155605,0.001560673,-0.001352611,0.001338799,-0.001338867,0.001352536,5.00E-07,-3.69E-08,4.15E-07,1.37E-07,-0.001493001,0.001493506,-0.001557998,0.00155876,-0.001558055,0.001558661,-0.001558117,0.001558557,-0.001558249,0.001558443,-0.001345335,0.001345994,-0.001345657,0.001345751,-0.001490346,0.001491266,-0.001490904,0.001490623,7.43E-06,-6.52E-06,-0.001053528,0.001054433,3.22E-07,6.01E-07,-0.001097743,0.001103183,-0.0010976,0.001103276,-0.001102376,0.001098538,-0.001102301,0.001098609,-0.001158019,0.001145277,-0.001144236,0.001158978,0.7080556,1473840,32975,0.006202199,0.006202228,0.004383557,38.02704246,0.000219416,0.000219416,0.000219416,1938920.496,0.016929867
10713600,0.988179305,0.016558573,0.005846813,0.005846839,0.004864921,-0.00149441,0.001494211,-7.06E-06,6.85E-06,-3.43E-07,2.01E-07,-0.001562112,0.001557119,-0.001557509,0.0015617,-0.001561993,0.001557272,-0.001557311,0.001561939,-0.001353228,0.001339432,-0.001339492,0.001353161,5.02E-07,-3.88E-08,4.27E-07,1.25E-07,-0.001494066,0.00149457,-0.001559257,0.001560028,-0.001559322,0.001559921,-0.001559377,0.001559824,-0.001559517,0.001559701,-0.001345949,0.00134663,-0.001346295,0.001346364,-0.001491417,0.001492332,-0.001491978,0.001491685,7.43E-06,-6.51E-06,-0.001053281,0.001054195,3.14E-07,6.17E-07,-0.001097625,0.001103063,-0.001097475,0.001103163,-0.001102256,0.00109842,-0.001102172,0.001098499,-0.001158072,0.001145355,-0.001144299,0.001159048,0.706576824,1473840,32975,0.006206604,0.006206633,0.004382562,38.00308269,0.000219225,0.000219225,0.000219225,1934378.861,0.016937814
10800000,0.988870321,0.016569077,0.005850604,0.00585063,0.004867843,-0.001495374,0.00149517,-7.07E-06,6.85E-06,-3.48E-07,2.02E-07,-0.001563292,0.00155829,-0.001558687,0.001562873,-0.00156317,0.001558445,-0.001558487,0.001563114,-0.001353752,0.001339948,-0.001340011,0.001353681,5.03E-07,-4.36E-08,4.30E-07,1.18E-07,-0.001495028,0.001495529,-0.001560431,0.001561204,-0.001560499,0.001561094,-0.001560554,0.001560998,-0.001560696,0.001560873,-0.001346466,0.001347151,-0.001346822,0.001346876,-0.001492361,0.001493276,-0.001492929,0.001492623,7.44E-06,-6.51E-06,-0.001053021,0.00105394,3.12E-07,6.25E-07,-0.001097464,0.001102906,-0.001097311,0.00110301,-0.001102097,0.001098262,-0.00110201,0.001098344,-0.001158106,0.001145393,-0.001144327,0.00115909,0.705032469,1473840,32975,0.006210582,0.006210611,0.004381501,37.97920334,0.000219034,0.000219034,0.000219034,1930660.912,0.016944827
10886400,0.989520406,0.016578936,0.005854162,0.005854188,0.004870586,-0.00149627,0.001496063,-7.07E-06,6.84E-06,-3.48E-07,1.98E-07,-0.001564397,0.001559394,-0.001559793,0.001563975,-0.001564276,0.001559548,-0.001559595,0.001564215,-0.001354218,0.001340414,-0.001340482,0.001354143,5.00E-07,-4.34E-08,4.26E-07,1.19E-07,-0.001495925,0.001496422,-0.001561539,0.001562305,-0.001561606,0.001562197,-0.00156166,0.001562101,-0.001561801,0.001561977,-0.001346936,0.001347615,-0.001347287,0.001347343,-0.001493239,0.001494148,-0.001493803,0.001493499,7.43E-06,-6.51E-06,-0.001052758,0.001053672,3.12E-07,6.20E-07,-0.001097291,0.001102728,-0.001097139,0.00110283,-0.001101922,0.001098086,-0.001101836,0.001098166,-0.001158124,0.00114541,-0.00114435,0.001159102,0.703428886,1473840,32975,0.006214285,0.006214314,0.004380409,37.95533226,0.000218843,0.000218843,0.000218843,1927188.055,0.016951249
10972800,0.990132001,0.01658819,0.005857501,0.005857527,0.004873162,-0.001497099,0.001496898,-7.06E-06,6.84E-06,-3.43E-07,2.01E-07,-0.00156543,0.001560437,-0.001560828,0.001565016,-0.00156531,0.00156059,-0.00156063,0.001565255,-0.00135463,0.001340837,-0.001340899,0.001354561,5.01E-07,-3.89E-08,4.30E-07,1.22E-07,-0.001496754,0.001497258,-0.001562574,0.001563346,-0.001562641,0.001563237,-0.001562694,0.001563142,-0.001562836,0.001563018,-0.00134735,0.001348036,-0.001347701,0.001347764,-0.001494047,0.001494959,-0.001494608,0.001494313,7.43E-06,-6.51E-06,-0.001052487,0.0010534,3.12E-07,6.20E-07,-0.001097101,0.001102535,-0.001096948,0.001102638,-0.00110173,0.001097894,-0.001101644,0.001097975,-0.001158121,0.001145411,-0.001144352,0.001159099,0.701771335,1473840,32975,0.006217728,0.006217758,0.004379291,37.93146204,0.000218652,0.000218652,0.000218652,1923949.723,0.016957116
11059200,0.990707401,0.016596875,0.005860635,0.005860661,0.004875579,-0.001497874,0.001497669,-7.06E-06,6.84E-06,-3.47E-07,1.99E-07,-0.001566407,0.00156141,-0.001561806,0.001565988,-0.001566287,0.001561563,-0.001561608,0.001566227,-0.001355001,0.001341208,-0.001341274,0.001354927,5.02E-07,-3.93E-08,4.30E-07,1.22E-07,-0.001497526,0.001498031,-0.001563548,0.001564322,-0.001563615,0.001564212,-0.001563669,0.001564117,-0.001563811,0.001563993,-0.00134772,0.001348407,-0.001348072,0.001348135,-0.001494793,0.001495707,-0.001495356,0.00149506,7.43E-06,-6.50E-06,-0.001052209,0.001053124,3.12E-07,6.21E-07,-0.001096895,0.001102329,-0.001096742,0.001102432,-0.001101523,0.00109769,-0.001101437,0.001097771,-0.001158102,0.001145398,-0.001144337,0.001159081,0.700064215,1473840,32975,0.006220927,0.006220956,0.00437815,37.9075919,0.000218461,0.000218461,0.000218461,1920936.381,0.016962462
11145600,0.991248764,0.016605029,0.005863577,0.005863603,0.004877849,-0.001498599,0.001498379,-7.07E-06,6.83E-06,-3.50E-07,1.88E-07,-0.001567328,0.00156232,-0.001562729,0.001566897,-0.001567211,0.001562471,-0.001562533,0.001567134,-0.001355335,0.001341528,-0.001341611,0.001355245,4.99E-07,-3.58E-08,4.29E-07,1.23E-07,-0.001498244,0.001498748,-0.001564465,0.001565236,-0.001564532,0.001565127,-0.001564584,0.001565034,-0.001564725,0.00156491,-0.001348048,0.001348734,-0.001348397,0.001348464,-0.001495486,0.001496394,-0.001496042,0.001495754,7.43E-06,-6.50E-06,-0.001051929,0.001052842,3.12E-07,6.19E-07,-0.001096677,0.001102109,-0.001096525,0.001102211,-0.001101304,0.001097471,-0.001101219,0.001097551,-0.001158072,0.001145368,-0.00114431,0.001159048,0.698565877,1473840,32975,0.006223897,0.006223926,0.00437699,37.88372177,0.00021827,0.00021827,0.00021827,1918137.044,0.016967323
11232000,0.991757214,0.016612705,0.005866346,0.005866372,0.004879988,-0.001499227,0.001499001,-7.07E-06,6.82E-06,-3.52E-07,1.84E-07,-0.001568133,0.001563121,-0.001563535,0.001567697,-0.001568016,0.001563272,-0.00156334,0.001567933,-0.001355601,0.001341792,-0.001341882,0.001355504,5.02E-07,-3.07E-08,4.34E-07,1.26E-07,-0.001498864,0.001499377,-0.001565264,0.001566043,-0.001565331,0.001565934,-0.001565382,0.001565842,-0.001565524,0.001565718,-0.001348307,0.001349004,-0.001348658,0.001348733,-0.001496092,0.001497006,-0.001496646,0.001496368,7.42E-06,-6.50E-06,-0.001051597,0.001052509,3.11E-07,6.19E-07,-0.001096411,0.001101839,-0.001096258,0.001101942,-0.001101036,0.001097203,-0.00110095,0.001097283,-0.001157978,0.001145277,-0.00114422,0.001158953,0.700179458,1473840,32975,0.006226482,0.006226511,0.004375618,37.82600746,0.000217808,0.000217808,0.000217808,1914964.677,0.016971186
11318400,0.992234044,0.016619908,0.005868943,0.005868969,0.004881997,-0.001500048,0.001499835,-7.06E-06,6.83E-06,-3.48E-07,1.93E-07,-0.001568935,0.001563937,-0.00156434,0.00156851,-0.001568816,0.001564089,-0.001564142,0.001568748,-0.001356245,0.001342458,-0.001342533,0.001356163,5.01E-07,-3.75E-08,4.36E-07,1.16E-07,-0.001499697,0.001500201,-0.001566074,0.00156685,-0.001566145,0.001566738,-0.001566194,0.001566648,-0.001566339,0.001566519,-0.001348961,0.001349661,-0.001349324,0.001349377,-0.001497077,0.001497984,-0.001497636,0.00149734,7.42E-06,-6.50E-06,-0.001051269,0.001052186,3.07E-07,6.27E-07,-0.001096284,0.001101711,-0.001096128,0.001101817,-0.001100907,0.001097077,-0.001100817,0.001097162,-0.00115789,0.001145206,-0.00114414,0.001158874,0.700480215,1473840,32975,0.006229909,0.006229938,0.004374277,37.7373368,0.000217099,0.000217099,0.000217099,1906468.126,0.016976794
11404800,0.992681283,0.016626666,0.005871379,0.005871405,0.004883882,-0.00150068,0.00150047,-7.05E-06,6.82E-06,-3.47E-07,1.95E-07,-0.001569627,0.001564635,-0.001565035,0.001569206,-0.001569508,0.001564788,-0.001564838,0.001569444,-0.001356636,0.00134286,-0.001342931,0.001356557,5.00E-07,-3.81E-08,4.35E-07,1.16E-07,-0.00150033,0.001500834,-0.00156677,0.001567545,-0.001566841,0.001567433,-0.00156689,0.001567342,-0.001567036,0.001567214,-0.001349358,0.001350056,-0.001349721,0.001349773,-0.001497784,0.00149869,-0.001498343,0.001498046,7.42E-06,-6.49E-06,-0.001050906,0.001051822,3.07E-07,6.27E-07,-0.001096052,0.001101476,-0.001095896,0.001101582,-0.001100672,0.001096844,-0.001100583,0.001096929,-0.00115775,0.001145072,-0.001144007,0.001158734,0.700574357,1473840,32975,0.006232529,0.006232558,0.004372779,37.64673597,0.000216374,0.000216374,0.000216374,1900586.053,0.016980599
11491200,0.993100869,0.016633007,0.005873664,0.005873691,0.004885652,-0.001501237,0.001501009,-7.06E-06,6.81E-06,-3.55E-07,1.86E-07,-0.001570235,0.001565227,-0.001565644,0.001569794,-0.001570117,0.001565377,-0.001565444,0.001570031,-0.001357038,0.001343245,-0.001343337,0.00135694,5.16E-07,-2.03E-08,4.52E-07,1.32E-07,-0.001500862,0.001501399,-0.001567353,0.001568162,-0.001567425,0.001568049,-0.001567469,0.001567958,-0.001567617,0.001567828,-0.001349733,0.001350468,-0.001350102,0.001350182,-0.00149836,0.001499301,-0.001498918,0.001498654,7.43E-06,-6.48E-06,-0.001050545,0.001051492,3.21E-07,6.41E-07,-0.00109583,0.001101287,-0.001095676,0.001101392,-0.001100451,0.001096656,-0.00110036,0.001096741,-0.001157533,0.001144894,-0.001143799,0.001158546,0.700713485,1473840,32975,0.006234795,0.006234825,0.004371353,37.55595279,0.000215648,0.000215648,0.000215648,1894807.542,0.01698376
11577600,0.993494612,0.01663896,0.00587581,0.005875836,0.004887315,-0.001501772,0.001501562,-7.05E-06,6.82E-06,-3.46E-07,1.93E-07,-0.001570857,0.001565866,-0.001566266,0.001570436,-0.001570739,0.001566018,-0.00156607,0.001570673,-0.001357264,0.00134349,-0.001343563,0.001357183,5.00E-07,-3.59E-08,4.36E-07,1.16E-07,-0.001501421,0.001501926,-0.001568,0.001568776,-0.001568072,0.001568663,-0.001568119,0.001568574,-0.001568265,0.001568446,-0.001349986,0.001350686,-0.001350349,0.001350403,-0.001498995,0.0014999,-0.001499552,0.001499259,7.42E-06,-6.49E-06,-0.00105016,0.001051077,3.07E-07,6.27E-07,-0.001095531,0.001100954,-0.001095375,0.001101061,-0.001100151,0.001096324,-0.001100061,0.001096409,-0.001157423,0.001144749,-0.001143684,0.001158407,0.700894809,1473840,32975,0.006237046,0.006237075,0.004369699,37.46515112,0.000214921,0.000214921,0.000214921,1890066.146,0.016986656
11664000,0.993864198,0.01664455,0.005877823,0.00587785,0.004888877,-0.001502249,0.001502033,-7.05E-06,6.82E-06,-3.48E-07,1.91E-07,-0.001571375,0.001566382,-0.001566786,0.001570947,-0.00157126,0.001566534,-0.001566588,0.001571185,-0.001357604,0.001343829,-0.001343904,0.001357514,5.04E-07,-3.19E-08,4.44E-07,1.17E-07,-0.001501892,0.001502405,-0.001568512,0.001569299,-0.001568586,0.001569185,-0.001568628,0.001569096,-0.001568779,0.001568965,-0.001350313,0.00135103,-0.001350688,0.001350741,-0.001499512,0.001500422,-0.00150007,0.001499781,7.38E-06,-6.52E-06,-0.001049845,0.00105069,2.67E-07,5.95E-07,-0.001095349,0.001100694,-0.00109519,0.001100804,-0.001099966,0.001096068,-0.001099872,0.001096156,-0.001157236,0.001144507,-0.001143507,0.001158153,0.701115913,1473840,32975,0.006239008,0.006239039,0.004368248,37.37434761,0.000214195,0.000214195,0.000214195,1884551.155,0.016989173
11750400,0.994211197,0.016649801,0.005879715,0.005879741,0.004890345,-0.001502717,0.00150251,-7.05E-06,6.82E-06,-3.43E-07,1.93E-07,-0.001571918,0.001566935,-0.00156733,0.001571501,-0.001571801,0.001567085,-0.001567134,0.001571737,-0.001357789,0.001344026,-0.001344097,0.001357711,4.99E-07,-3.43E-08,4.39E-07,1.14E-07,-0.001502368,0.001502873,-0.001569065,0.001569842,-0.001569137,0.001569727,-0.001569183,0.00156964,-0.00156933,0.001569511,-0.001350514,0.00135122,-0.001350881,0.001350932,-0.001500062,0.001500963,-0.001500616,0.001500324,7.41E-06,-6.49E-06,-0.001049408,0.001050323,3.04E-07,6.29E-07,-0.001094992,0.00110041,-0.001094835,0.001100518,-0.001099609,0.001095782,-0.001099518,0.001095869,-0.001157053,0.001144388,-0.001143322,0.001158037,0.701374684,1473840,32975,0.006240963,0.006240992,0.004366588,37.28354385,0.000213468,0.000213468,0.000213468,1879985.406,0.01699146
11836800,0.994537074,0.016654738,0.005881493,0.005881519,0.004891727,-0.00150314,0.001502937,-7.04E-06,6.82E-06,-3.40E-07,1.94E-07,-0.001572393,0.001567414,-0.001567805,0.001571979,-0.001572276,0.001567564,-0.001567611,0.001572215,-0.001358019,0.001344262,-0.00134433,0.001357944,4.98E-07,-3.25E-08,4.38E-07,1.16E-07,-0.001502792,0.001503299,-0.001569542,0.001570318,-0.001569613,0.001570205,-0.001569659,0.001570118,-0.001569805,0.001569989,-0.001350747,0.001351453,-0.001351112,0.001351167,-0.001500545,0.001501446,-0.001501097,0.00150081,7.41E-06,-6.49E-06,-0.00104903,0.001049944,3.05E-07,6.28E-07,-0.001094716,0.001100133,-0.001094559,0.00110024,-0.001099331,0.001095506,-0.001099241,0.001095591,-0.001156857,0.001144194,-0.001143129,0.00115784,0.702157914,1473840,32975,0.006242721,0.00624275,0.004365026,37.19274008,0.000212742,0.000212742,0.000212742,1875095.902,0.016993447
11923200,0.994843194,0.01665939,0.005883167,0.005883193,0.00489303,-0.00150358,0.00150338,-7.04E-06,6.82E-06,-3.39E-07,1.97E-07,-0.001572851,0.001567876,-0.001568265,0.00157244,-0.001572734,0.001568027,-0.001568069,0.001572676,-0.001358304,0.001344555,-0.001344619,0.001358232,4.98E-07,-3.49E-08,4.41E-07,1.10E-07,-0.001503235,0.001503739,-0.001570001,0.001570779,-0.001570076,0.001570662,-0.001570119,0.001570578,-0.001570269,0.001570446,-0.001351033,0.001351744,-0.001351407,0.001351449,-0.001501071,0.001501969,-0.001501625,0.00150133,7.41E-06,-6.48E-06,-0.00104866,0.001049577,3.02E-07,6.33E-07,-0.001094469,0.001099884,-0.001094309,0.001099994,-0.001099083,0.001095259,-0.00109899,0.001095348,-0.001156658,0.001144005,-0.001142935,0.001157646,0.704193841,1473840,32975,0.006244547,0.006244576,0.004363503,37.10193624,0.000212015,0.000212015,0.000212015,1869544.315,0.016995614
12009600,0.995131168,0.01666378,0.005884747,0.005884773,0.00489426,-0.001504155,0.001503936,-7.05E-06,6.81E-06,-3.46E-07,1.85E-07,-0.001573376,0.001568384,-0.00156879,0.001572947,-0.00157326,0.001568533,-0.001568596,0.001573182,-0.00135879,0.001345019,-0.001345105,0.001358697,4.96E-07,-3.23E-08,4.46E-07,1.06E-07,-0.001503801,0.001504305,-0.001570517,0.001571296,-0.001570594,0.001571177,-0.001570633,0.001571096,-0.001570785,0.001570961,-0.001351503,0.001352225,-0.001351886,0.001351922,-0.001501782,0.001502673,-0.001502332,0.001502038,7.41E-06,-6.48E-06,-0.001048357,0.001049268,2.95E-07,6.35E-07,-0.001094331,0.001099738,-0.001094169,0.001099851,-0.001098945,0.001095113,-0.001098849,0.001095204,-0.001156534,0.001143878,-0.00114281,0.001157519,0.706357388,1473840,32975,0.006246888,0.006246917,0.004362242,37.03345935,0.000211468,0.000211468,0.000211468,1862362.366,0.016999092
12096000,0.995402395,0.016667928,0.005886239,0.005886265,0.004895425,-0.001504728,0.001504512,-7.04E-06,6.81E-06,-3.43E-07,1.84E-07,-0.001573896,0.00156891,-0.001569312,0.001573472,-0.001573782,0.001569058,-0.001569119,0.001573705,-0.001359276,0.001345513,-0.001345597,0.001359184,4.91E-07,-3.26E-08,4.48E-07,9.86E-08,-0.001504377,0.001504877,-0.001571041,0.001571817,-0.001571122,0.001571695,-0.001571156,0.00157162,-0.001571312,0.001571481,-0.001351989,0.001352718,-0.001352382,0.001352404,-0.001502502,0.001503381,-0.001503048,0.00150275,7.40E-06,-6.48E-06,-0.00104808,0.001048991,2.90E-07,6.40E-07,-0.00109422,0.001099621,-0.001094054,0.001099738,-0.001098832,0.001094998,-0.001098733,0.001095093,-0.001156426,0.00114378,-0.001142709,0.001157415,0.708643237,1473840,32975,0.006249264,0.006249293,0.0043611,36.9838039,0.00021107,0.00021107,0.00021107,1855392.42,0.017002765
12182400,0.995657898,0.01667185,0.005887649,0.005887675,0.004896526,-0.001505277,0.001505062,-7.04E-06,6.81E-06,-3.39E-07,1.83E-07,-0.001574391,0.001569409,-0.001569807,0.00157397,-0.001574279,0.001569555,-0.001569616,0.001574202,-0.001359751,0.001345987,-0.00134607,0.00135966,4.94E-07,-2.49E-08,4.61E-07,9.74E-08,-0.001504921,0.001505432,-0.001571531,0.001572322,-0.001571616,0.001572195,-0.001571644,0.001572125,-0.001571804,0.001571982,-0.001352451,0.001353206,-0.001352858,0.001352879,-0.001503187,0.001504068,-0.001503728,0.001503441,7.40E-06,-6.49E-06,-0.001047807,0.001048707,2.77E-07,6.41E-07,-0.001094113,0.001099498,-0.001093942,0.001099619,-0.001098725,0.001094875,-0.001098621,0.001094974,-0.001156316,0.001143662,-0.001142597,0.001157297,0.711052759,1473840,32975,0.006251538,0.006251567,0.004359954,36.93532277,0.000210683,0.000210683,0.000210683,1848577.289,0.017006225
12268800,0.995898623,0.016675557,0.005888981,0.005889007,0.004897569,-0.001505807,0.001505577,-7.05E-06,6.80E-06,-3.45E-07,1.73E-07,-0.001574866,0.001569871,-0.001570283,0.001574432,-0.001574755,0.001570015,-0.001570093,0.001574662,-0.001360203,0.001346425,-0.001346525,0.001360096,4.93E-07,-2.27E-08,4.65E-07,9.39E-08,-0.001505443,0.001505954,-0.001571999,0.001572791,-0.001572087,0.001572661,-0.001572111,0.001572596,-0.001572273,0.00157245,-0.001352892,0.001353656,-0.001353306,0.001353322,-0.001503845,0.001504719,-0.001504382,0.001504097,7.41E-06,-6.47E-06,-0.001047515,0.001048445,2.88E-07,6.60E-07,-0.001093982,0.001099394,-0.001093809,0.001099518,-0.001098594,0.001094772,-0.001098488,0.001094873,-0.001156186,0.001143565,-0.001142469,0.0011572,0.713262687,1473840,32975,0.006253697,0.006253726,0.004358811,36.88695241,0.000210296,0.000210296,0.000210296,1841884.875,0.017009456
12355200,0.996125454,0.016679041,0.005890233,0.00589026,0.004898548,-0.001506266,0.00150605,-7.04E-06,6.80E-06,-3.39E-07,1.81E-07,-0.001575286,0.001570307,-0.001570706,0.001574865,-0.001575175,0.001570452,-0.001570515,0.001575096,-0.00136059,0.001346832,-0.00134692,0.001360497,5.12E-07,-3.69E-09,4.90E-07,1.07E-07,-0.001505891,0.00150644,-0.001572406,0.001573241,-0.001572497,0.001573107,-0.001572518,0.001573045,-0.001572684,0.001572895,-0.001353265,0.001354078,-0.00135369,0.001353732,-0.001504407,0.001505317,-0.001504945,0.001504694,7.40E-06,-6.47E-06,-0.00104723,0.001048154,2.80E-07,6.63E-07,-0.001093848,0.001099249,-0.001093671,0.001099375,-0.001098458,0.001094629,-0.001098347,0.001094735,-0.001156035,0.00114342,-0.001142324,0.001157044,0.711223823,1473840,32975,0.006255628,0.006255657,0.004357623,36.83859337,0.000209909,0.000209909,0.000209909,1835720.793,0.017012176
12441600,0.99633922,0.016682276,0.005891397,0.005891423,0.004899455,-0.001506359,0.001506144,-7.04E-06,6.80E-06,-3.39E-07,1.81E-07,-0.001575556,0.001570577,-0.001570975,0.001575136,-0.001575444,0.001570723,-0.001570785,0.001575367,-0.001360397,0.001346644,-0.001346728,0.001360306,4.94E-07,-2.34E-08,4.68E-07,9.12E-08,-0.001506003,0.001506514,-0.001572696,0.00157349,-0.001572785,0.001573359,-0.001572809,0.001573295,-0.001572973,0.001573148,-0.001353096,0.001353864,-0.001353514,0.001353525,-0.001504442,0.001505316,-0.00150498,0.001504693,7.41E-06,-6.47E-06,-0.00104683,0.001047759,2.85E-07,6.62E-07,-0.001093442,0.001098848,-0.001093267,0.001098974,-0.001098051,0.001094229,-0.001097942,0.001094332,-0.001155767,0.001143157,-0.00114206,0.001156783,0.700802906,1473840,32975,0.006256014,0.006256043,0.004355977,36.79023565,0.000209522,0.000209522,0.000209522,1835499.098,0.017011286
12528000,0.996540701,0.016685337,0.005892498,0.005892525,0.004900314,-0.001505747,0.001505523,-7.04E-06,6.80E-06,-3.33E-07,1.66E-07,-0.001575532,0.001570554,-0.001570952,0.001575112,-0.001575427,0.001570692,-0.001570769,0.001575334,-0.001359173,0.001345408,-0.001345506,0.001359066,4.96E-07,9.83E-10,4.70E-07,1.17E-07,-0.001505373,0.001505912,-0.001572665,0.001573474,-0.001572748,0.001573349,-0.001572771,0.001573285,-0.001572928,0.001573145,-0.001351857,0.001352639,-0.001352254,0.001352323,-0.001503365,0.001504251,-0.001503882,0.001503651,7.41E-06,-6.47E-06,-0.001046296,0.001047227,2.98E-07,6.52E-07,-0.001092576,0.001097992,-0.001092409,0.001098109,-0.001097185,0.001093372,-0.001097083,0.001093469,-0.0011553,0.001142688,-0.001141595,0.001156312,0.703721081,1473840,32975,0.006253462,0.006253491,0.00435376,36.74187778,0.000209135,0.000209135,0.000209135,1846843.211,0.01700384
12614400,0.996730629,0.016688193,0.005893526,0.005893552,0.004901115,-0.001506298,0.001506068,-7.05E-06,6.80E-06,-3.38E-07,1.67E-07,-0.001575971,0.001570984,-0.00157139,0.001575542,-0.001575865,0.001571123,-0.001571204,0.001575768,-0.001359709,0.001345933,-0.001346036,0.001359597,4.86E-07,-1.67E-08,4.61E-07,9.53E-08,-0.001505935,0.001506445,-0.001573112,0.001573896,-0.001573197,0.001573768,-0.001573219,0.001573705,-0.00157338,0.00157356,-0.001352399,0.001353159,-0.00135281,0.001352831,-0.001504117,0.001504981,-0.001504644,0.001504372,7.40E-06,-6.48E-06,-0.001046064,0.001046977,2.83E-07,6.48E-07,-0.001092507,0.001097902,-0.001092336,0.001098024,-0.001097117,0.001093283,-0.001097012,0.001093383,-0.00115524,0.001142609,-0.00114153,0.001156234,0.696746565,1473840,32975,0.00625573,0.006255758,0.004352769,36.69352007,0.000208748,0.000208748,0.000208748,1838776.627,0.017007445
12700800,0.996909689,0.01669089,0.005894496,0.005894522,0.004901871,-0.001505931,0.001505708,-7.04E-06,6.80E-06,-3.33E-07,1.66E-07,-0.001576025,0.001571044,-0.001571443,0.001575604,-0.00157592,0.001571182,-0.00157126,0.001575827,-0.001358845,0.001345073,-0.001345172,0.001358738,4.86E-07,-9.31E-09,4.54E-07,1.11E-07,-0.001505568,0.001506086,-0.00157317,0.001573952,-0.001573248,0.001573832,-0.001573275,0.001573764,-0.001573428,0.001573628,-0.001351543,0.001352292,-0.001351929,0.001351986,-0.001503457,0.001504328,-0.001503974,0.001503727,7.40E-06,-6.47E-06,-0.001045612,0.001046532,2.98E-07,6.41E-07,-0.001091829,0.001097239,-0.001091665,0.001097353,-0.001096439,0.001092618,-0.001096342,0.00109271,-0.001154913,0.001142279,-0.001141203,0.001155909,0.697574996,1473840,32975,0.006254226,0.006254255,0.004350905,36.64516225,0.000208361,0.000208361,0.000208361,1845838.022,0.017002488
12787200,0.997077623,0.016693418,0.005895406,0.005895432,0.004902581,-0.001506073,0.001505853,-7.04E-06,6.80E-06,-3.33E-07,1.71E-07,-0.001576144,0.001571165,-0.001571563,0.001575724,-0.001576037,0.001571305,-0.001571378,0.001575949,-0.00135891,0.001345145,-0.001345239,0.001358809,4.88E-07,-1.21E-08,4.58E-07,1.07E-07,-0.001505711,0.001506229,-0.001573288,0.001574074,-0.001573369,0.001573951,-0.001573395,0.001573884,-0.001573551,0.001573745,-0.00135161,0.001352365,-0.001352003,0.00135205,-0.001503691,0.001504564,-0.001504214,0.001503957,7.40E-06,-6.47E-06,-0.001045165,0.001046088,2.95E-07,6.46E-07,-0.001091486,0.001096895,-0.00109132,0.001097012,-0.001096096,0.001092275,-0.001095996,0.00109237,-0.001154594,0.001141967,-0.001140885,0.001155595,0.69747003,1473840,32975,0.006254818,0.006254847,0.004349062,36.49601576,0.000207168,0.000207168,0.000207168,1840476.883,0.017001819
12873600,0.997234533,0.016695781,0.005896255,0.005896282,0.004903244,-0.001505946,0.001505726,-7.04E-06,6.80E-06,-3.34E-07,1.72E-07,-0.001576047,0.001571069,-0.001571467,0.001575627,-0.00157594,0.001571209,-0.001571281,0.001575853,-0.001358667,0.001344906,-0.001345,0.001358566,4.89E-07,-1.40E-08,4.56E-07,1.08E-07,-0.001505585,0.001506101,-0.001573192,0.001573977,-0.001573272,0.001573855,-0.0015733,0.001573786,-0.001573455,0.001573648,-0.001351371,0.001352121,-0.001351762,0.00135181,-0.001503602,0.001504476,-0.001504126,0.001503867,7.40E-06,-6.47E-06,-0.001044571,0.001045492,2.96E-07,6.44E-07,-0.001090945,0.001096352,-0.001090779,0.001096468,-0.001095553,0.001091733,-0.001095454,0.001091827,-0.00115411,0.001141483,-0.001140404,0.001155108,0.697424249,1473840,32975,0.006254291,0.00625432,0.004346596,36.26858261,0.000205349,0.000205349,0.000205349,1836506.432,0.016998239
12960000,0.997381201,0.016697989,0.005897049,0.005897076,0.004903864,-0.001505791,0.001505566,-7.04E-06,6.80E-06,-3.37E-07,1.69E-07,-0.001575909,0.001570923,-0.001571327,0.001575481,-0.0015758,0.001571065,-0.001571142,0.001575706,-0.001358445,0.00134468,-0.001344777,0.001358339,4.91E-07,-1.22E-08,4.58E-07,1.05E-07,-0.001505426,0.001505945,-0.001573047,0.001573837,-0.001573128,0.001573712,-0.001573156,0.001573647,-0.00157331,0.001573506,-0.001351145,0.0013519,-0.001351539,0.001351582,-0.001503478,0.001504355,-0.001504,0.001503744,7.39E-06,-6.49E-06,-0.001043993,0.001044888,2.79E-07,6.33E-07,-0.001090429,0.001095808,-0.001090264,0.001095928,-0.001095039,0.001091188,-0.001094935,0.001091287,-0.001153609,0.001140959,-0.001139906,0.001154584,0.697431398,1473840,32975,0.006253639,0.006253666,0.004344148,36.03625548,0.00020349,0.00020349,0.00020349,1832355.792,0.016994423
13046400,0.997518381,0.016700055,0.005897792,0.005897818,0.004904444,-0.001505616,0.001505409,-7.04E-06,6.81E-06,-3.28E-07,1.79E-07,-0.001575753,0.001570786,-0.00157117,0.001575345,-0.001575644,0.001570929,-0.001570985,0.001575569,-0.001358179,0.001344434,-0.001344512,0.001358094,4.91E-07,-1.31E-08,4.59E-07,1.05E-07,-0.00150526,0.001505778,-0.0015729,0.00157369,-0.001572982,0.001573565,-0.001573009,0.0015735,-0.001573164,0.001573358,-0.001350889,0.001351645,-0.001351285,0.001351325,-0.001503351,0.001504227,-0.001503873,0.001503615,7.41E-06,-6.47E-06,-0.001043371,0.001044301,2.96E-07,6.51E-07,-0.001089861,0.001095277,-0.001089695,0.001095395,-0.001094471,0.001090656,-0.001094367,0.001090755,-0.001153082,0.001140468,-0.001139379,0.001154092,0.697486313,1473840,32975,0.00625295,0.006252977,0.004341645,35.80346717,0.000201628,0.000201628,0.000201628,1828410.574,0.016990475
13132800,0.997646772,0.016701989,0.005898487,0.005898514,0.004904988,-0.001505443,0.001505224,-7.04E-06,6.80E-06,-3.35E-07,1.74E-07,-0.0015756,0.001570621,-0.001571017,0.001575179,-0.00157549,0.001570763,-0.001570832,0.001575404,-0.001357913,0.001344157,-0.001344248,0.001357816,4.88E-07,-1.71E-08,4.57E-07,1.00E-07,-0.001505084,0.001505596,-0.001572744,0.001573529,-0.001572826,0.001573403,-0.001572852,0.001573338,-0.001573008,0.001573195,-0.001350619,0.001351371,-0.001351018,0.001351049,-0.001503216,0.001504087,-0.001503739,0.001503472,7.40E-06,-6.47E-06,-0.001042769,0.001043694,2.92E-07,6.50E-07,-0.00108931,0.001094718,-0.001089142,0.001094838,-0.001093921,0.0010901,-0.001093815,0.0010902,-0.001152578,0.001139962,-0.001138874,0.001153581,0.697584692,1473840,32975,0.006252208,0.006252235,0.004339141,35.57063244,0.000199765,0.000199765,0.000199765,1824521.736,0.016986421
13219200,0.997767014,0.016703801,0.005899138,0.005899165,0.004905497,-0.001505258,0.001505026,-7.05E-06,6.79E-06,-3.41E-07,1.68E-07,-0.001575433,0.001570441,-0.001570851,0.001574998,-0.001575323,0.001570583,-0.001570665,0.001575224,-0.001357638,0.001343869,-0.001343975,0.001357526,4.88E-07,-1.77E-08,4.59E-07,9.78E-08,-0.001504893,0.001505404,-0.001572569,0.001573355,-0.001572652,0.001573228,-0.001572678,0.001573164,-0.001572834,0.001573019,-0.001350335,0.001351091,-0.001350738,0.001350764,-0.001503067,0.001503936,-0.001503589,0.001503319,7.38E-06,-6.50E-06,-0.001042194,0.001043064,2.63E-07,6.25E-07,-0.001088784,0.001094135,-0.001088615,0.001094256,-0.001093395,0.001089517,-0.001093288,0.001089619,-0.001152098,0.00113943,-0.001138395,0.001153046,0.697722918,1473840,32975,0.006251416,0.006251441,0.004336643,35.33779296,0.000197902,0.000197902,0.000197902,1820666.083,0.016982267
13305600,0.997879698,0.016705497,0.005899748,0.005899774,0.004905974,-0.001505052,0.001504835,-7.04E-06,6.80E-06,-3.35E-07,1.76E-07,-0.001575253,0.001570276,-0.001570672,0.001574835,-0.001575144,0.001570418,-0.001570485,0.001575062,-0.001357302,0.001343543,-0.001343632,0.001357206,4.90E-07,-1.69E-08,4.62E-07,9.95E-08,-0.001504694,0.001505208,-0.001572396,0.001573186,-0.001572481,0.001573059,-0.001572506,0.001572993,-0.001572665,0.001572851,-0.001350001,0.001350763,-0.001350407,0.001350437,-0.001502912,0.001503784,-0.001503441,0.001503171,7.40E-06,-6.47E-06,-0.001041554,0.001042479,2.90E-07,6.53E-07,-0.001088179,0.001093585,-0.001088009,0.001093706,-0.001092788,0.001088965,-0.001092684,0.001089065,-0.001151591,0.001138971,-0.001137883,0.001152597,0.697046022,1473840,32975,0.006250592,0.006250621,0.004334106,35.10495306,0.00019604,0.00019604,0.00019604,1817020.347,0.016978016
13392000,0.997985365,0.016707083,0.005900318,0.005900344,0.004906421,-0.001504762,0.001504547,-7.04E-06,6.81E-06,-3.34E-07,1.77E-07,-0.001575023,0.001570047,-0.001570441,0.001574606,-0.001574914,0.001570189,-0.001570254,0.001574834,-0.001356891,0.001343132,-0.001343218,0.001356797,4.89E-07,-1.79E-08,4.60E-07,9.98E-08,-0.001504405,0.001504918,-0.001572168,0.001572955,-0.001572252,0.001572829,-0.001572277,0.001572762,-0.001572436,0.001572621,-0.001349592,0.001350349,-0.001349995,0.001350026,-0.001502622,0.001503494,-0.001503151,0.001502881,7.41E-06,-6.47E-06,-0.001040936,0.001041859,2.91E-07,6.51E-07,-0.001087572,0.00109298,-0.001087403,0.0010931,-0.001092182,0.001088359,-0.001092079,0.001088457,-0.001151059,0.001138435,-0.001137349,0.001152064,0.695338631,1473840,32975,0.006249394,0.006249423,0.00433154,34.8721132,0.000194177,0.000194177,0.000194177,1814473.397,0.01697297
13478400,0.998084515,0.016708568,0.005900852,0.005900878,0.004906838,-0.001504374,0.001504154,-7.04E-06,6.80E-06,-3.35E-07,1.72E-07,-0.001574748,0.001569769,-0.001570168,0.001574327,-0.00157464,0.00156991,-0.001569982,0.001574553,-0.001356333,0.001342571,-0.001342665,0.001356232,4.86E-07,-1.78E-08,4.57E-07,1.00E-07,-0.001504017,0.001504526,-0.001571894,0.001572676,-0.001571977,0.001572551,-0.001572003,0.001572484,-0.00157216,0.001572344,-0.001349036,0.001349787,-0.001349435,0.001349467,-0.001502185,0.001503051,-0.00150271,0.001502441,7.40E-06,-6.47E-06,-0.0010403,0.001041221,2.92E-07,6.48E-07,-0.001086904,0.00109231,-0.001086736,0.001092429,-0.001091513,0.00108769,-0.001091411,0.001087787,-0.001150501,0.001137878,-0.001136795,0.001151503,0.693541405,1473840,32975,0.006247778,0.006247807,0.004328899,34.63927336,0.000192314,0.000192314,0.000192314,1813476.617,0.016966996
13564800,0.998177842,0.016709964,0.005901353,0.00590138,0.004907231,-0.001504066,0.001503834,-7.04E-06,6.79E-06,-3.38E-07,1.65E-07,-0.001574531,0.001569545,-0.001569953,0.0015741,-0.001574422,0.001569685,-0.001569769,0.001574325,-0.001355901,0.001342139,-0.001342248,0.001355789,4.82E-07,-1.76E-08,4.53E-07,9.87E-08,-0.001503703,0.001504208,-0.001571674,0.001572449,-0.001571758,0.001572326,-0.001571782,0.00157226,-0.001571938,0.00157212,-0.001348606,0.001349351,-0.001349003,0.001349035,-0.001501817,0.001502675,-0.001502332,0.001502068,7.40E-06,-6.46E-06,-0.001039741,0.001040681,3.01E-07,6.56E-07,-0.001086345,0.001091764,-0.001086178,0.001091883,-0.001090949,0.001087152,-0.001090846,0.001087247,-0.001149981,0.001137389,-0.001136287,0.001150998,0.692369845,1473840,32975,0.006246477,0.0062465,0.00432662,34.45270606,0.000190822,0.000190822,0.000190822,1812624.118,0.016962027
13651200,0.99826589,0.01671128,0.005901826,0.005901852,0.004907601,-0.001503874,0.001503636,-7.04E-06,6.78E-06,-3.40E-07,1.60E-07,-0.001574414,0.001569427,-0.00156984,0.001573979,-0.001574307,0.001569566,-0.001569658,0.001574202,-0.001355574,0.001341817,-0.001341934,0.001355455,4.84E-07,-1.26E-08,4.54E-07,1.04E-07,-0.001503506,0.001504018,-0.001571556,0.001572337,-0.001571638,0.001572214,-0.001571663,0.001572148,-0.001571817,0.001572009,-0.001348281,0.00134903,-0.001348674,0.001348718,-0.0015016,0.001502462,-0.001502111,0.001501858,7.41E-06,-6.44E-06,-0.001039248,0.001040203,3.10E-07,6.62E-07,-0.001085845,0.001091279,-0.00108568,0.001091396,-0.001090446,0.00108667,-0.001090345,0.001086764,-0.001149562,0.001136994,-0.001135879,0.001150591,0.69209794,1473840,32975,0.006245668,0.006245697,0.004324609,34.29921906,0.000189594,0.000189594,0.000189594,1811035.33,0.016958341
13737600,0.998349,0.016712521,0.005902272,0.005902299,0.00490795,-0.001503761,0.001503523,-7.04E-06,6.78E-06,-3.40E-07,1.60E-07,-0.001574335,0.001569351,-0.001569764,0.001573899,-0.001574228,0.00156949,-0.001569581,0.001574123,-0.001355357,0.001341605,-0.001341721,0.001355236,4.86E-07,-1.08E-08,4.54E-07,1.08E-07,-0.00150339,0.001503906,-0.001571477,0.001572261,-0.001571557,0.001572138,-0.001571584,0.001572071,-0.001571736,0.001571933,-0.001348067,0.001348815,-0.001348455,0.001348505,-0.001501511,0.001502379,-0.001502023,0.001501775,7.38E-06,-6.46E-06,-0.001038802,0.00103972,2.94E-07,6.42E-07,-0.001085416,0.00109081,-0.001085252,0.001090928,-0.001090017,0.001086204,-0.001089916,0.001086297,-0.001149211,0.00113661,-0.001135531,0.001150201,0.691858126,1473840,32975,0.0062452,0.006245227,0.004322685,34.14779516,0.000188382,0.000188382,0.000188382,1808161.329,0.016955431
13824000,0.998427482,0.016713694,0.005902694,0.00590272,0.00490828,-0.001503638,0.001503417,-7.02E-06,6.78E-06,-3.33E-07,1.70E-07,-0.001574254,0.001569288,-0.001569686,0.001573834,-0.001574147,0.001569427,-0.001569501,0.001574059,-0.001355087,0.001341358,-0.001341454,0.001354984,4.88E-07,-1.15E-08,4.55E-07,1.10E-07,-0.001503276,0.001503793,-0.001571405,0.001572189,-0.001571484,0.001572068,-0.001571512,0.001571999,-0.001571666,0.001571863,-0.001347807,0.001348557,-0.001348195,0.001348248,-0.001501429,0.001502302,-0.00150195,0.001501697,7.38E-06,-6.46E-06,-0.001038333,0.001039245,2.92E-07,6.38E-07,-0.001084954,0.001090341,-0.00108479,0.001090456,-0.00108955,0.001085733,-0.001089452,0.001085827,-0.001148868,0.001136266,-0.001135197,0.001149856,0.691647461,1473840,32975,0.006244726,0.006244755,0.004320729,33.99656471,0.000187173,0.000187173,0.000187173,1805487.303,0.01695248
13910400,0.998501623,0.016714801,0.005903091,0.005903117,0.004908592,-0.001503509,0.001503287,-7.02E-06,6.78E-06,-3.35E-07,1.70E-07,-0.00157414,0.001569174,-0.001569574,0.001573718,-0.001574033,0.001569314,-0.00156939,0.001573943,-0.0013549,0.001341177,-0.001341275,0.001354794,4.90E-07,-1.06E-08,4.56E-07,1.10E-07,-0.001503144,0.001503665,-0.001571288,0.001572077,-0.001571368,0.001571955,-0.001571397,0.001571887,-0.001571549,0.00157175,-0.001347623,0.001348373,-0.001348009,0.001348064,-0.00150132,0.001502197,-0.001501838,0.001501589,7.39E-06,-6.44E-06,-0.001037867,0.001038804,3.04E-07,6.51E-07,-0.001084528,0.001089936,-0.001084364,0.001090053,-0.001089123,0.001085333,-0.001089023,0.001085427,-0.00114846,0.001135892,-0.001134794,0.001149471,0.691463485,1473840,32975,0.006244189,0.006244216,0.004318849,33.84535365,0.000185963,0.000185963,0.000185963,1802517.996,0.016949474
13996800,0.99857169,0.016715847,0.005903467,0.005903493,0.004908887,-0.001503379,0.001503153,-7.02E-06,6.77E-06,-3.36E-07,1.69E-07,-0.00157403,0.001569062,-0.001569465,0.001573605,-0.001573922,0.001569203,-0.00156928,0.00157383,-0.001354694,0.001340971,-0.001341073,0.001354585,4.90E-07,-1.10E-08,4.56E-07,1.10E-07,-0.001503013,0.001503533,-0.001571178,0.001571966,-0.001571258,0.001571844,-0.001571286,0.001571776,-0.001571438,0.001571639,-0.001347418,0.001348167,-0.001347804,0.001347858,-0.001501214,0.001502091,-0.001501731,0.001501482,7.37E-06,-6.45E-06,-0.001037418,0.001038331,2.92E-07,6.39E-07,-0.001084113,0.001089495,-0.001083949,0.001089612,-0.001088708,0.001084894,-0.001088608,0.001084988,-0.001148085,0.001135497,-0.001134422,0.00114907,0.69130412,1473840,32975,0.006243642,0.006243669,0.00431694,33.69414455,0.000184753,0.000184753,0.000184753,1799682.166,0.016946421
14083200,0.998637934,0.016716834,0.005903822,0.005903848,0.004909165,-0.001503242,0.001503014,-7.02E-06,6.77E-06,-3.37E-07,1.68E-07,-0.001573913,0.001568946,-0.00156935,0.001573486,-0.001573805,0.001569086,-0.001569166,0.001573711,-0.001354475,0.001340757,-0.001340863,0.001354366,4.89E-07,-1.29E-08,4.54E-07,1.08E-07,-0.001502877,0.001503393,-0.001571063,0.001571848,-0.001571143,0.001571726,-0.001571171,0.001571657,-0.001571324,0.00157152,-0.001347204,0.00134795,-0.001347592,0.001347642,-0.001501104,0.001501978,-0.001501622,0.001501369,7.38E-06,-6.44E-06,-0.001036953,0.001037878,2.97E-07,6.45E-07,-0.001083678,0.001089072,-0.001083514,0.001089189,-0.001088271,0.001084473,-0.001088169,0.001084568,-0.001147694,0.001135125,-0.001134039,0.001148691,0.690333513,1473840,32975,0.006243071,0.006243099,0.004315037,33.54293569,0.000183543,0.000183543,0.000183543,1796874.132,0.016943324
14169600,0.998700587,0.016717764,0.005904156,0.005904182,0.004909426,-0.001503028,0.001502802,-7.01E-06,6.77E-06,-3.38E-07,1.69E-07,-0.001573778,0.001568814,-0.001569219,0.001573351,-0.00157367,0.001568955,-0.001569033,0.001573577,-0.001354094,0.00134039,-0.00134049,0.001353987,4.89E-07,-1.43E-08,4.53E-07,1.10E-07,-0.001502664,0.00150318,-0.00157093,0.001571714,-0.001571009,0.001571594,-0.001571039,0.001571523,-0.001571192,0.001571387,-0.001346829,0.001347574,-0.001347215,0.001347268,-0.001500881,0.001501758,-0.001501406,0.001501149,7.37E-06,-6.44E-06,-0.001036467,0.001037392,3.00E-07,6.44E-07,-0.001083172,0.001088564,-0.001083008,0.001088678,-0.001087759,0.001083966,-0.001087662,0.001084058,-0.00114731,0.00113475,-0.001133667,0.001148311,0.687097287,1473840,32975,0.006242188,0.006242217,0.004313024,33.39172694,0.000182334,0.000182334,0.000182334,1795505.519,0.016939483
14256000,0.998759866,0.016718639,0.00590447,0.005904496,0.004909673,-0.001502594,0.001502375,-7.00E-06,6.77E-06,-3.34E-07,1.72E-07,-0.001573536,0.001568582,-0.001568979,0.001573116,-0.001573428,0.001568723,-0.001568794,0.001573342,-0.001353427,0.001339736,-0.001339829,0.001353326,4.89E-07,-1.38E-08,4.47E-07,1.16E-07,-0.001502234,0.00150275,-0.001570695,0.001571475,-0.00157077,0.001571359,-0.001570804,0.001571284,-0.001570953,0.001571152,-0.001346174,0.001346907,-0.001346548,0.001346613,-0.001500323,0.001501203,-0.001500847,0.001500595,7.36E-06,-6.44E-06,-0.001035958,0.001036873,3.01E-07,6.32E-07,-0.001082554,0.001087937,-0.001082394,0.001088047,-0.001087138,0.001083341,-0.001087045,0.00108343,-0.001146867,0.001134298,-0.001133231,0.001147853,0.683682234,1473840,32975,0.006240407,0.006240436,0.004310892,33.24051821,0.000181124,0.000181124,0.000181124,1797417.282,0.016933691
14342400,0.998815602,0.016719465,0.005904767,0.005904793,0.004909905,-0.001501898,0.001501684,-7.00E-06,6.76E-06,-3.30E-07,1.74E-07,-0.001573036,0.001568093,-0.001568483,0.001572623,-0.001572928,0.001568233,-0.001568299,0.001572848,-0.001352506,0.001338834,-0.001338924,0.001352412,4.86E-07,-1.44E-08,4.38E-07,1.22E-07,-0.001501542,0.001502055,-0.001570205,0.001570977,-0.001570276,0.001570864,-0.001570313,0.001570786,-0.001570457,0.001570659,-0.001345273,0.001345989,-0.001345632,0.001345708,-0.001499488,0.001500365,-0.001500008,0.001499761,7.36E-06,-6.43E-06,-0.001035252,0.001036165,3.07E-07,6.24E-07,-0.001081735,0.001087117,-0.00108158,0.001087223,-0.001086316,0.001082525,-0.001086227,0.001082609,-0.0011462,0.001133637,-0.001132576,0.001147178,0.686098924,1473840,32975,0.006237535,0.006237564,0.004307957,32.96787088,0.000178943,0.000178943,0.000178943,1799252.985,0.016924865
14428800,0.99886781,0.016720239,0.005905045,0.005905071,0.004910123,-0.001501602,0.001501391,-6.99E-06,6.76E-06,-3.29E-07,1.77E-07,-0.001572611,0.001567673,-0.001568063,0.001572202,-0.001572504,0.001567815,-0.00156788,0.001572428,-0.001352261,0.001338601,-0.00133869,0.001352172,4.83E-07,-1.87E-08,4.37E-07,1.14E-07,-0.001501251,0.001501756,-0.001569786,0.001570551,-0.001569856,0.001570437,-0.001569894,0.001570362,-0.001570039,0.001570232,-0.001345039,0.001345753,-0.001345404,0.001345464,-0.001499369,0.001500242,-0.001499888,0.00149963,7.35E-06,-6.43E-06,-0.001034531,0.001035449,3.06E-07,6.31E-07,-0.001081114,0.001086496,-0.001080958,0.001086605,-0.001085694,0.001081911,-0.001085599,0.001081998,-0.001145563,0.001133021,-0.001131952,0.001146546,0.686239435,1473840,32975,0.006236316,0.006236342,0.004304979,32.61537904,0.000176123,0.000176123,0.000176123,1791506.879,0.016919355
14515200,0.998916742,0.016720965,0.005905305,0.005905331,0.004910328,-0.001501061,0.001500853,-6.98E-06,6.75E-06,-3.28E-07,1.78E-07,-0.001572045,0.001567113,-0.001567501,0.001571639,-0.001571935,0.001567256,-0.001567318,0.001571865,-0.001351697,0.001338056,-0.001338144,0.001351614,4.70E-07,-3.32E-08,4.23E-07,9.99E-08,-0.001500724,0.001501201,-0.001569236,0.001569972,-0.001569306,0.001569858,-0.001569345,0.001569784,-0.001569489,0.001569653,-0.001344501,0.001345185,-0.001344864,0.001344896,-0.001498882,0.001499727,-0.001499397,0.001499114,7.35E-06,-6.42E-06,-0.001033742,0.001034671,3.12E-07,6.36E-07,-0.001080383,0.00108577,-0.001080229,0.00108588,-0.001084959,0.001081191,-0.001084864,0.001081277,-0.001144811,0.001132292,-0.001131215,0.001145804,0.686431861,1473840,32975,0.006234078,0.006234101,0.004301731,32.25790854,0.000173263,0.000173263,0.000173263,1787648.3,0.016911498
14601600,0.99896264,0.016721645,0.00590555,0.005905576,0.00491052,-0.001500515,0.001500303,-6.98E-06,6.74E-06,-3.33E-07,1.79E-07,-0.001571485,0.001566551,-0.001566945,0.001571073,-0.001571373,0.001566696,-0.00156676,0.0015713,-0.00135112,0.00133749,-0.001337579,0.001351035,4.68E-07,-4.04E-08,4.19E-07,9.44E-08,-0.00150018,0.001500647,-0.001568678,0.001569407,-0.001568749,0.001569293,-0.00156879,0.001569217,-0.001568934,0.001569086,-0.001343934,0.001344608,-0.001344299,0.001344318,-0.001498375,0.001499216,-0.001498895,0.001498597,7.33E-06,-6.42E-06,-0.001032974,0.001033876,2.97E-07,6.23E-07,-0.001079656,0.001085012,-0.001079502,0.001085122,-0.001084228,0.001080436,-0.001084133,0.001080523,-0.001144084,0.001131552,-0.001130501,0.001145051,0.686671983,1473840,32975,0.006231809,0.00623183,0.004298491,31.89997292,0.0001704,0.0001704,0.0001704,1783758.211,0.016903586
14688000,0.999005727,0.016722285,0.005905779,0.005905805,0.0049107,-0.001499963,0.001499747,-6.97E-06,6.73E-06,-3.34E-07,1.76E-07,-0.001570919,0.001565988,-0.001566384,0.001570503,-0.001570807,0.001566132,-0.001566199,0.001570728,-0.001350536,0.001336919,-0.001337011,0.00135044,4.72E-07,-3.45E-08,4.23E-07,9.85E-08,-0.001499623,0.0015001,-0.001568109,0.001568849,-0.001568181,0.001568734,-0.00156822,0.001568657,-0.001568365,0.001568528,-0.001343348,0.001344033,-0.001343716,0.001343743,-0.001497859,0.001498709,-0.001498376,0.001498091,7.33E-06,-6.40E-06,-0.001032186,0.001033104,3.05E-07,6.31E-07,-0.001078906,0.001084271,-0.001078753,0.001084381,-0.001083471,0.001079701,-0.001083377,0.001079789,-0.001143336,0.001130841,-0.001129769,0.001144318,0.686956133,1473840,32975,0.006229516,0.006229542,0.004295257,31.54199096,0.000167536,0.000167536,0.000167536,1779873.664,0.01689564
14774400,0.999046208,0.016722886,0.005905995,0.005906021,0.00491087,-0.001499407,0.00149919,-6.96E-06,6.72E-06,-3.34E-07,1.76E-07,-0.001570348,0.001565423,-0.001565819,0.001569931,-0.001570236,0.001565567,-0.001565635,0.001570156,-0.001349946,0.001336346,-0.001336438,0.001349846,4.82E-07,-2.49E-08,4.34E-07,1.06E-07,-0.001499057,0.001499553,-0.001567531,0.00156829,-0.001567604,0.001568175,-0.001567641,0.001568099,-0.001567788,0.001567968,-0.001342754,0.001343461,-0.001343125,0.001343167,-0.001497334,0.001498201,-0.00149785,0.001497584,7.33E-06,-6.38E-06,-0.001031396,0.001032333,3.13E-07,6.42E-07,-0.001078154,0.00108353,-0.001077999,0.001083641,-0.001082713,0.001078966,-0.001082617,0.001079055,-0.001142585,0.001130131,-0.001129035,0.001143588,0.687281095,1473840,32975,0.006227212,0.006227238,0.004292021,31.18400433,0.000164672,0.000164672,0.000164672,1776010.715,0.016887663
14860800,0.999084271,0.016723451,0.005906198,0.005906224,0.00491103,-0.001498837,0.001498642,-6.94E-06,6.72E-06,-3.25E-07,1.89E-07,-0.001569763,0.001564864,-0.00156524,0.001569367,-0.001569649,0.001565009,-0.001565054,0.001569593,-0.001349341,0.00133578,-0.00133585,0.001349264,4.74E-07,-3.55E-08,4.26E-07,9.61E-08,-0.001498506,0.001498984,-0.001566968,0.001567709,-0.00156704,0.001567594,-0.001567078,0.001567517,-0.001567225,0.001567386,-0.001342177,0.001342867,-0.001342551,0.001342573,-0.001496822,0.001497673,-0.00149734,0.001497052,7.32E-06,-6.37E-06,-0.001030613,0.001031555,3.14E-07,6.46E-07,-0.001077405,0.001082782,-0.00107725,0.001082894,-0.001081961,0.001078225,-0.001081864,0.001078315,-0.001141843,0.001129411,-0.001128307,0.00114285,0.687644027,1473840,32975,0.006224895,0.006224918,0.004288785,30.82601722,0.000161808,0.000161808,0.000161808,1772164.567,0.016879657
14947200,0.999119954,0.016723982,0.005906388,0.005906414,0.004911179,-0.00149813,0.001497959,-6.92E-06,6.73E-06,-3.14E-07,2.02E-07,-0.00156904,0.001564171,-0.001564524,0.001568668,-0.001568925,0.001564318,-0.001564338,0.001568895,-0.001348602,0.001335085,-0.001335132,0.00134855,4.67E-07,-4.60E-08,4.17E-07,8.67E-08,-0.001497819,0.001498279,-0.001566267,0.001566993,-0.00156634,0.001566877,-0.001566379,0.0015668,-0.001566526,0.001566668,-0.001341469,0.001342142,-0.001341845,0.001341846,-0.001496172,0.00149701,-0.001496692,0.001496384,7.34E-06,-6.34E-06,-0.001029701,0.001030689,3.36E-07,6.69E-07,-0.001076527,0.001081945,-0.001076373,0.001082057,-0.001081079,0.001077393,-0.00108098,0.001077484,-0.001140964,0.001128596,-0.001127447,0.001142016,0.688043128,1473840,32975,0.006222018,0.006222037,0.004285098,30.40166454,0.000158413,0.000158413,0.000158413,1768138.981,0.016870054
15033600,0.999153107,0.016724473,0.005906564,0.005906591,0.004911318,-0.001497091,0.001496892,-6.92E-06,6.70E-06,-3.32E-07,1.90E-07,-0.001567984,0.001563093,-0.001563476,0.00156758,-0.001567871,0.001563239,-0.001563286,0.00156781,-0.001347543,0.00133402,-0.00133409,0.001347467,4.91E-07,-2.67E-08,4.41E-07,1.11E-07,-0.001496746,0.001497251,-0.001565178,0.001565952,-0.001565253,0.001565836,-0.001565292,0.001565756,-0.00156544,0.001565624,-0.001340384,0.001341101,-0.001340758,0.001340806,-0.001495125,0.00149601,-0.001495662,0.001495385,7.29E-06,-6.37E-06,-0.001028561,0.001029478,3.02E-07,6.33E-07,-0.001075428,0.001080766,-0.001075269,0.001080875,-0.001079965,0.001076218,-0.001079871,0.001076307,-0.001139833,0.00112741,-0.001126339,0.001140819,0.686064507,1473840,32975,0.006217657,0.006217686,0.004280221,29.80257667,0.000153621,0.000153621,0.000153621,1763548.901,0.016856235
15120000,0.999183926,0.016724928,0.005906727,0.005906754,0.004911446,-0.001495783,0.001495626,-6.89E-06,6.71E-06,-3.13E-07,2.13E-07,-0.001566774,0.00156193,-0.001562273,0.001566412,-0.001566657,0.001562078,-0.001562083,0.001566642,-0.001346123,0.001332669,-0.001332699,0.001346094,4.81E-07,-4.09E-08,4.23E-07,1.03E-07,-0.001495472,0.001495952,-0.001564007,0.001564753,-0.001564077,0.00156464,-0.001564123,0.001564557,-0.001564266,0.001564427,-0.001339021,0.001339701,-0.001339381,0.001339413,-0.001493764,0.001494631,-0.001494298,0.001494001,7.28E-06,-6.36E-06,-0.001027327,0.001028238,3.05E-07,6.26E-07,-0.001074135,0.001079463,-0.001073982,0.00107957,-0.001078667,0.001074924,-0.001078574,0.001075009,-0.001138587,0.001126178,-0.001125117,0.001139561,0.682079751,1473840,32975,0.006212328,0.006212359,0.004275088,29.1930599,0.000148744,0.000148744,0.000148744,1762380.557,0.01684018
15206400,0.999212608,0.016725348,0.005906878,0.005906904,0.004911565,-0.001494307,0.001494154,-6.88E-06,6.70E-06,-3.16E-07,2.21E-07,-0.001565522,0.001560688,-0.001561029,0.001565159,-0.001565404,0.001560839,-0.001560833,0.001565395,-0.00134442,0.001330992,-0.001331011,0.001344395,4.97E-07,-3.62E-08,4.25E-07,1.24E-07,-0.001493987,0.001494489,-0.001562749,0.001563515,-0.001562814,0.001563408,-0.001562867,0.001563313,-0.001563006,0.001563191,-0.001337327,0.001338007,-0.001337672,0.00133774,-0.001492091,0.001492995,-0.001492641,0.001492357,7.26E-06,-6.35E-06,-0.001026067,0.001026963,3.06E-07,6.08E-07,-0.001072703,0.001078014,-0.001072554,0.001078114,-0.001077224,0.001073481,-0.001077141,0.00107356,-0.001137325,0.001124915,-0.001123875,0.001138281,0.677746944,1473840,32975,0.006206226,0.006206257,0.004269826,28.58258344,0.000143861,0.000143861,0.000143861,1764249.347,0.016822419
15292800,0.999239329,0.016725746,0.005907021,0.005907047,0.004911678,-0.001492807,0.001492635,-6.87E-06,6.68E-06,-3.25E-07,2.12E-07,-0.001564238,0.001559394,-0.001559754,0.001563859,-0.001564117,0.001559547,-0.001559561,0.001564094,-0.001342708,0.001329291,-0.001329332,0.001342666,4.86E-07,-4.74E-08,4.02E-07,1.23E-07,-0.001492487,0.001492965,-0.001561473,0.001562208,-0.00156153,0.001562108,-0.001561594,0.001562008,-0.001561722,0.001561893,-0.001335645,0.001336281,-0.001335966,0.001336032,-0.001490383,0.001491272,-0.001490924,0.00149063,7.24E-06,-6.34E-06,-0.001024805,0.001025695,3.14E-07,5.95E-07,-0.001071288,0.001076592,-0.00107115,0.001076686,-0.001075804,0.00107207,-0.001075723,0.001072142,-0.001136035,0.001123642,-0.001122611,0.001136974,0.689597599,1473840,32975,0.006199976,0.006199997,0.004264573,27.9720101,0.000138976,0.000138976,0.000138976,1766839.32,0.016804356
15379200,0.99926425,0.016726121,0.005907155,0.005907181,0.004911784,-0.001492832,0.001492658,-6.87E-06,6.67E-06,-3.31E-07,2.16E-07,-0.001563646,0.001558804,-0.001559171,0.00156326,-0.001563527,0.001558959,-0.001558972,0.0015635,-0.001343175,0.001329768,-0.001329807,0.00134313,4.92E-07,-5.18E-08,4.15E-07,1.11E-07,-0.001492512,0.001492993,-0.001560879,0.001561625,-0.001560939,0.001561518,-0.001560999,0.001561423,-0.001561139,0.001561298,-0.001336106,0.001336766,-0.001336457,0.001336493,-0.001491069,0.001491971,-0.001491631,0.001491312,7.26E-06,-6.31E-06,-0.001023853,0.001024795,3.28E-07,6.32E-07,-0.001070714,0.001076053,-0.001070564,0.001076155,-0.001075219,0.001071541,-0.001075136,0.001071621,-0.001135259,0.001122944,-0.001121856,0.001136254,0.696114908,1473840,32975,0.006200072,0.006200101,0.004260747,27.36142736,0.000134091,0.000134091,0.000134091,1744380.406,0.016800673
15465600,0.999287516,0.016726472,0.005907281,0.005907307,0.004911884,-0.00149224,0.001492063,-6.86E-06,6.66E-06,-3.36E-07,2.17E-07,-0.001562675,0.001557834,-0.001558205,0.001562283,-0.001562553,0.00155799,-0.001558004,0.001562525,-0.001342926,0.001329544,-0.001329581,0.001342883,4.97E-07,-5.30E-08,4.20E-07,1.11E-07,-0.001491916,0.001492401,-0.001559903,0.001560659,-0.001559969,0.001560551,-0.001560026,0.001560453,-0.001560168,0.001560328,-0.001335865,0.00133653,-0.001336218,0.001336255,-0.001490762,0.001491668,-0.001491332,0.001491009,7.23E-06,-6.31E-06,-0.001022825,0.001023734,3.09E-07,6.18E-07,-0.001070027,0.001075326,-0.001069875,0.001075429,-0.001074526,0.001070816,-0.001074441,0.001070897,-0.001134208,0.001121878,-0.001120824,0.001135178,0.699583309,1473840,32975,0.006197612,0.006197641,0.004256419,26.75084424,0.000129207,0.000129207,0.000129207,1731816.761,0.016791269
15552000,0.99930926,0.016726802,0.005907399,0.005907425,0.004911978,-0.00149135,0.001491153,-6.85E-06,6.64E-06,-3.47E-07,2.08E-07,-0.001561626,0.00155677,-0.001557162,0.001561212,-0.001561502,0.001556927,-0.00155696,0.001561454,-0.001342181,0.0013288,-0.001328855,0.001342119,4.96E-07,-5.65E-08,4.20E-07,1.08E-07,-0.001491018,0.001491498,-0.001558847,0.001559601,-0.001558916,0.001559491,-0.001558972,0.001559394,-0.001559115,0.001559268,-0.001335119,0.001335782,-0.001335475,0.001335506,-0.001489992,0.001490892,-0.001490565,0.001490234,7.22E-06,-6.31E-06,-0.001021692,0.001022594,3.04E-07,6.17E-07,-0.001069043,0.001074327,-0.00106889,0.001074431,-0.001073535,0.001069824,-0.001073448,0.001069907,-0.001133051,0.001120735,-0.001119686,0.001134018,0.701329245,1473840,32975,0.006193883,0.006193911,0.004251706,26.14026171,0.000124322,0.000124322,0.000124322,1724006.798,0.016778895
15638400,0.999330063,0.016727118,0.005907512,0.005907538,0.004912068,-0.001491064,0.001490862,-6.85E-06,6.63E-06,-3.50E-07,2.06E-07,-0.001561286,0.001556429,-0.001556826,0.001560868,-0.001561162,0.001556586,-0.001556624,0.00156111,-0.001341901,0.001328525,-0.001328585,0.001341834,4.98E-07,-5.56E-08,4.22E-07,1.08E-07,-0.001490729,0.001491212,-0.001558505,0.001559263,-0.001558574,0.001559152,-0.00155863,0.001559055,-0.001558773,0.001558929,-0.00133484,0.001335507,-0.001335198,0.001335228,-0.001489769,0.001490671,-0.001490341,0.001490012,7.21E-06,-6.30E-06,-0.001021129,0.001022033,3.04E-07,6.19E-07,-0.001068545,0.001073828,-0.001068392,0.001073933,-0.001073034,0.001069329,-0.001072947,0.001069412,-0.001132528,0.001120225,-0.001119172,0.001133497,0.70313729,1473840,32975,0.006192689,0.006192718,0.004249377,25.91422555,0.000122514,0.000122514,0.000122514,1719890.983,0.0167741
15724800,0.999350032,0.016727426,0.005907622,0.005907648,0.004912156,-0.001490872,0.00149067,-6.85E-06,6.63E-06,-3.50E-07,2.06E-07,-0.001561051,0.001556196,-0.001556593,0.001560632,-0.001560926,0.001556354,-0.001556391,0.001560875,-0.001341707,0.001328339,-0.0013284,0.00134164,4.97E-07,-5.65E-08,4.22E-07,1.05E-07,-0.001490537,0.001491018,-0.001558272,0.001559028,-0.001558341,0.001558916,-0.001558396,0.001558821,-0.00155854,0.001558693,-0.00133465,0.001335319,-0.00133501,0.001335035,-0.001489638,0.001490538,-0.001490209,0.001489877,7.21E-06,-6.30E-06,-0.001020648,0.001021552,3.02E-07,6.20E-07,-0.001068139,0.001073417,-0.001067985,0.001073524,-0.001072626,0.001068921,-0.001072537,0.001069006,-0.001132084,0.001119792,-0.001118738,0.001133053,0.711376929,1473840,32975,0.006191892,0.006191921,0.004247384,25.73779638,0.000121102,0.000121102,0.000121102,1715988.58,0.016770453
15811200,0.99936921,0.016727723,0.005907728,0.005907755,0.004912241,-0.001491111,0.001490912,-6.85E-06,6.63E-06,-3.51E-07,2.10E-07,-0.001561009,0.001556157,-0.001556554,0.001560591,-0.001560885,0.001556316,-0.001556349,0.001560836,-0.001342136,0.001328773,-0.001328829,0.001342073,5.02E-07,-5.60E-08,4.31E-07,1.02E-07,-0.001490775,0.001491262,-0.001558226,0.001558993,-0.001558298,0.001558878,-0.001558351,0.001558785,-0.0015585,0.001558652,-0.001335074,0.001335758,-0.001335449,0.001335464,-0.001490167,0.001491077,-0.001490746,0.001490409,7.20E-06,-6.30E-06,-0.001020317,0.001021208,2.90E-07,6.19E-07,-0.001068039,0.001073299,-0.00106788,0.001073409,-0.001072524,0.001068804,-0.001072432,0.001068893,-0.001131846,0.001119548,-0.001118504,0.001132806,0.717587,1473840,32975,0.006192886,0.006192915,0.004245993,25.56498274,0.00011972,0.00011972,0.00011972,1705430.885,0.016771063
15897600,0.999387636,0.016728011,0.005907831,0.005907857,0.004912323,-0.00149104,0.001490844,-6.84E-06,6.62E-06,-3.51E-07,2.12E-07,-0.001560783,0.001555935,-0.001556329,0.001560368,-0.001560657,0.001556095,-0.001556124,0.001560613,-0.001342195,0.001328844,-0.001328895,0.001342137,5.06E-07,-5.36E-08,4.38E-07,1.03E-07,-0.001490702,0.001491196,-0.001557997,0.001558775,-0.001558073,0.001558657,-0.001558124,0.001558565,-0.001558274,0.001558431,-0.001335131,0.001335827,-0.001335509,0.001335528,-0.001490194,0.001491107,-0.001490775,0.001490441,7.21E-06,-6.29E-06,-0.001019798,0.001020705,2.95E-07,6.31E-07,-0.001067779,0.001073051,-0.001067618,0.001073163,-0.001072262,0.001068558,-0.001072167,0.001068648,-0.001131301,0.001119025,-0.001117963,0.001132281,0.720507647,1473840,32975,0.006192598,0.006192627,0.004243877,25.3925129,0.00011834,0.00011834,0.00011834,1698825.517,0.016768325
15984000,0.999405342,0.016728287,0.00590793,0.005907956,0.004912402,-0.001490754,0.001490552,-6.84E-06,6.62E-06,-3.53E-07,2.10E-07,-0.001560499,0.001555647,-0.001556046,0.001560078,-0.001560372,0.001555807,-0.001555842,0.001560323,-0.001341873,0.001328523,-0.001328582,0.001341808,5.01E-07,-5.85E-08,4.36E-07,9.52E-08,-0.001490418,0.001490901,-0.001557715,0.001558484,-0.001557792,0.001558364,-0.001557842,0.001558275,-0.001557993,0.001558139,-0.001334813,0.001335505,-0.001335196,0.001335199,-0.001489904,0.001490806,-0.001490482,0.001490138,7.20E-06,-6.29E-06,-0.00101921,0.001020112,2.90E-07,6.31E-07,-0.001067306,0.001072569,-0.001067144,0.001072683,-0.001071788,0.001068079,-0.00107169,0.001068171,-0.001130705,0.001118434,-0.001117374,0.001131679,0.722558341,1473840,32975,0.006191397,0.006191425,0.004241428,25.22007683,0.000116961,0.000116961,0.000116961,1695666.985,0.016763393
16070400,0.999422364,0.016728554,0.005908025,0.005908051,0.004912478,-0.001490453,0.00149025,-6.84E-06,6.61E-06,-3.54E-07,2.09E-07,-0.001560208,0.001555358,-0.001555758,0.001559786,-0.001560081,0.001555518,-0.001555555,0.001560031,-0.001341535,0.001328193,-0.001328253,0.001341469,4.92E-07,-6.82E-08,4.28E-07,8.36E-08,-0.001490126,0.001490591,-0.001557434,0.001558185,-0.001557512,0.001558064,-0.001557561,0.001557976,-0.001557713,0.001557839,-0.001334486,0.001335164,-0.001334873,0.001334853,-0.001489603,0.001490485,-0.001490181,0.001489817,7.19E-06,-6.29E-06,-0.001018646,0.00101954,2.84E-07,6.29E-07,-0.001066838,0.001072088,-0.001066675,0.001072203,-0.001071316,0.0010676,-0.001071217,0.001067693,-0.001130136,0.001117867,-0.001116815,0.001131103,0.72392197,1473840,32975,0.006190149,0.006190177,0.004239076,25.04764413,0.000115581,0.000115581,0.000115581,1692959.25,0.016758464
16156800,0.99943873,0.016728811,0.005908116,0.005908143,0.004912551,-0.001490145,0.001489938,-6.83E-06,6.61E-06,-3.56E-07,2.07E-07,-0.001559917,0.001555068,-0.001555471,0.001559492,-0.00155979,0.001555227,-0.001555268,0.001559736,-0.001341181,0.001327846,-0.00132791,0.001341111,4.84E-07,-7.51E-08,4.22E-07,7.44E-08,-0.001489823,0.001490273,-0.00155715,0.001557889,-0.001557229,0.001557766,-0.001557277,0.001557679,-0.001557431,0.001557541,-0.001334142,0.001334808,-0.001334532,0.001334494,-0.001489288,0.001490153,-0.001489866,0.001489487,7.19E-06,-6.28E-06,-0.001018093,0.001018993,2.85E-07,6.34E-07,-0.001066359,0.001071609,-0.001066195,0.001071726,-0.001070833,0.001067126,-0.001070733,0.00106722,-0.001129583,0.001117332,-0.001116272,0.001130557,0.724739672,1473840,32975,0.006188863,0.006188892,0.004236795,24.87521175,0.000114202,0.000114202,0.000114202,1690614.954,0.016753532
16243200,0.999454472,0.016729058,0.005908205,0.005908231,0.004912622,-0.00148983,0.001489616,-6.83E-06,6.60E-06,-3.60E-07,2.04E-07,-0.001559628,0.001554776,-0.001555186,0.001559196,-0.0015595,0.001554936,-0.001554982,0.001559441,-0.00134081,0.001327482,-0.001327553,0.001340734,4.75E-07,-8.54E-08,4.15E-07,6.25E-08,-0.001489515,0.001489946,-0.001556868,0.001557589,-0.001556949,0.001557465,-0.001556996,0.00155738,-0.001557151,0.00155724,-0.001333783,0.001334434,-0.001334177,0.001334115,-0.001488965,0.00148981,-0.001489543,0.001489143,7.19E-06,-6.26E-06,-0.001017547,0.001018467,2.94E-07,6.46E-07,-0.001065869,0.001071134,-0.001065704,0.001071252,-0.001070339,0.001066655,-0.001070238,0.001066751,-0.001129043,0.001116827,-0.001115745,0.001130039,0.725121961,1473840,32975,0.006187544,0.006187574,0.004234573,24.70277943,0.000112822,0.000112822,0.000112822,1688554.724,0.016748592
16329600,0.999469617,0.016729295,0.005908289,0.005908316,0.00491269,-0.001489506,0.001489291,-6.82E-06,6.59E-06,-3.60E-07,2.03E-07,-0.001559336,0.001554487,-0.001554899,0.001558903,-0.001559209,0.001554647,-0.001554695,0.001559148,-0.001340422,0.001327105,-0.001327177,0.001340345,4.75E-07,-8.52E-08,4.16E-07,6.14E-08,-0.00148919,0.001489621,-0.001556578,0.0015573,-0.00155666,0.001557175,-0.001556705,0.00155709,-0.001556861,0.00155695,-0.001333399,0.001334052,-0.001333795,0.001333731,-0.001488625,0.001489468,-0.001489202,0.001488802,7.18E-06,-6.26E-06,-0.001017023,0.001017941,2.91E-07,6.46E-07,-0.001065385,0.001070644,-0.001065219,0.001070763,-0.001069851,0.001066169,-0.001069749,0.001066265,-0.001128533,0.001116327,-0.001115247,0.001129527,0.72515653,1473840,32975,0.006186199,0.006186229,0.004232395,24.53034713,0.000111443,0.000111443,0.000111443,1686731.262,0.016743642
16416000,0.999484241,0.01672952,0.00590837,0.005908396,0.004912754,-0.001489292,0.001489072,-6.82E-06,6.58E-06,-3.62E-07,2.00E-07,-0.001559162,0.001554311,-0.001554728,0.001558724,-0.001559036,0.001554471,-0.001554524,0.001558968,-0.001340133,0.001326819,-0.001326895,0.00134005,4.76E-07,-8.36E-08,4.17E-07,6.32E-08,-0.001488972,0.001489406,-0.001556402,0.001557125,-0.001556484,0.001557001,-0.001556529,0.001556915,-0.001556685,0.001556776,-0.001333109,0.001333763,-0.001333505,0.001333445,-0.001488391,0.001489237,-0.00148897,0.001488572,7.18E-06,-6.26E-06,-0.001016603,0.001017515,2.89E-07,6.43E-07,-0.001064991,0.001070242,-0.001064825,0.00107036,-0.001069454,0.001065769,-0.001069353,0.001065865,-0.001128142,0.001115939,-0.001114865,0.001129132,0.71157452,1473840,32975,0.006185302,0.006185332,0.004230641,24.41511004,0.000110521,0.000110521,0.000110521,1685283.019,0.016740034
16502400,0.999498371,0.016729741,0.005908449,0.005908475,0.004912817,-0.00148821,0.001487998,-6.81E-06,6.58E-06,-3.60E-07,2.05E-07,-0.001558639,0.0015538,-0.001554209,0.001558209,-0.001558509,0.001553961,-0.001554005,0.001558452,-0.001338537,0.001325252,-0.001325319,0.001338463,4.78E-07,-8.35E-08,4.03E-07,8.00E-08,-0.001487893,0.001488329,-0.001555888,0.001556606,-0.001555961,0.001556491,-0.001556017,0.001556394,-0.001556161,0.001556266,-0.001331543,0.001332167,-0.001331904,0.001331879,-0.001486822,0.001487679,-0.001487399,0.001487015,7.16E-06,-6.25E-06,-0.001015995,0.001016895,2.98E-07,6.22E-07,-0.001064004,0.001069247,-0.001063849,0.001069356,-0.001068462,0.00106478,-0.00106837,0.001064866,-0.001127498,0.001115289,-0.001114236,0.001128466,0.722475429,1473840,32975,0.006180843,0.006180872,0.004228084,24.30584614,0.000109647,0.000109647,0.000109647,1698160.381,0.016728363
16588800,0.999512025,0.016729958,0.005908526,0.005908552,0.00491288,-0.001488898,0.001488703,-6.80E-06,6.59E-06,-3.52E-07,2.16E-07,-0.001558857,0.001554035,-0.001554428,0.001558442,-0.001558729,0.001554196,-0.001554222,0.001558688,-0.001339563,0.001326291,-0.001326339,0.001339508,5.08E-07,-5.68E-08,4.42E-07,9.75E-08,-0.001488561,0.001489054,-0.001556082,0.001556863,-0.001556161,0.001556742,-0.001556211,0.001556652,-0.001556364,0.001556515,-0.001332535,0.001333238,-0.001332923,0.001332929,-0.001487966,0.00148888,-0.001488551,0.001488209,7.17E-06,-6.25E-06,-0.001015895,0.001016805,2.92E-07,6.37E-07,-0.00106425,0.001069496,-0.001064086,0.001069612,-0.001068707,0.001065029,-0.001068609,0.001065122,-0.001127557,0.001115364,-0.001114295,0.001128543,0.733114934,1473840,32975,0.006183724,0.006183753,0.004227703,24.1970332,0.000108776,0.000108776,0.000108776,1683106.827,0.016733836
16675200,0.999525222,0.016730169,0.005908601,0.005908627,0.00491294,-0.001489358,0.001489167,-6.80E-06,6.59E-06,-3.55E-07,2.22E-07,-0.001558953,0.001554133,-0.001554526,0.001558538,-0.001558822,0.001554297,-0.001554317,0.001558788,-0.001340307,0.001327046,-0.001327088,0.001340259,5.11E-07,-6.21E-08,4.49E-07,8.84E-08,-0.001489025,0.001489515,-0.001556176,0.001556963,-0.00155626,0.001556837,-0.001556307,0.001556749,-0.001556466,0.001556607,-0.00133328,0.001333993,-0.001333683,0.001333669,-0.001488763,0.001489677,-0.001489357,0.001488998,7.17E-06,-6.25E-06,-0.001015723,0.001016636,2.85E-07,6.46E-07,-0.001064402,0.001069644,-0.001064233,0.001069765,-0.001068857,0.001065178,-0.001068754,0.001065277,-0.001127463,0.001115281,-0.001114205,0.001128457,0.738816322,1473840,32975,0.006185635,0.006185664,0.004227004,24.08826536,0.000107906,0.000107906,0.000107906,1671280.011,0.016737015
16761600,0.999537979,0.016730374,0.005908674,0.0059087,0.004912999,-0.001489327,0.001489136,-6.79E-06,6.58E-06,-3.54E-07,2.22E-07,-0.001558833,0.001554017,-0.001554409,0.001558419,-0.001558703,0.001554181,-0.0015542,0.001558669,-0.00134033,0.001327077,-0.001327118,0.001340281,5.11E-07,-6.21E-08,4.51E-07,8.69E-08,-0.001488994,0.001489484,-0.001556058,0.001556846,-0.001556143,0.001556718,-0.001556189,0.001556631,-0.001556349,0.001556488,-0.001333305,0.001334021,-0.001333711,0.001333694,-0.001488802,0.001489715,-0.001489395,0.001489036,7.16E-06,-6.24E-06,-0.001015291,0.001016204,2.84E-07,6.48E-07,-0.001064162,0.001069401,-0.001063992,0.001069523,-0.001068615,0.001064938,-0.001068511,0.001065037,-0.001127024,0.001114851,-0.001113773,0.001128019,0.742279731,1473840,32975,0.006185504,0.006185533,0.004225217,23.9795026,0.000107036,0.000107036,0.000107036,1666205.705,0.016734932
16848000,0.999550314,0.016730573,0.005908745,0.005908771,0.004913056,-0.001489166,0.001488973,-6.79E-06,6.58E-06,-3.54E-07,2.20E-07,-0.001558663,0.001553847,-0.00155424,0.001558248,-0.001558533,0.00155401,-0.001554032,0.001558496,-0.001340157,0.001326907,-0.001326951,0.001340106,5.10E-07,-6.03E-08,4.50E-07,8.89E-08,-0.001488831,0.001489322,-0.001555888,0.001556675,-0.001555972,0.001556549,-0.001556018,0.001556462,-0.001556177,0.00155632,-0.001333134,0.001333849,-0.001333537,0.001333525,-0.001488642,0.001489554,-0.001489233,0.001488878,7.16E-06,-6.24E-06,-0.001014812,0.001015725,2.85E-07,6.46E-07,-0.001063818,0.001069056,-0.001063649,0.001069176,-0.001068269,0.001064594,-0.001068166,0.001064692,-0.001126528,0.001114361,-0.001113284,0.001127523,0.744956015,1473840,32975,0.006184832,0.006184861,0.004223232,23.87074041,0.000106166,0.000106166,0.000106166,1663172.522,0.016731547
16934400,0.999562241,0.016730765,0.005908814,0.00590884,0.004913112,-0.001488991,0.001488802,-6.79E-06,6.58E-06,-3.52E-07,2.22E-07,-0.001558492,0.001553682,-0.001554072,0.001558081,-0.001558362,0.001553846,-0.001553864,0.001558329,-0.00133995,0.001326712,-0.001326753,0.001339902,5.07E-07,-6.39E-08,4.43E-07,8.75E-08,-0.001488662,0.001489146,-0.001555725,0.001556503,-0.001555807,0.001556378,-0.001555855,0.00155629,-0.001556012,0.001556149,-0.001332939,0.001333643,-0.001333338,0.001333322,-0.001488472,0.001489378,-0.001489061,0.001488701,7.15E-06,-6.24E-06,-0.001014359,0.001015261,2.82E-07,6.38E-07,-0.001063469,0.001068695,-0.001063303,0.001068813,-0.001067919,0.001064236,-0.001067817,0.001064333,-0.001126076,0.001113904,-0.00111284,0.001127056,0.746976418,1473840,32975,0.006184115,0.006184143,0.004221332,23.76197842,0.000105296,0.000105296,0.000105296,1660517.96,0.016728157
17020800,0.999573778,0.016730951,0.00590888,0.005908906,0.004913165,-0.001488814,0.00148862,-6.79E-06,6.57E-06,-3.54E-07,2.18E-07,-0.001558324,0.001553512,-0.001553905,0.001557909,-0.001558195,0.001553674,-0.001553698,0.001558156,-0.001339742,0.001326503,-0.001326549,0.001339689,5.07E-07,-6.22E-08,4.43E-07,9.00E-08,-0.001488481,0.001488967,-0.001555555,0.001556334,-0.001555637,0.00155621,-0.001555685,0.001556121,-0.001555841,0.001555981,-0.001332731,0.001333434,-0.001333127,0.001333117,-0.001488285,0.001489193,-0.001488874,0.001488518,7.15E-06,-6.24E-06,-0.001013908,0.001014816,2.87E-07,6.40E-07,-0.001063114,0.001068345,-0.001062947,0.001068463,-0.001067561,0.001063887,-0.001067461,0.001063983,-0.001125626,0.001113463,-0.001112394,0.001126612,0.74480064,1473840,32975,0.006183369,0.006183398,0.004219476,23.65321812,0.000104426,0.000104426,0.000104426,1658199.294,0.016724756
17107200,0.999584938,0.016731131,0.005908944,0.00590897,0.004913217,-0.001488437,0.001488251,-6.78E-06,6.57E-06,-3.49E-07,2.21E-07,-0.001558072,0.00155327,-0.001553655,0.001557665,-0.001557942,0.001553432,-0.001553449,0.001557912,-0.001339235,0.001326011,-0.00132605,0.001339189,5.07E-07,-5.94E-08,4.42E-07,9.46E-08,-0.001488107,0.001488596,-0.001555308,0.001556088,-0.001555388,0.001555965,-0.001555437,0.001555876,-0.001555591,0.001555738,-0.001332232,0.001332935,-0.001332621,0.001332622,-0.001487803,0.001488712,-0.001488388,0.001488041,7.15E-06,-6.24E-06,-0.00101343,0.001014333,2.87E-07,6.35E-07,-0.001062629,0.001067854,-0.001062465,0.00106797,-0.001067074,0.001063398,-0.001066975,0.001063492,-0.001125141,0.001112978,-0.001111916,0.00112612,0.743707843,1473840,32975,0.006181824,0.006181854,0.00421748,23.54445709,0.000103556,0.000103556,0.000103556,1659155.565,0.016719584
17193600,0.999595542,0.016731301,0.005909005,0.005909031,0.004913266,-0.001487583,0.001487369,-6.79E-06,6.55E-06,-3.64E-07,2.08E-07,-0.001557297,0.001552471,-0.001552883,0.001556863,-0.001557166,0.001552634,-0.001552677,0.00155711,-0.001338287,0.001325048,-0.001325115,0.001338214,5.02E-07,-6.58E-08,4.29E-07,9.50E-08,-0.001487244,0.001487722,-0.00155453,0.001555293,-0.001554604,0.001555175,-0.00155466,0.001555081,-0.001554808,0.001554948,-0.001331291,0.001331968,-0.001331665,0.001331668,-0.001486878,0.001487781,-0.001487464,0.001487109,7.13E-06,-6.24E-06,-0.001012524,0.001013407,2.84E-07,6.19E-07,-0.001061712,0.001066918,-0.001061553,0.00106703,-0.001066154,0.001062467,-0.001066058,0.001062557,-0.001124235,0.001112061,-0.001111022,0.001125189,0.74096813,1473840,32975,0.00617823,0.00617826,0.004213679,23.13403302,0.000100272,0.000100272,0.000100272,1657810.047,0.016708411
17280000,0.999605608,0.016731462,0.005909062,0.005909088,0.004913312,-0.001486608,0.001486365,-6.80E-06,6.53E-06,-3.81E-07,1.94E-07,-0.001556432,0.001551579,-0.001552023,0.001555968,-0.001556298,0.001551743,-0.001551816,0.001556215,-0.001337199,0.001323945,-0.001324041,0.001337095,4.86E-07,-8.55E-08,4.05E-07,8.34E-08,-0.001486272,0.001486714,-0.001553671,0.001554396,-0.00155374,0.001554281,-0.001553803,0.001554183,-0.001553945,0.001554054,-0.00133022,0.001330848,-0.00133058,0.001330559,-0.001485805,0.001486681,-0.001486395,0.001486006,7.13E-06,-6.23E-06,-0.001011561,0.001012452,2.94E-07,6.17E-07,-0.0010607,0.001065912,-0.001060547,0.001066021,-0.001065138,0.001061466,-0.001065046,0.001061552,-0.001123265,0.001111109,-0.001110065,0.001124223,0.737183585,1473840,32975,0.006174133,0.006174162,0.004209699,22.69913128,9.68E-05,9.68E-05,9.68E-05,1657636.311,0.016696032
17366400,0.99961517,0.016731614,0.005909116,0.005909142,0.004913355,-0.00148557,0.001485319,-6.79E-06,6.52E-06,-3.87E-07,1.93E-07,-0.001555537,0.001550681,-0.001551135,0.001555064,-0.001555402,0.001550847,-0.001550926,0.001555312,-0.001336011,0.001322768,-0.001322871,0.001335901,4.84E-07,-9.21E-08,3.91E-07,8.81E-08,-0.001485235,0.001485668,-0.001552781,0.001553493,-0.001552845,0.001553384,-0.001552915,0.001553278,-0.001553051,0.001553156,-0.001329053,0.001329651,-0.001329394,0.00132938,-0.001484642,0.001485518,-0.001485234,0.00148484,7.10E-06,-6.23E-06,-0.001010618,0.001011479,2.89E-07,5.93E-07,-0.001059665,0.001064849,-0.001059517,0.001064951,-0.001064097,0.001060408,-0.001064011,0.001060487,-0.001122321,0.001110146,-0.001109138,0.001123244,0.733029231,1473840,32975,0.006169818,0.006169847,0.004205722,22.26225298,9.33E-05,9.33E-05,9.33E-05,1658313.791,0.016683214
17452800,0.999624256,0.016731757,0.005909167,0.005909193,0.004913396,-0.00148452,0.001484253,-6.79E-06,6.50E-06,-3.94E-07,1.84E-07,-0.001554642,0.001549775,-0.001550243,0.001554153,-0.001554507,0.001549941,-0.001550036,0.001554401,-0.0013348,0.001321556,-0.001321674,0.001334674,4.81E-07,-9.36E-08,3.82E-07,9.34E-08,-0.001484179,0.001484608,-0.001551885,0.001552588,-0.001551945,0.001552483,-0.001552019,0.001552373,-0.00155215,0.001552256,-0.001327849,0.001328428,-0.001328176,0.001328174,-0.001483457,0.00148433,-0.001484047,0.001483655,7.10E-06,-6.23E-06,-0.001009667,0.00101053,2.97E-07,5.86E-07,-0.001058603,0.001063789,-0.001058461,0.001063887,-0.001063031,0.001059354,-0.001062949,0.001059428,-0.001121376,0.001109212,-0.001108207,0.001122296,0.728726903,1473840,32975,0.006165437,0.006165466,0.004201776,21.82518561,8.98E-05,8.98E-05,8.98E-05,1659362.645,0.016670293
17539200,0.999632895,0.016731892,0.005909215,0.005909242,0.004913435,-0.001483439,0.001483198,-6.77E-06,6.50E-06,-3.80E-07,1.95E-07,-0.001553722,0.00154889,-0.001549331,0.001553259,-0.001553588,0.001549054,-0.001549124,0.001553505,-0.001333546,0.00132035,-0.001320444,0.001333443,4.83E-07,-8.86E-08,3.80E-07,1.02E-07,-0.001483108,0.001483544,-0.001550982,0.001551687,-0.001551038,0.001551585,-0.001551114,0.001551473,-0.001551243,0.001551359,-0.00132662,0.001327197,-0.001326936,0.001326954,-0.001482253,0.001483134,-0.001482841,0.001482462,7.14E-06,-6.16E-06,-0.001008668,0.001009644,3.58E-07,6.37E-07,-0.001057486,0.001062778,-0.001057347,0.001062872,-0.001061904,0.001058352,-0.001061826,0.001058423,-0.001120383,0.001108354,-0.001107238,0.001121411,0.724568795,1473840,32975,0.006161017,0.006161047,0.004197864,21.38809919,8.63E-05,8.63E-05,8.63E-05,1660622.187,0.016657329
17625600,0.999641114,0.016732021,0.005909261,0.005909287,0.004913472,-0.001482367,0.001482148,-6.74E-06,6.50E-06,-3.68E-07,2.06E-07,-0.001552807,0.001548007,-0.001548425,0.001552367,-0.001552673,0.001548171,-0.001548218,0.001552613,-0.001332299,0.001319151,-0.001319221,0.001332219,4.82E-07,-8.97E-08,3.74E-07,1.05E-07,-0.001482048,0.001482481,-0.001550085,0.001550785,-0.001550139,0.001550686,-0.001550218,0.001550571,-0.001550344,0.00155046,-0.001325402,0.001325968,-0.001325709,0.001325733,-0.001481064,0.001481944,-0.001481651,0.001481273,7.16E-06,-6.11E-06,-0.001007707,0.001008741,3.91E-07,6.62E-07,-0.001056403,0.001061747,-0.001056266,0.001061838,-0.001060813,0.001057328,-0.001060737,0.001057397,-0.001119432,0.001107482,-0.001106312,0.001120515,0.721339672,1473840,32975,0.006156624,0.006156654,0.004193994,20.9510106,8.28E-05,8.28E-05,8.28E-05,1661823.386,0.016644461
17712000,0.999648937,0.016732142,0.005909305,0.005909331,0.004913507,-0.001481379,0.001481136,-6.74E-06,6.48E-06,-3.81E-07,1.95E-07,-0.001551944,0.001547125,-0.001547568,0.001551479,-0.00155181,0.00154729,-0.001547361,0.001551726,-0.001331166,0.001318013,-0.001318107,0.001331063,4.84E-07,-8.91E-08,3.75E-07,1.08E-07,-0.001481047,0.001481482,-0.001549211,0.001549913,-0.001549264,0.001549815,-0.001549344,0.001549698,-0.001549469,0.001549588,-0.001324268,0.001324833,-0.001324572,0.0013246,-0.001479966,0.001480852,-0.001480554,0.001480178,7.12E-06,-6.14E-06,-0.001006825,0.001007798,3.62E-07,6.31E-07,-0.001055421,0.001060699,-0.001055284,0.00106079,-0.001059824,0.001056287,-0.00105975,0.001056354,-0.001118569,0.001106576,-0.001105468,0.001119591,0.718092454,1473840,32975,0.006152484,0.006152512,0.004190206,20.51457328,7.93E-05,7.93E-05,7.93E-05,1662080.875,0.01663219
17798400,0.999656395,0.016732257,0.005909346,0.005909372,0.00491354,-0.001480374,0.001480191,-6.70E-06,6.50E-06,-3.51E-07,2.25E-07,-0.001551063,0.001546311,-0.001546696,0.001550657,-0.001550929,0.001546476,-0.001546489,0.001550904,-0.001330014,0.001316947,-0.001316982,0.001329971,5.00E-07,-7.33E-08,3.82E-07,1.31E-07,-0.001480056,0.001480523,-0.001548349,0.001549078,-0.001548398,0.001548986,-0.001548482,0.001548863,-0.001548603,0.001548758,-0.001323152,0.001323732,-0.001323443,0.001323515,-0.001478875,0.001479799,-0.001479462,0.001479123,7.12E-06,-6.11E-06,-0.001005929,0.001006928,3.83E-07,6.36E-07,-0.001054425,0.001059727,-0.001054294,0.001059812,-0.001058819,0.001055323,-0.001058751,0.001055385,-0.001117689,0.001105743,-0.001104614,0.001118732,0.714831851,1473840,32975,0.006148448,0.006148476,0.004186541,20.09408701,7.60E-05,7.60E-05,7.60E-05,1662491.734,0.016620255
17884800,0.999663505,0.016732367,0.005909385,0.005909411,0.004913571,-0.001479362,0.001479212,-6.67E-06,6.50E-06,-3.35E-07,2.42E-07,-0.001550174,0.001545463,-0.001545815,0.001549801,-0.001550041,0.001545628,-0.001545607,0.001550049,-0.001328859,0.001315845,-0.001315846,0.001328851,4.93E-07,-8.13E-08,3.69E-07,1.28E-07,-0.001479067,0.00147952,-0.001547489,0.001548201,-0.001547535,0.001548112,-0.001547623,0.001547987,-0.00154774,0.001547884,-0.001322036,0.001322592,-0.001322318,0.001322382,-0.001477785,0.001478699,-0.001478374,0.001478022,7.12E-06,-6.09E-06,-0.001005023,0.001006048,4.01E-07,6.44E-07,-0.001053412,0.001058736,-0.001053285,0.001058817,-0.001057799,0.001054338,-0.001057734,0.001054398,-0.001116802,0.001104898,-0.001103747,0.001117868,0.711561461,1473840,32975,0.006144325,0.006144353,0.004182833,19.66625403,7.25E-05,7.25E-05,7.25E-05,1662982.365,0.016608103
17971200,0.999670289,0.016732471,0.005909422,0.005909448,0.004913601,-0.001478389,0.00147821,-6.69E-06,6.49E-06,-3.52E-07,2.31E-07,-0.001549337,0.001544596,-0.001544978,0.001548933,-0.001549201,0.001544763,-0.001544769,0.001549183,-0.001327744,0.001314707,-0.001314738,0.001327709,5.01E-07,-7.88E-08,3.70E-07,1.39E-07,-0.001478074,0.001478538,-0.001546631,0.001547353,-0.001546673,0.001547268,-0.001546766,0.001547136,-0.001546881,0.001547038,-0.00132091,0.001321465,-0.001321182,0.001321266,-0.001476684,0.001477618,-0.001477278,0.001476936,7.09E-06,-6.11E-06,-0.001004173,0.001005142,3.78E-07,6.11E-07,-0.00105245,0.001057721,-0.001052325,0.001057799,-0.001056837,0.001053325,-0.001056775,0.001053381,-0.001115978,0.001104018,-0.001102926,0.001116982,0.711457686,1473840,32975,0.006140238,0.006140264,0.004179187,19.24628334,6.92E-05,6.92E-05,6.92E-05,1663637.384,0.016596084
18057600,0.999676766,0.016732571,0.005909458,0.005909484,0.00491363,-0.001477643,0.001477465,-6.68E-06,6.48E-06,-3.51E-07,2.32E-07,-0.001548582,0.001543847,-0.001544228,0.00154818,-0.001548447,0.001544014,-0.001544019,0.00154843,-0.00132697,0.001313944,-0.001313976,0.001326938,5.04E-07,-7.58E-08,3.72E-07,1.43E-07,-0.001477325,0.001477795,-0.001545877,0.001546602,-0.001545917,0.001546518,-0.001546012,0.001546386,-0.001546125,0.001546288,-0.001320141,0.001320701,-0.001320411,0.001320503,-0.001475964,0.001476905,-0.001476558,0.001476221,7.07E-06,-6.12E-06,-0.001003358,0.001004292,3.62E-07,5.92E-07,-0.001051633,0.001056865,-0.001051509,0.001056943,-0.001056015,0.001052474,-0.001055955,0.00105253,-0.001115203,0.001103218,-0.001102163,0.001116169,0.713811085,1473840,32975,0.00613715,0.006137174,0.004175733,18.82680409,6.58E-05,6.58E-05,6.58E-05,1660366.284,0.016586293
18144000,0.999682952,0.016732667,0.005909492,0.005909518,0.004913657,-0.001477059,0.001476918,-6.66E-06,6.49E-06,-3.33E-07,2.50E-07,-0.001547877,0.001543183,-0.001543527,0.001547511,-0.001547742,0.001543349,-0.001543317,0.001547761,-0.001326462,0.001313484,-0.001313477,0.001326466,5.04E-07,-7.65E-08,3.74E-07,1.40E-07,-0.001476761,0.001477229,-0.001545191,0.001545917,-0.001545233,0.001545832,-0.001545326,0.001545701,-0.001545441,0.001545601,-0.001319655,0.001320218,-0.001319931,0.001320017,-0.001475527,0.001476467,-0.001476124,0.001475782,7.06E-06,-6.12E-06,-0.001002561,0.001003496,3.59E-07,5.95E-07,-0.001050928,0.001056156,-0.001050802,0.001056235,-0.001055306,0.001051768,-0.001055245,0.001051826,-0.001114447,0.001102477,-0.001101421,0.001115417,0.715349825,1473840,32975,0.006134808,0.006134833,0.004172432,18.40735774,6.25E-05,6.25E-05,6.25E-05,1654108.527,0.016578176
18230400,0.999688863,0.016732759,0.005909525,0.005909551,0.004913683,-0.001476425,0.001476267,-6.66E-06,6.48E-06,-3.43E-07,2.43E-07,-0.001547146,0.001542438,-0.001542801,0.001546762,-0.001547013,0.001542605,-0.001542589,0.001547014,-0.001325905,0.001312922,-0.001312928,0.001325892,5.11E-07,-7.15E-08,3.81E-07,1.47E-07,-0.001476113,0.001476593,-0.001544449,0.001545188,-0.001544492,0.001545104,-0.001544584,0.00154497,-0.001544701,0.001544871,-0.001319086,0.001319662,-0.001319365,0.001319462,-0.001474958,0.001475912,-0.001475559,0.001475225,7.05E-06,-6.12E-06,-0.001001761,0.001002678,3.50E-07,5.85E-07,-0.001050222,0.001055428,-0.001050095,0.001055506,-0.001054595,0.001051043,-0.001054534,0.0010511,-0.001113654,0.001101676,-0.001100639,0.001114611,0.715593119,1473840,32975,0.006132146,0.006132175,0.004169077,17.98791359,5.91E-05,5.91E-05,5.91E-05,1649014.365,0.016569358
18316800,0.999694525,0.016732846,0.005909556,0.005909582,0.004913708,-0.001475771,0.001475554,-6.68E-06,6.44E-06,-3.72E-07,2.13E-07,-0.001546468,0.001541706,-0.001542126,0.001546026,-0.001546334,0.001541873,-0.001541915,0.001546278,-0.001325251,0.001312221,-0.001312287,0.00132518,5.07E-07,-7.42E-08,3.74E-07,1.47E-07,-0.001475432,0.001475907,-0.001543748,0.001544479,-0.001543789,0.001544396,-0.001543883,0.001544261,-0.001543997,0.001544164,-0.001318415,0.001318979,-0.001318687,0.001318785,-0.001474306,0.001475256,-0.001474906,0.00147457,7.03E-06,-6.12E-06,-0.001000986,0.001001888,3.46E-07,5.74E-07,-0.00104947,0.001054659,-0.001049345,0.001054735,-0.001053839,0.001050279,-0.00105378,0.001050333,-0.001112898,0.001100915,-0.001099894,0.001113836,0.715885399,1473840,32975,0.006129316,0.006129344,0.004165832,17.5993444,5.60E-05,5.60E-05,5.60E-05,1645726.648,0.016560304
18403200,0.999700044,0.016732932,0.005909586,0.005909613,0.004913733,-0.001475637,0.001475417,-6.68E-06,6.44E-06,-3.72E-07,2.10E-07,-0.001546313,0.00154155,-0.001541974,0.001545868,-0.00154618,0.001541716,-0.001541763,0.001546119,-0.001325104,0.001312074,-0.001312143,0.001325028,5.11E-07,-6.82E-08,3.80E-07,1.51E-07,-0.001475292,0.001475776,-0.001543589,0.001544328,-0.00154363,0.001544245,-0.001543722,0.001544111,-0.001543837,0.001544014,-0.001318261,0.001318836,-0.001318535,0.001318642,-0.001474206,0.001475163,-0.001474804,0.001474479,7.02E-06,-6.13E-06,-0.001000663,0.001001544,3.35E-07,5.64E-07,-0.001049179,0.001054345,-0.001049054,0.001054422,-0.001053546,0.001049967,-0.001053487,0.001050021,-0.001112623,0.001100624,-0.001099624,0.001113541,0.716217682,1473840,32975,0.006128756,0.006128784,0.004164452,17.48530348,5.51E-05,5.51E-05,5.51E-05,1643323.859,0.016557763
18489600,0.999705428,0.016733015,0.005909616,0.005909642,0.004913757,-0.001475524,0.001475303,-6.68E-06,6.44E-06,-3.72E-07,2.08E-07,-0.001546184,0.001541422,-0.001541846,0.001545738,-0.001546052,0.001541588,-0.001541636,0.001545989,-0.001324969,0.001311943,-0.001312014,0.001324891,5.11E-07,-6.60E-08,3.81E-07,1.52E-07,-0.001475178,0.001475664,-0.001543459,0.0015442,-0.0015435,0.001544117,-0.001543592,0.001543984,-0.001543707,0.001543886,-0.001318126,0.001318705,-0.0013184,0.001318511,-0.001474129,0.001475085,-0.001474725,0.001474404,7.02E-06,-6.13E-06,-0.00100035,0.001001228,3.33E-07,5.63E-07,-0.0010489,0.001054062,-0.001048775,0.001054138,-0.001053266,0.001049685,-0.001053207,0.00104974,-0.001112357,0.001100361,-0.001099364,0.001113272,0.716586767,1473840,32975,0.006128285,0.006128314,0.004163147,17.38233256,5.43E-05,5.43E-05,5.43E-05,1640984.925,0.01655548
18576000,0.999710681,0.016733096,0.005909645,0.005909671,0.00491378,-0.001475411,0.00147519,-6.68E-06,6.43E-06,-3.71E-07,2.08E-07,-0.001546054,0.001541295,-0.001541718,0.001545609,-0.001545922,0.00154146,-0.001541509,0.001545859,-0.001324842,0.00131182,-0.001311892,0.001324763,5.06E-07,-7.03E-08,3.78E-07,1.45E-07,-0.001475069,0.001475546,-0.001543334,0.001544067,-0.001543376,0.001543982,-0.001543467,0.001543851,-0.001543583,0.001543752,-0.001318005,0.001318577,-0.001318282,0.001318379,-0.001474057,0.001475002,-0.001474651,0.001474321,7.02E-06,-6.12E-06,-0.001000027,0.001000927,3.42E-07,5.76E-07,-0.001048613,0.001053792,-0.001048486,0.00105387,-0.001052977,0.001049418,-0.001052916,0.001049474,-0.001112075,0.001100107,-0.001099086,0.001113012,0.711770782,1473840,32975,0.006127816,0.006127844,0.004161855,17.2800535,5.34E-05,5.34E-05,5.34E-05,1638618.192,0.016553212
18662400,0.999715808,0.016733176,0.005909673,0.0059097,0.004913803,-0.001474923,0.001474705,-6.67E-06,6.43E-06,-3.66E-07,2.06E-07,-0.001545782,0.001541031,-0.001541449,0.001545341,-0.001545652,0.001541194,-0.001541242,0.001545589,-0.001324111,0.001311101,-0.001311171,0.001324034,5.08E-07,-6.13E-08,3.80E-07,1.56E-07,-0.001474577,0.001475065,-0.001543063,0.001543802,-0.001543103,0.001543721,-0.001543193,0.001543589,-0.001543307,0.001543492,-0.001317277,0.001317855,-0.001317546,0.001317665,-0.001473402,0.001474355,-0.001473991,0.001473681,7.01E-06,-6.12E-06,-0.00099964,0.001000523,3.38E-07,5.63E-07,-0.00104807,0.001053233,-0.001047947,0.001053308,-0.001052431,0.001048862,-0.001052373,0.001048915,-0.001111727,0.00109975,-0.001098749,0.001112646,0.717343095,1473840,32975,0.0061258,0.006125829,0.004160211,17.17782068,5.26E-05,5.26E-05,5.26E-05,1642438.52,0.016547442
18748800,0.999720812,0.016733254,0.005909701,0.005909727,0.004913825,-0.001475195,0.001474993,-6.66E-06,6.44E-06,-3.59E-07,2.14E-07,-0.001545796,0.001541061,-0.001541463,0.001545371,-0.001545666,0.001541223,-0.001541256,0.001545619,-0.001324586,0.001311593,-0.001311647,0.001324525,5.09E-07,-6.13E-08,3.87E-07,1.49E-07,-0.001474857,0.001475345,-0.001543083,0.001543826,-0.001543127,0.001543741,-0.001543213,0.001543613,-0.001543331,0.001543512,-0.001317753,0.001318345,-0.001318036,0.001318142,-0.001473932,0.001474881,-0.001474521,0.001474206,7.01E-06,-6.12E-06,-0.000999425,0.001000304,3.29E-07,5.68E-07,-0.001048084,0.001053238,-0.001047956,0.001053318,-0.001052445,0.001048868,-0.001052382,0.001048925,-0.001111573,0.001099598,-0.001098596,0.001112493,0.72279301,1473840,32975,0.006126959,0.006126988,0.004159317,17.07559101,5.18E-05,5.18E-05,5.18E-05,1633803.68,0.016548891
18835200,0.999725696,0.016733331,0.005909728,0.005909755,0.004913847,-0.001475434,0.001475235,-6.66E-06,6.44E-06,-3.57E-07,2.17E-07,-0.001545801,0.001541069,-0.001541468,0.00154538,-0.001545671,0.001541233,-0.00154126,0.001545629,-0.001325002,0.001312011,-0.00131206,0.001324945,5.09E-07,-6.18E-08,3.93E-07,1.43E-07,-0.001475097,0.001475586,-0.001543087,0.001543835,-0.001543135,0.001543746,-0.001543218,0.001543622,-0.00154334,0.001543517,-0.001318164,0.001318768,-0.001318459,0.001318553,-0.001474401,0.001475349,-0.001474992,0.001474671,7.01E-06,-6.12E-06,-0.00099921,0.001000094,3.26E-07,5.76E-07,-0.001048073,0.001053228,-0.001047941,0.001053312,-0.001052434,0.001048857,-0.001052368,0.001048918,-0.001111425,0.001099456,-0.001098446,0.001112353,0.724423923,1473840,32975,0.006127953,0.006127982,0.004158443,16.9733616,5.10E-05,5.10E-05,5.10E-05,1625882.903,0.016550025
18921600,0.999730464,0.016733406,0.005909755,0.005909781,0.004913869,-0.001475377,0.001475179,-6.66E-06,6.44E-06,-3.57E-07,2.17E-07,-0.001545691,0.001540961,-0.00154136,0.00154527,-0.001545561,0.001541124,-0.001541151,0.001545519,-0.001324963,0.001311977,-0.001312027,0.001324907,5.09E-07,-6.21E-08,3.93E-07,1.42E-07,-0.001475041,0.001475529,-0.001542978,0.001543726,-0.001543026,0.001543636,-0.001543108,0.001543512,-0.001543231,0.001543407,-0.001318128,0.001318733,-0.001318425,0.001318515,-0.001474413,0.001475359,-0.001475004,0.001474682,7.01E-06,-6.11E-06,-0.000998904,0.000999798,3.30E-07,5.82E-07,-0.001047836,0.001052999,-0.001047703,0.001053084,-0.001052196,0.001048629,-0.001052129,0.001048692,-0.001111158,0.001099204,-0.001098183,0.001112096,0.726159561,1473840,32975,0.006127719,0.006127748,0.004157195,16.87113218,5.02E-05,5.02E-05,5.02E-05,1622593.118,0.016548281
19008000,0.999735119,0.016733479,0.005909781,0.005909808,0.00491389,-0.001475318,0.001475121,-6.65E-06,6.44E-06,-3.57E-07,2.18E-07,-0.001545578,0.001540852,-0.001541249,0.001545159,-0.001545448,0.001541015,-0.00154104,0.001545408,-0.00132492,0.00131194,-0.001311988,0.001324866,5.09E-07,-6.25E-08,3.95E-07,1.39E-07,-0.001474983,0.00147547,-0.001542866,0.001543616,-0.001542916,0.001543524,-0.001542997,0.001543402,-0.001543121,0.001543295,-0.001318086,0.001318695,-0.001318387,0.001318473,-0.001474421,0.001475366,-0.001475013,0.001474689,7.01E-06,-6.11E-06,-0.000998603,0.000999496,3.27E-07,5.84E-07,-0.001047605,0.001052764,-0.00104747,0.00105285,-0.001051962,0.001048396,-0.001051894,0.00104846,-0.001110896,0.001098947,-0.001097926,0.001111835,0.730768366,1473840,32975,0.006127476,0.006127504,0.004155947,16.7689026,4.94E-05,4.94E-05,4.94E-05,1619291.58,0.016546518
19094400,0.999739675,0.016733551,0.005909807,0.005909833,0.004913911,-0.001475504,0.001475312,-6.65E-06,6.44E-06,-3.55E-07,2.21E-07,-0.001545612,0.00154089,-0.001541284,0.001545197,-0.001545482,0.001541054,-0.001541075,0.001545446,-0.001325205,0.00131223,-0.001312274,0.001325154,5.10E-07,-6.29E-08,3.99E-07,1.35E-07,-0.001475171,0.001475659,-0.001542902,0.001543653,-0.001542954,0.00154356,-0.001543033,0.001543439,-0.001543159,0.00154333,-0.00131837,0.001318985,-0.001318679,0.001318757,-0.001474771,0.001475715,-0.001475363,0.001475036,7.00E-06,-6.12E-06,-0.000998424,0.000999302,3.16E-07,5.80E-07,-0.001047569,0.00105271,-0.001047432,0.001052798,-0.001051926,0.001048343,-0.001051856,0.001048409,-0.001110778,0.001098818,-0.00109781,0.001111704,0.7318597,1473840,32975,0.006128255,0.006128285,0.004155178,16.70541731,4.88E-05,4.88E-05,4.88E-05,1613457.154,0.016547323
19180800,0.999744214,0.016733624,0.005909833,0.005909859,0.004913932,-0.001475991,0.001475789,-6.66E-06,6.44E-06,-3.56E-07,2.12E-07,-0.00154609,0.001541358,-0.001541759,0.001545666,-0.001545962,0.001541518,-0.001541552,0.001545913,-0.00132567,0.001312676,-0.001312732,0.001325605,5.07E-07,-5.71E-08,4.00E-07,1.38E-07,-0.001475652,0.001476143,-0.001543374,0.001544126,-0.001543426,0.001544033,-0.001543502,0.001543915,-0.001543629,0.001543806,-0.001318821,0.001319442,-0.00131913,0.001319215,-0.001475276,0.001476216,-0.001475861,0.001475545,7.01E-06,-6.12E-06,-0.00099859,0.000999472,3.18E-07,5.81E-07,-0.001047811,0.001052958,-0.001047674,0.001053046,-0.00105217,0.001048589,-0.0010521,0.001048655,-0.00111099,0.001099029,-0.001098015,0.001111921,0.740438633,1473840,32975,0.00613025,0.00613028,0.004155878,16.91937638,5.06E-05,5.06E-05,5.06E-05,1612366.11,0.01655209
19267200,0.999748737,0.016733697,0.005909859,0.005909885,0.004913953,-0.001476951,0.001476756,-6.66E-06,6.44E-06,-3.51E-07,2.14E-07,-0.001546777,0.001542051,-0.001542444,0.001546362,-0.00154665,0.001542211,-0.001542239,0.001546608,-0.001326824,0.001313832,-0.001313881,0.001326768,5.07E-07,-5.51E-08,4.08E-07,1.33E-07,-0.001476614,0.001477107,-0.001544062,0.00154482,-0.001544118,0.001544722,-0.001544189,0.001544609,-0.00154432,0.001544495,-0.00131997,0.001320606,-0.001320289,0.001320366,-0.00147651,0.001477444,-0.001477092,0.001476776,7.01E-06,-6.12E-06,-0.000998948,0.000999834,3.14E-07,5.90E-07,-0.001048428,0.001053577,-0.001048287,0.00105367,-0.001052789,0.001049205,-0.001052714,0.001049275,-0.001111446,0.001099486,-0.001098465,0.001112385,0.741736904,1473840,32975,0.006134239,0.006134268,0.004157381,17.14452688,5.24E-05,5.24E-05,5.24E-05,1604394.521,0.016561729
19353600,0.999753244,0.016733769,0.005909885,0.005909911,0.004913974,-0.00147736,0.001477163,-6.66E-06,6.44E-06,-3.52E-07,2.13E-07,-0.001547237,0.001542509,-0.001542903,0.00154682,-0.00154711,0.001542669,-0.001542699,0.001547066,-0.001327152,0.001314157,-0.001314208,0.001327093,5.07E-07,-5.36E-08,4.10E-07,1.33E-07,-0.001477021,0.001477516,-0.001544519,0.001545279,-0.001544576,0.001545181,-0.001544647,0.001545069,-0.001544778,0.001544955,-0.001320294,0.001320934,-0.001320615,0.001320692,-0.001476883,0.001477817,-0.001477464,0.00147715,7.01E-06,-6.12E-06,-0.000999039,0.000999927,3.14E-07,5.92E-07,-0.001048599,0.001053749,-0.001048457,0.001053842,-0.00105296,0.001049377,-0.001052885,0.001049448,-0.001111552,0.001099593,-0.00109857,0.001112493,0.741868599,1473840,32975,0.006135926,0.006135955,0.004157765,17.37037663,5.42E-05,5.42E-05,5.42E-05,1604270.137,0.01656555
19440000,0.999757733,0.016733841,0.00590991,0.005909936,0.004913995,-0.001477745,0.001477557,-6.66E-06,6.45E-06,-3.46E-07,2.17E-07,-0.001547683,0.001542963,-0.001543348,0.001547274,-0.001547557,0.001543123,-0.001543143,0.001547519,-0.001327459,0.00131447,-0.001314511,0.001327406,5.09E-07,-5.05E-08,4.14E-07,1.33E-07,-0.001477408,0.001477908,-0.001544966,0.001545732,-0.001545026,0.001545632,-0.001545091,0.001545521,-0.001545226,0.001545406,-0.001320596,0.001321246,-0.001320924,0.001321001,-0.001477228,0.001478163,-0.001477807,0.001477498,7.02E-06,-6.12E-06,-0.000999163,0.001000052,3.12E-07,5.94E-07,-0.001048778,0.001053929,-0.001048634,0.001054023,-0.00105314,0.001049556,-0.001053063,0.001049628,-0.001111691,0.001099735,-0.001098708,0.001112636,0.741059428,1473840,32975,0.006137537,0.006137567,0.004158283,17.59627315,5.60E-05,5.60E-05,5.60E-05,1604635.207,0.016569353
19526400,0.999762204,0.016733913,0.005909936,0.005909962,0.004914016,-0.001478121,0.00147794,-6.65E-06,6.45E-06,-3.42E-07,2.20E-07,-0.001548136,0.001543423,-0.0015438,0.001547735,-0.00154801,0.001543582,-0.001543595,0.001547979,-0.001327733,0.001314747,-0.001314782,0.001327686,5.09E-07,-4.95E-08,4.17E-07,1.31E-07,-0.001477788,0.001478288,-0.001545422,0.00154619,-0.001545484,0.001546088,-0.001545547,0.00154598,-0.001545683,0.001545863,-0.001320869,0.001321525,-0.001321201,0.001321275,-0.001477562,0.001478495,-0.00147814,0.001477831,7.02E-06,-6.12E-06,-0.000999302,0.001000193,3.11E-07,5.98E-07,-0.001048938,0.001054091,-0.001048793,0.001054187,-0.001053301,0.001049717,-0.001053223,0.001049791,-0.001111864,0.001099909,-0.001098877,0.001112813,0.739538567,1473840,32975,0.006139109,0.00613914,0.004158865,17.82217297,5.78E-05,5.78E-05,5.78E-05,1605531.773,0.016573141
19612800,0.999766654,0.016733984,0.005909961,0.005909987,0.004914036,-0.001478497,0.001478309,-6.66E-06,6.45E-06,-3.46E-07,2.16E-07,-0.001548613,0.001543893,-0.001544277,0.001548207,-0.001548488,0.001544052,-0.001544073,0.001548451,-0.001327957,0.001314961,-0.001315004,0.001327905,5.09E-07,-4.90E-08,4.19E-07,1.29E-07,-0.00147816,0.00147866,-0.001545895,0.001546664,-0.001545956,0.001546561,-0.001546021,0.001546455,-0.001546157,0.001546336,-0.001321087,0.001321747,-0.001321423,0.001321493,-0.001477889,0.001478821,-0.001478467,0.001478157,7.02E-06,-6.12E-06,-0.000999451,0.001000344,3.10E-07,6.01E-07,-0.001049062,0.001054216,-0.001048916,0.001054314,-0.001053426,0.001049841,-0.001053346,0.001049917,-0.001112084,0.001100128,-0.001099095,0.001113036,0.737517017,1473840,32975,0.006140653,0.006140681,0.004159488,18.04807305,5.96E-05,5.96E-05,5.96E-05,1606905.246,0.01657691
19699200,0.999771084,0.016734055,0.005909986,0.005910012,0.004914056,-0.001478861,0.001478659,-6.67E-06,6.45E-06,-3.53E-07,2.09E-07,-0.001549072,0.001544336,-0.001544734,0.001548651,-0.001548947,0.001544495,-0.00154453,0.001548896,-0.001328202,0.001315189,-0.001315244,0.001328136,5.10E-07,-4.89E-08,4.21E-07,1.29E-07,-0.001478516,0.001479018,-0.001546345,0.001547117,-0.001546408,0.001547013,-0.001546471,0.001546906,-0.001546608,0.001546788,-0.001321321,0.001321984,-0.001321659,0.001321728,-0.001478186,0.00147912,-0.001478765,0.001478456,7.02E-06,-6.12E-06,-0.00099962,0.001000514,3.09E-07,6.03E-07,-0.001049218,0.001054374,-0.001049071,0.001054472,-0.001053584,0.001049998,-0.001053503,0.001050073,-0.0011123,0.001100342,-0.001099307,0.001113254,0.735152123,1473840,32975,0.00614213,0.00614216,0.004160191,18.27397319,6.14E-05,6.14E-05,6.14E-05,1608414.955,0.016580629
19785600,0.99977549,0.016734124,0.005910011,0.005910037,0.004914077,-0.001479217,0.001479004,-6.68E-06,6.44E-06,-3.59E-07,2.04E-07,-0.001549535,0.001544785,-0.001545196,0.001549102,-0.001549409,0.001544945,-0.001544991,0.001549347,-0.00132842,0.001315392,-0.001315458,0.001328343,5.10E-07,-4.98E-08,4.22E-07,1.27E-07,-0.001478867,0.001479368,-0.001546801,0.001547573,-0.001546865,0.001547469,-0.001546927,0.001547362,-0.001547065,0.001547243,-0.001321531,0.001322195,-0.001321871,0.001321937,-0.001478475,0.001479409,-0.001479056,0.001478744,7.03E-06,-6.12E-06,-0.000999793,0.001000689,3.09E-07,6.04E-07,-0.001049358,0.001054516,-0.001049211,0.001054615,-0.001053725,0.001050138,-0.001053644,0.001050215,-0.001112534,0.001100574,-0.001099536,0.00111349,0.732543546,1473840,32975,0.006143581,0.00614361,0.004160914,18.49987339,6.32E-05,6.32E-05,6.32E-05,1610188.642,0.016584314
19872000,0.999779864,0.016734193,0.005910035,0.005910062,0.004914096,-0.001479491,0.00147928,-6.68E-06,6.44E-06,-3.58E-07,2.04E-07,-0.00154992,0.001545171,-0.001545579,0.001549488,-0.001549794,0.00154533,-0.001545375,0.001549733,-0.001328556,0.001315526,-0.001315591,0.001328479,5.11E-07,-4.81E-08,4.23E-07,1.28E-07,-0.001479141,0.001479645,-0.001547185,0.00154796,-0.001547249,0.001547855,-0.00154731,0.001547749,-0.001547449,0.001547629,-0.001321664,0.001322332,-0.001322004,0.001322073,-0.001478683,0.001479618,-0.001479263,0.001478954,7.03E-06,-6.12E-06,-0.000999919,0.001000815,3.09E-07,6.04E-07,-0.001049443,0.001054603,-0.001049296,0.001054701,-0.001053812,0.001050224,-0.00105373,0.0010503,-0.001112717,0.001100754,-0.001099716,0.001113673,0.728470243,1473840,32975,0.00614472,0.006144751,0.004161436,18.69223373,6.47E-05,6.47E-05,6.47E-05,1612027.39,0.016587162
19958400,0.999784151,0.016734262,0.00591006,0.005910086,0.004914116,-0.00147928,0.001479077,-6.67E-06,6.45E-06,-3.51E-07,2.05E-07,-0.00154989,0.001545152,-0.001545551,0.00154947,-0.001549766,0.00154531,-0.001545349,0.001549712,-0.001328115,0.001315094,-0.001315155,0.001328047,5.04E-07,-4.93E-08,4.16E-07,1.27E-07,-0.001478938,0.001479434,-0.001547167,0.001547929,-0.001547227,0.001547827,-0.001547292,0.001547721,-0.001547426,0.001547603,-0.001321237,0.001321891,-0.001321569,0.001321639,-0.001478372,0.001479296,-0.001478946,0.001478637,7.03E-06,-6.12E-06,-0.000999702,0.001000596,3.12E-07,6.00E-07,-0.001049094,0.001054253,-0.001048949,0.00105435,-0.001053461,0.001049875,-0.001053382,0.00104995,-0.001112575,0.00110061,-0.001099577,0.001113526,0.734899631,1473840,32975,0.006143864,0.006143893,0.00416053,18.68511887,6.47E-05,6.47E-05,6.47E-05,1614803.503,0.016584497
20044800,0.999788351,0.016734329,0.005910084,0.00591011,0.004914135,-0.001479735,0.001479533,-6.67E-06,6.45E-06,-3.52E-07,2.08E-07,-0.001550087,0.001545351,-0.001545749,0.001549667,-0.001549962,0.00154551,-0.001545546,0.001549911,-0.001328757,0.001315742,-0.0013158,0.001328692,5.04E-07,-5.21E-08,4.22E-07,1.18E-07,-0.001479394,0.001479887,-0.001547363,0.001548128,-0.001547428,0.001548021,-0.001547489,0.001547919,-0.001547629,0.001547796,-0.001321876,0.001322542,-0.001322224,0.001322274,-0.001479078,0.001479997,-0.001479654,0.001479334,7.02E-06,-6.12E-06,-0.000999661,0.001000553,3.03E-07,6.07E-07,-0.001049285,0.001054435,-0.001049134,0.001054537,-0.001053651,0.001050058,-0.001053567,0.001050138,-0.001112612,0.001100653,-0.001099617,0.001113566,0.737111716,1473840,32975,0.006145748,0.006145776,0.004160364,18.66995085,6.46E-05,6.46E-05,6.46E-05,1606616.17,0.01658816
20131200,0.999792464,0.016734395,0.005910107,0.005910133,0.004914154,-0.00147987,0.001479671,-6.67E-06,6.45E-06,-3.51E-07,2.09E-07,-0.001550154,0.001545421,-0.001545817,0.001549736,-0.001550028,0.00154558,-0.001545613,0.00154998,-0.001328925,0.001315915,-0.001315971,0.001328862,5.05E-07,-5.18E-08,4.24E-07,1.17E-07,-0.00147953,0.001480025,-0.00154743,0.001548198,-0.001547497,0.001548089,-0.001547556,0.001547989,-0.001547697,0.001547865,-0.001322044,0.001322715,-0.001322396,0.001322443,-0.001479292,0.001480211,-0.001479868,0.001479548,7.02E-06,-6.12E-06,-0.000999517,0.001000411,3.02E-07,6.10E-07,-0.001049233,0.001054383,-0.001049082,0.001054486,-0.001053598,0.001050008,-0.001053513,0.001050089,-0.00111251,0.001100558,-0.001099518,0.001113468,0.739524359,1473840,32975,0.006146312,0.006146341,0.004159775,18.65427946,6.44E-05,6.44E-05,6.44E-05,1603299.485,0.016588709
20217600,0.999796494,0.016734459,0.00591013,0.005910156,0.004914173,-0.001479997,0.001479797,-6.66E-06,6.44E-06,-3.51E-07,2.09E-07,-0.001550221,0.001545488,-0.001545885,0.001549802,-0.001550096,0.001545647,-0.001545681,0.001550046,-0.001329075,0.001316066,-0.001316123,0.00132901,5.06E-07,-5.11E-08,4.27E-07,1.15E-07,-0.001479656,0.001480152,-0.001547496,0.001548266,-0.001547564,0.001548157,-0.001547621,0.001548057,-0.001547764,0.001547931,-0.001322193,0.001322868,-0.001322548,0.001322592,-0.001479492,0.001480412,-0.001480069,0.001479748,7.02E-06,-6.12E-06,-0.000999363,0.001000263,3.03E-07,6.15E-07,-0.001049164,0.001054317,-0.001049011,0.001054421,-0.001053528,0.001049943,-0.001053441,0.001050025,-0.001112399,0.001100457,-0.00109941,0.001113363,0.742295249,1473840,32975,0.006146835,0.006146865,0.004159151,18.63857431,6.43E-05,6.43E-05,6.43E-05,1600035.436,0.016589139
20304000,0.999800442,0.016734523,0.005910153,0.005910179,0.004914192,-0.001480121,0.001479923,-6.66E-06,6.44E-06,-3.51E-07,2.11E-07,-0.00155028,0.001545551,-0.001545946,0.001549863,-0.001550155,0.00154571,-0.001545742,0.001550108,-0.001329224,0.001316222,-0.001316275,0.001329162,5.07E-07,-5.28E-08,4.28E-07,1.13E-07,-0.001479782,0.001480276,-0.001547556,0.001548328,-0.001547625,0.001548217,-0.001547683,0.001548118,-0.001547827,0.001547991,-0.001322344,0.001323022,-0.001322703,0.001322742,-0.001479688,0.001480609,-0.001480267,0.001479943,7.02E-06,-6.12E-06,-0.000999205,0.001000099,2.98E-07,6.13E-07,-0.001049105,0.00105425,-0.001048951,0.001054356,-0.001053468,0.001049877,-0.001053381,0.001049961,-0.001112279,0.001100335,-0.001099293,0.001113237,0.745491574,1473840,32975,0.006147351,0.006147381,0.004158487,18.62286686,6.42E-05,6.42E-05,6.42E-05,1596724.58,0.016589514
20390400,0.999804309,0.016734586,0.005910175,0.005910201,0.00491421,-0.001480248,0.001480047,-6.66E-06,6.44E-06,-3.54E-07,2.11E-07,-0.001550341,0.001545608,-0.001546007,0.00154992,-0.001550215,0.001545767,-0.001545802,0.001550165,-0.001329382,0.001316379,-0.001316435,0.001329318,5.07E-07,-5.40E-08,4.31E-07,1.10E-07,-0.001479908,0.001480402,-0.001547614,0.001548387,-0.001547685,0.001548275,-0.001547741,0.001548177,-0.001547886,0.001548048,-0.0013225,0.001323182,-0.001322864,0.001322897,-0.001479886,0.001480807,-0.001480466,0.001480138,7.02E-06,-6.11E-06,-0.000999034,0.000999932,2.98E-07,6.19E-07,-0.001049044,0.001054192,-0.001048888,0.001054299,-0.001053406,0.001049819,-0.001053317,0.001049904,-0.001112139,0.001100204,-0.001099155,0.001113105,0.745828255,1473840,32975,0.00614787,0.0061479,0.004157787,18.60715929,6.41E-05,6.41E-05,6.41E-05,1593294.558,0.01658986
20476800,0.999808098,0.016734646,0.005910196,0.005910223,0.004914227,-0.001480205,0.001480008,-6.66E-06,6.44E-06,-3.51E-07,2.12E-07,-0.001550324,0.001545597,-0.001545991,0.001549908,-0.001550197,0.001545757,-0.001545787,0.001550153,-0.001329291,0.001316299,-0.00131635,0.001329232,5.06E-07,-5.39E-08,4.29E-07,1.12E-07,-0.001479867,0.001480361,-0.001547601,0.001548373,-0.001547671,0.001548261,-0.001547728,0.001548163,-0.001547873,0.001548035,-0.001322415,0.001323094,-0.001322776,0.001322812,-0.001479826,0.001480744,-0.001480406,0.001480078,7.02E-06,-6.11E-06,-0.000998805,0.000999704,2.99E-07,6.17E-07,-0.001048866,0.001054013,-0.001048711,0.00105412,-0.001053227,0.001049642,-0.001053138,0.001049726,-0.001111922,0.00109999,-0.001098943,0.001112887,0.739270566,1473840,32975,0.006147702,0.006147731,0.004156841,18.59145179,6.39E-05,6.39E-05,6.39E-05,1592455.234,0.016588554
20563200,0.99981181,0.016734705,0.005910217,0.005910243,0.004914244,-0.001479823,0.001479624,-6.66E-06,6.44E-06,-3.49E-07,2.08E-07,-0.001550193,0.001545468,-0.001545863,0.001549777,-0.001550069,0.001545626,-0.00154566,0.00155002,-0.001328648,0.001315657,-0.001315713,0.001328584,5.04E-07,-5.00E-08,4.23E-07,1.19E-07,-0.001479483,0.001479978,-0.001547474,0.001548241,-0.00154754,0.001548133,-0.001547599,0.001548033,-0.001547739,0.00154791,-0.001321777,0.001322446,-0.001322125,0.001322178,-0.001479247,0.001480165,-0.001479821,0.001479506,7.01E-06,-6.11E-06,-0.000998509,0.000999404,3.05E-07,6.09E-07,-0.001048404,0.001053551,-0.001048254,0.001053653,-0.001052762,0.001049181,-0.001052678,0.001049261,-0.001111647,0.001099715,-0.001098675,0.001112606,0.729820412,1473840,32975,0.006146116,0.006146145,0.004155602,18.57574425,6.38E-05,6.38E-05,6.38E-05,1597339.66,0.016584068
20649600,0.999815433,0.016734761,0.005910237,0.005910264,0.00491426,-0.001479181,0.001478945,-6.67E-06,6.42E-06,-3.58E-07,1.80E-07,-0.001549906,0.001545152,-0.001545577,0.001549459,-0.001549788,0.001545303,-0.00154538,0.001549696,-0.001327649,0.001314619,-0.001314718,0.001327542,4.98E-07,-3.76E-08,4.16E-07,1.33E-07,-0.001478819,0.001479321,-0.001547176,0.001547935,-0.001547234,0.001547835,-0.001547294,0.001547733,-0.001547428,0.001547618,-0.001320763,0.001321423,-0.00132109,0.001321176,-0.001478307,0.001479221,-0.001478863,0.001478579,7.01E-06,-6.11E-06,-0.000998114,0.000999009,3.15E-07,5.99E-07,-0.001047729,0.001052881,-0.001047586,0.001052976,-0.001052086,0.001048513,-0.001052009,0.001048586,-0.001111285,0.001099349,-0.001098316,0.001112236,0.719518553,1473840,32975,0.006143381,0.00614341,0.004153955,18.49960368,6.32E-05,6.32E-05,6.32E-05,1604908.477,0.016576832
20736000,0.999818902,0.016734816,0.005910257,0.005910283,0.004914276,-0.001477817,0.001477604,-6.65E-06,6.42E-06,-3.40E-07,1.85E-07,-0.001548949,0.001544227,-0.001544624,0.001548529,-0.001548834,0.001544374,-0.001544432,0.001548761,-0.001325898,0.001312902,-0.001312982,0.00132581,4.91E-07,-3.13E-08,4.08E-07,1.39E-07,-0.001477467,0.001477968,-0.001546239,0.001546989,-0.001546294,0.001546893,-0.001546354,0.001546791,-0.001546482,0.00154668,-0.001319034,0.001319684,-0.001319347,0.00131945,-0.00147662,0.001477523,-0.001477162,0.001476896,7.00E-06,-6.10E-06,-0.000997239,0.000998131,3.20E-07,5.90E-07,-0.001046511,0.00105166,-0.001046373,0.00105175,-0.001050864,0.001047296,-0.001050791,0.001047365,-0.001110412,0.001098482,-0.001097457,0.001111355,0.726686399,1473840,32975,0.006137784,0.006137813,0.004150313,18.1183128,6.01E-05,6.01E-05,6.01E-05,1613050.152,0.016561747
20822400,0.999822224,0.016734869,0.005910276,0.005910302,0.004914291,-0.001477611,0.001477403,-6.64E-06,6.42E-06,-3.41E-07,1.91E-07,-0.001548412,0.001543698,-0.001544093,0.001547996,-0.001548296,0.001543847,-0.001543898,0.001548231,-0.001325959,0.001312982,-0.001313056,0.00132588,4.94E-07,-3.53E-08,4.16E-07,1.31E-07,-0.001477264,0.001477764,-0.001545703,0.00154646,-0.001545762,0.001546359,-0.00154582,0.00154626,-0.001545954,0.001546143,-0.0013191,0.001319763,-0.001319429,0.001319513,-0.001476709,0.001477615,-0.001477259,0.001476979,6.99E-06,-6.10E-06,-0.000996587,0.000997472,3.09E-07,5.94E-07,-0.001046134,0.001051267,-0.00104599,0.001051362,-0.001050482,0.001046908,-0.001050405,0.001046981,-0.001109801,0.001097882,-0.001096859,0.001110742,0.734244048,1473840,32975,0.006136938,0.006136967,0.004147599,17.72469382,5.70E-05,5.70E-05,5.70E-05,1601954.997,0.016557269
20908800,0.999825405,0.016734919,0.005910293,0.00591032,0.004914306,-0.001477385,0.001477178,-6.64E-06,6.41E-06,-3.44E-07,1.95E-07,-0.001547891,0.00154318,-0.001543577,0.001547473,-0.001547774,0.001543331,-0.00154338,0.00154771,-0.001325963,0.001312999,-0.001313073,0.001325886,4.86E-07,-4.91E-08,4.12E-07,1.11E-07,-0.00147705,0.001477527,-0.001545191,0.001545932,-0.001545254,0.001545825,-0.001545311,0.001545732,-0.001545448,0.001545609,-0.001319118,0.001319773,-0.001319463,0.001319504,-0.001476785,0.001477672,-0.00147734,0.001477028,7.01E-06,-6.07E-06,-0.000995928,0.000996861,3.24E-07,6.26E-07,-0.001045687,0.001050855,-0.001045537,0.001050957,-0.001050029,0.001046503,-0.001049947,0.001046582,-0.001109201,0.001097349,-0.001096273,0.001110192,0.730624611,1473840,32975,0.006136003,0.006136032,0.004144971,17.33030506,5.38E-05,5.38E-05,5.38E-05,1591347.758,0.0165527
20995200,0.999828452,0.016734967,0.005910311,0.005910337,0.00491432,-0.001476421,0.001476204,-6.64E-06,6.40E-06,-3.43E-07,1.85E-07,-0.001547027,0.001542311,-0.001542714,0.001546603,-0.00154691,0.00154246,-0.001542522,0.001546834,-0.001324929,0.001311966,-0.001312052,0.001324835,4.70E-07,-5.45E-08,3.95E-07,1.04E-07,-0.001476093,0.001476547,-0.001544339,0.001545051,-0.001544401,0.001544947,-0.001544456,0.001544854,-0.00154459,0.001544736,-0.001318098,0.001318722,-0.001318429,0.001318462,-0.001475706,0.001476562,-0.001476244,0.001475929,7.03E-06,-6.04E-06,-0.00099506,0.00099604,3.54E-07,6.46E-07,-0.00104478,0.001049996,-0.001044637,0.001050095,-0.001049121,0.001045645,-0.001049041,0.001045723,-0.001108283,0.001096488,-0.001095364,0.00110932,0.727988797,1473840,32975,0.006131992,0.00613202,0.004141464,16.93586449,5.07E-05,5.07E-05,5.07E-05,1592334.823,0.016540979
21081600,0.999831373,0.016735013,0.005910327,0.005910353,0.004914333,-0.001475516,0.001475303,-6.63E-06,6.40E-06,-3.37E-07,1.81E-07,-0.001546223,0.001541518,-0.001541914,0.001545805,-0.001546112,0.001541663,-0.001541724,0.001546035,-0.00132392,0.001310964,-0.001311048,0.001323828,4.91E-07,-2.44E-08,4.18E-07,1.36E-07,-0.001475163,0.00147567,-0.001543518,0.001544276,-0.001543577,0.001544176,-0.00154363,0.001544081,-0.001543763,0.001543966,-0.001317066,0.001317737,-0.001317392,0.001317491,-0.001474703,0.001475602,-0.001475238,0.001474981,7.00E-06,-6.06E-06,-0.000994271,0.000995193,3.29E-07,6.11E-07,-0.001043903,0.001049061,-0.00104376,0.001049156,-0.00104824,0.001044713,-0.001048163,0.001044786,-0.001107499,0.001095649,-0.00109459,0.001108476,0.728161187,1473840,32975,0.006128252,0.006128281,0.004138069,16.54142022,4.75E-05,4.75E-05,4.75E-05,1592378.633,0.016529923
21168000,0.999834173,0.016735057,0.005910343,0.005910369,0.004914346,-0.001474795,0.00147458,-6.63E-06,6.39E-06,-3.36E-07,1.78E-07,-0.001545486,0.001540783,-0.00154118,0.001545067,-0.001545375,0.001540926,-0.001540992,0.001545295,-0.001323199,0.00131025,-0.001310337,0.001323104,4.86E-07,-2.43E-08,4.14E-07,1.35E-07,-0.001474444,0.001474946,-0.001542785,0.001543536,-0.001542843,0.001543437,-0.001542896,0.001543343,-0.001543028,0.001543228,-0.001316352,0.001317017,-0.001316675,0.001316773,-0.001474003,0.001474894,-0.001474533,0.001474278,6.99E-06,-6.06E-06,-0.000993499,0.000994423,3.31E-07,6.11E-07,-0.001043145,0.001048304,-0.001043003,0.001048397,-0.001047479,0.001043959,-0.001047403,0.001044031,-0.001106737,0.001094898,-0.001093837,0.001107715,0.728384099,1473840,32975,0.006125262,0.006125291,0.004134871,16.14697568,4.44E-05,4.44E-05,4.44E-05,1589546.778,0.016520595
21254400,0.999836862,0.0167351,0.005910358,0.005910384,0.004914358,-0.001474123,0.001473904,-6.62E-06,6.38E-06,-3.36E-07,1.74E-07,-0.001544795,0.001540094,-0.001540492,0.001544375,-0.001544686,0.001540236,-0.001540306,0.001544602,-0.001322527,0.001309584,-0.001309676,0.001322428,4.87E-07,-1.96E-08,4.16E-07,1.39E-07,-0.001473766,0.001474274,-0.001542093,0.001542849,-0.00154215,0.00154275,-0.001542203,0.001542656,-0.001542334,0.001542543,-0.001315681,0.001316351,-0.001316001,0.001316109,-0.001473346,0.001474241,-0.001473873,0.001473628,6.98E-06,-6.06E-06,-0.00099277,0.000993688,3.30E-07,6.07E-07,-0.001042432,0.001047583,-0.001042291,0.001047675,-0.001046763,0.001043241,-0.001046688,0.001043312,-0.001106016,0.001094181,-0.001093127,0.001106988,0.728652763,1473840,32975,0.006122469,0.006122498,0.004131833,15.77614638,4.14E-05,4.14E-05,4.14E-05,1586778.264,0.016511828
21340800,0.99983946,0.016735141,0.005910372,0.005910399,0.00491437,-0.001473609,0.001473391,-6.62E-06,6.38E-06,-3.35E-07,1.74E-07,-0.001544264,0.001539568,-0.001539965,0.001543845,-0.001544156,0.00153971,-0.001539779,0.001544072,-0.001322009,0.001309077,-0.001309168,0.001321911,4.88E-07,-1.77E-08,4.16E-07,1.42E-07,-0.001473252,0.001473762,-0.001541564,0.001542321,-0.00154162,0.001542224,-0.001541674,0.001542129,-0.001541804,0.001542016,-0.001315168,0.001315838,-0.001315485,0.0013156,-0.001472853,0.001473751,-0.00147338,0.001473139,6.97E-06,-6.06E-06,-0.000992176,0.000993081,3.25E-07,5.99E-07,-0.001041858,0.001046993,-0.001041718,0.001047085,-0.001046185,0.001042656,-0.001046111,0.001042725,-0.001105438,0.001093599,-0.001092559,0.001106396,0.728963237,1473840,32975,0.006120344,0.006120373,0.004129342,15.4859625,3.91E-05,3.91E-05,3.91E-05,1584263.076,0.016504975
21427200,0.999841969,0.01673518,0.005910386,0.005910413,0.004914381,-0.001473102,0.001472885,-6.61E-06,6.38E-06,-3.34E-07,1.74E-07,-0.001543741,0.00153905,-0.001539446,0.001543323,-0.001543633,0.001539191,-0.001539259,0.00154355,-0.001321497,0.001308576,-0.001308666,0.0013214,4.88E-07,-1.72E-08,4.14E-07,1.45E-07,-0.001472745,0.001473256,-0.001541044,0.0015418,-0.001541098,0.001541704,-0.001541153,0.001541608,-0.001541282,0.001541497,-0.001314662,0.00131533,-0.001314976,0.001315096,-0.001472367,0.001473266,-0.001472894,0.001472655,6.96E-06,-6.06E-06,-0.000991586,0.000992481,3.21E-07,5.91E-07,-0.00104129,0.001046412,-0.001041151,0.001046502,-0.001045613,0.001042077,-0.00104554,0.001042146,-0.001104863,0.001093022,-0.001091994,0.001105809,0.72931331,1473840,32975,0.006118245,0.006118274,0.004126873,15.19904328,3.68E-05,3.68E-05,3.68E-05,1581759.218,0.0164982
21513600,0.999844395,0.016735219,0.0059104,0.005910426,0.004914393,-0.001472594,0.00147238,-6.60E-06,6.37E-06,-3.33E-07,1.76E-07,-0.001543218,0.001538533,-0.001538926,0.001542802,-0.001543109,0.001538674,-0.00153874,0.001543029,-0.001320983,0.001308076,-0.001308165,0.001320888,4.86E-07,-1.95E-08,4.10E-07,1.43E-07,-0.001472241,0.001472747,-0.001540527,0.001541276,-0.00154058,0.001541181,-0.001540636,0.001541085,-0.001540763,0.001540974,-0.001314161,0.00131482,-0.00131447,0.001314588,-0.001471885,0.00147278,-0.00147241,0.001472168,6.96E-06,-6.05E-06,-0.000990987,0.00099189,3.27E-07,5.94E-07,-0.001040713,0.00104584,-0.001040576,0.001045929,-0.001045032,0.00104151,-0.001044961,0.001041577,-0.001104279,0.001092456,-0.001091421,0.00110523,0.736407803,1473840,32975,0.006116149,0.006116178,0.004124406,14.91232746,3.45E-05,3.45E-05,3.45E-05,1579250.268,0.01649143
21600000,0.99984674,0.016735256,0.005910413,0.00591044,0.004914403,-0.001472507,0.001472294,-6.60E-06,6.37E-06,-3.35E-07,1.81E-07,-0.001542879,0.0015382,-0.001538593,0.001542465,-0.00154277,0.001538343,-0.001538404,0.001542694,-0.001321078,0.001308184,-0.001308269,0.001320988,4.87E-07,-2.50E-08,4.13E-07,1.36E-07,-0.001472157,0.001472659,-0.001540191,0.00154094,-0.001540246,0.001540842,-0.001540303,0.001540748,-0.001540432,0.001540633,-0.001314262,0.001314925,-0.001314583,0.001314682,-0.001472055,0.00147295,-0.001472586,0.001472329,6.95E-06,-6.04E-06,-0.000990523,0.000991425,3.21E-07,5.98E-07,-0.001040425,0.001045542,-0.001040283,0.001045636,-0.001044739,0.001041218,-0.001044665,0.001041289,-0.00110388,0.001092071,-0.001091034,0.001104832,0.73089909,1473840,32975,0.006115789,0.006115818,0.004122485,14.6256268,3.22E-05,3.22E-05,3.22E-05,1570244.63,0.016488747
21686400,0.999849007,0.016735292,0.005910426,0.005910452,0.004914414,-0.001471627,0.001471409,-6.59E-06,6.36E-06,-3.33E-07,1.72E-07,-0.001542187,0.001537508,-0.001537904,0.001541769,-0.00154208,0.001537648,-0.001537718,0.001541994,-0.001320036,0.001307148,-0.00130724,0.001319936,4.87E-07,-1.46E-08,4.13E-07,1.47E-07,-0.001471269,0.001471782,-0.001539496,0.001540251,-0.00153955,0.001540156,-0.001539604,0.00154006,-0.001539732,0.00153995,-0.001313218,0.001313885,-0.001313529,0.001313654,-0.001470983,0.00147188,-0.001471505,0.001471273,6.95E-06,-6.03E-06,-0.000989806,0.000990714,3.29E-07,5.96E-07,-0.001039604,0.001044728,-0.001039467,0.001044817,-0.001043916,0.001040406,-0.001043844,0.001040473,-0.001103119,0.001091325,-0.001090285,0.001104076,0.729717342,1473840,32975,0.006112135,0.006112164,0.004119519,14.33892649,2.99E-05,2.99E-05,2.99E-05,1573497.112,0.016478303
21772800,0.999851199,0.016735327,0.005910438,0.005910465,0.004914424,-0.001471019,0.0014708,-6.59E-06,6.35E-06,-3.32E-07,1.70E-07,-0.001541624,0.001536948,-0.001537344,0.001541206,-0.001541518,0.001537087,-0.00153716,0.001541431,-0.001319369,0.001306488,-0.001306583,0.001319267,4.86E-07,-1.28E-08,4.12E-07,1.49E-07,-0.00147066,0.001471173,-0.001538936,0.001539689,-0.001538988,0.001539595,-0.001539043,0.001539499,-0.001539169,0.00153939,-0.001312556,0.001313221,-0.001312863,0.001312993,-0.001470342,0.001471238,-0.001470861,0.001470634,6.95E-06,-6.03E-06,-0.000989182,0.000990093,3.33E-07,5.96E-07,-0.001038954,0.001044079,-0.001038817,0.001044167,-0.001043262,0.00103976,-0.001043191,0.001039826,-0.001102502,0.00109072,-0.001089678,0.001103462,0.728447564,1473840,32975,0.006109616,0.006109645,0.004116934,14.05222622,2.76E-05,2.76E-05,2.76E-05,1572587.921,0.016470553
21859200,0.999853338,0.01673536,0.00591045,0.005910477,0.004914433,-0.001470652,0.001470433,-6.59E-06,6.35E-06,-3.31E-07,1.70E-07,-0.001541306,0.001536633,-0.001537028,0.001540888,-0.0015412,0.001536772,-0.001536844,0.001541112,-0.001318932,0.001306059,-0.001306153,0.001318829,4.86E-07,-1.22E-08,4.11E-07,1.51E-07,-0.001470292,0.001470806,-0.001538619,0.001539372,-0.001538671,0.001539279,-0.001538726,0.001539183,-0.001538852,0.001539074,-0.001312123,0.001312786,-0.001312428,0.001312561,-0.001469944,0.001470841,-0.001470463,0.001470237,6.95E-06,-6.01E-06,-0.000988754,0.000989678,3.40E-07,6.01E-07,-0.001038499,0.001043635,-0.001038363,0.001043723,-0.001042805,0.001039319,-0.001042735,0.001039385,-0.001102097,0.001090335,-0.001089281,0.001103069,0.727103869,1473840,32975,0.006108094,0.006108123,0.004115187,13.88749936,2.63E-05,2.63E-05,2.63E-05,1572136.692,0.016465684
21945600,0.999855464,0.016735394,0.005910462,0.005910488,0.004914443,-0.001470886,0.001470667,-6.59E-06,6.35E-06,-3.32E-07,1.71E-07,-0.001541597,0.001536924,-0.00153732,0.00154118,-0.00154149,0.001537064,-0.001537135,0.001541405,-0.001319072,0.001306201,-0.001306293,0.001318972,4.86E-07,-1.41E-08,4.11E-07,1.49E-07,-0.001470527,0.00147104,-0.00153891,0.001539664,-0.001538962,0.00153957,-0.001539018,0.001539473,-0.001539144,0.001539364,-0.001312264,0.001312928,-0.001312571,0.0013127,-0.001470156,0.001471054,-0.001470678,0.001470447,6.94E-06,-6.03E-06,-0.000988843,0.00098974,3.26E-07,5.89E-07,-0.001038565,0.001043675,-0.001038429,0.001043763,-0.001042871,0.001039359,-0.0010428,0.001039425,-0.001102243,0.001090456,-0.001089427,0.00110319,0.725694389,1473840,32975,0.006109064,0.006109093,0.0041155,14.02520934,2.74E-05,2.74E-05,2.74E-05,1572734.351,0.016467974
22032000,0.999857579,0.016735427,0.005910474,0.0059105,0.004914453,-0.001471142,0.001470924,-6.59E-06,6.35E-06,-3.33E-07,1.73E-07,-0.001541918,0.001537244,-0.00153764,0.0015415,-0.001541811,0.001537385,-0.001537455,0.001541726,-0.00131923,0.001306358,-0.00130645,0.001319131,4.87E-07,-1.57E-08,4.11E-07,1.48E-07,-0.001470784,0.001471296,-0.001539231,0.001539984,-0.001539283,0.00153989,-0.001539339,0.001539793,-0.001539466,0.001539684,-0.001312422,0.001313085,-0.00131273,0.001312857,-0.001470385,0.001471284,-0.001470909,0.001470675,6.93E-06,-6.03E-06,-0.000988944,0.000989832,3.21E-07,5.85E-07,-0.001038647,0.001043747,-0.00103851,0.001043835,-0.001042953,0.00103943,-0.001042882,0.001039496,-0.001102402,0.001090603,-0.001089584,0.001103339,0.724227275,1473840,32975,0.006110127,0.006110156,0.004115901,14.17519218,2.86E-05,2.86E-05,2.86E-05,1573457.25,0.016470541
22118400,0.999859684,0.01673546,0.005910486,0.005910512,0.004914462,-0.001471399,0.00147118,-6.59E-06,6.35E-06,-3.35E-07,1.73E-07,-0.001542242,0.001537566,-0.001537963,0.001541822,-0.001542133,0.001537707,-0.001537777,0.001542048,-0.001319387,0.001306513,-0.001306606,0.001319287,4.88E-07,-1.67E-08,4.11E-07,1.47E-07,-0.001471041,0.001471552,-0.001539553,0.001540307,-0.001539605,0.001540213,-0.001539662,0.001540115,-0.001539789,0.001540006,-0.001312578,0.001313241,-0.001312887,0.001313012,-0.001470612,0.001471513,-0.001471138,0.001470902,6.93E-06,-6.04E-06,-0.000989045,0.000989929,3.19E-07,5.83E-07,-0.001038726,0.001043823,-0.00103859,0.001043911,-0.001043033,0.001039506,-0.001042962,0.001039572,-0.00110256,0.001090756,-0.001089741,0.001103494,0.722709225,1473840,32975,0.006111189,0.006111217,0.004116312,14.32594293,2.98E-05,2.98E-05,2.98E-05,1574238.675,0.016473117
22204800,0.999861779,0.016735493,0.005910497,0.005910524,0.004914472,-0.001471652,0.001471435,-6.59E-06,6.35E-06,-3.34E-07,1.75E-07,-0.001542562,0.001537888,-0.001538283,0.001542144,-0.001542453,0.001538029,-0.001538097,0.001542371,-0.001319537,0.001306666,-0.001306756,0.00131944,4.88E-07,-1.69E-08,4.11E-07,1.48E-07,-0.001471294,0.001471806,-0.001539874,0.001540628,-0.001539926,0.001540534,-0.001539983,0.001540436,-0.00154011,0.001540327,-0.00131273,0.001313392,-0.001313038,0.001313164,-0.001470836,0.001471738,-0.001471363,0.001471126,6.93E-06,-6.04E-06,-0.000989147,0.00099003,3.19E-07,5.83E-07,-0.001038805,0.0010439,-0.001038668,0.001043989,-0.001043111,0.001039583,-0.00104304,0.00103965,-0.00110272,0.001090916,-0.001089902,0.001103653,0.721746311,1473840,32975,0.006112239,0.006112268,0.004116735,14.47674519,3.10E-05,3.10E-05,3.10E-05,1575061.22,0.016475683
22291200,0.999863862,0.016735525,0.005910509,0.005910535,0.004914481,-0.001471942,0.001471726,-6.59E-06,6.35E-06,-3.35E-07,1.77E-07,-0.001542897,0.001538223,-0.001538618,0.00154248,-0.001542787,0.001538365,-0.00153843,0.001542708,-0.001319746,0.001306876,-0.001306962,0.001319652,4.89E-07,-2.01E-08,4.11E-07,1.47E-07,-0.001471586,0.001472096,-0.001540209,0.001540963,-0.001540262,0.001540869,-0.00154032,0.00154077,-0.001540447,0.00154066,-0.001312941,0.0013136,-0.001313249,0.001313371,-0.001471116,0.00147202,-0.001471647,0.001471404,6.93E-06,-6.04E-06,-0.000989259,0.000990141,3.18E-07,5.82E-07,-0.001038911,0.001044006,-0.001038774,0.001044094,-0.001043218,0.001039688,-0.001043147,0.001039754,-0.001102893,0.001091084,-0.001090072,0.001103824,0.726926624,1473840,32975,0.006113443,0.006113472,0.004117197,14.62755106,3.22E-05,3.22E-05,3.22E-05,1575307.568,0.0164786
22377600,0.999865933,0.016735558,0.005910521,0.005910547,0.004914491,-0.001472633,0.001472418,-6.59E-06,6.35E-06,-3.40E-07,1.83E-07,-0.001543391,0.001538713,-0.001539111,0.001542971,-0.001543279,0.001538859,-0.00153892,0.001543204,-0.001320571,0.001307698,-0.00130778,0.001320482,4.91E-07,-2.86E-08,4.14E-07,1.37E-07,-0.001472281,0.001472785,-0.001540701,0.001541455,-0.001540757,0.001541358,-0.001540814,0.001541259,-0.001540946,0.001541145,-0.001313762,0.001314425,-0.001314085,0.001314185,-0.001472016,0.00147292,-0.001472559,0.001472293,6.93E-06,-6.05E-06,-0.000989479,0.000990347,3.04E-07,5.81E-07,-0.001039318,0.001044396,-0.001039176,0.001044489,-0.001043626,0.001040077,-0.001043551,0.001040148,-0.001103197,0.001091373,-0.001090369,0.001104118,0.72868181,1473840,32975,0.006116305,0.006116334,0.004118089,14.77835714,3.34E-05,3.34E-05,3.34E-05,1569210.451,0.016485326
22464000,0.999867993,0.016735591,0.005910532,0.005910558,0.0049145,-0.001473075,0.001472867,-6.59E-06,6.36E-06,-3.39E-07,1.89E-07,-0.001543775,0.001539101,-0.001539494,0.001543361,-0.001543661,0.001539249,-0.001539301,0.001543594,-0.001321035,0.001308169,-0.001308242,0.001320954,4.92E-07,-3.34E-08,4.13E-07,1.33E-07,-0.001472728,0.001473228,-0.001541088,0.001541841,-0.001541145,0.001541742,-0.001541203,0.001541643,-0.001541336,0.001541528,-0.001314231,0.001314891,-0.001314556,0.001314646,-0.001472533,0.001473436,-0.00147308,0.001472804,6.93E-06,-6.04E-06,-0.000989621,0.000990501,3.08E-07,5.89E-07,-0.001039549,0.001044639,-0.001039407,0.001044734,-0.001043859,0.001040319,-0.001043783,0.001040391,-0.00110339,0.001091577,-0.00109056,0.001104325,0.730032398,1473840,32975,0.006118149,0.006118178,0.004118706,14.92916325,3.46E-05,3.46E-05,3.46E-05,1566888.133,0.016489702
22550400,0.999870041,0.016735623,0.005910544,0.00591057,0.004914509,-0.001473487,0.00147328,-6.59E-06,6.36E-06,-3.41E-07,1.91E-07,-0.001544153,0.001539477,-0.001539871,0.001543737,-0.001544037,0.001539626,-0.001539677,0.001543972,-0.001321441,0.001308575,-0.001308648,0.001321361,4.92E-07,-3.65E-08,4.13E-07,1.31E-07,-0.001473142,0.001473639,-0.001541465,0.001542218,-0.001541524,0.001542118,-0.001541582,0.001542018,-0.001541715,0.001541903,-0.001314639,0.001315296,-0.001314965,0.00131505,-0.001473001,0.001473904,-0.00147355,0.001473269,6.94E-06,-6.04E-06,-0.000989754,0.000990639,3.11E-07,5.93E-07,-0.001039749,0.001044845,-0.001039607,0.001044939,-0.00104406,0.001040524,-0.001043983,0.001040596,-0.00110358,0.00109177,-0.001090748,0.00110452,0.730955417,1473840,32975,0.006119856,0.006119885,0.004119273,15.07996934,3.58E-05,3.58E-05,3.58E-05,1565094.803,0.016493749
22636800,0.999872073,0.016735655,0.005910555,0.005910581,0.004914519,-0.001473806,0.001473598,-6.59E-06,6.36E-06,-3.43E-07,1.92E-07,-0.001544457,0.001539779,-0.001540175,0.001544039,-0.00154434,0.001539929,-0.00153998,0.001544275,-0.001321738,0.001308871,-0.001308944,0.001321658,4.92E-07,-3.92E-08,4.12E-07,1.29E-07,-0.001473462,0.001473956,-0.001541769,0.00154252,-0.001541827,0.00154242,-0.001541886,0.001542319,-0.001542019,0.001542204,-0.001314937,0.001315591,-0.001315264,0.001315344,-0.001473357,0.001474259,-0.001473909,0.001473622,6.94E-06,-6.04E-06,-0.000989829,0.000990714,3.10E-07,5.93E-07,-0.001039875,0.001044971,-0.001039732,0.001045065,-0.001044186,0.001040649,-0.001044109,0.001040722,-0.001103704,0.001091894,-0.001090872,0.001104645,0.731950715,1473840,32975,0.006121174,0.006121203,0.004119584,15.19996898,3.68E-05,3.68E-05,3.68E-05,1563693.875,0.016496745
22723200,0.999874079,0.016735687,0.005910567,0.005910593,0.004914528,-0.001473986,0.001473779,-6.59E-06,6.36E-06,-3.43E-07,1.93E-07,-0.001544621,0.001539942,-0.001540338,0.001544203,-0.001544503,0.001540093,-0.001540142,0.001544439,-0.001321903,0.001309037,-0.001309109,0.001321824,4.93E-07,-4.01E-08,4.13E-07,1.28E-07,-0.001473642,0.001474136,-0.001541932,0.001542684,-0.001541991,0.001542583,-0.00154205,0.001542483,-0.001542183,0.001542366,-0.001315102,0.001315757,-0.00131543,0.001315509,-0.001473572,0.001474476,-0.001474126,0.001473837,6.94E-06,-6.04E-06,-0.000989787,0.000990677,3.12E-07,5.96E-07,-0.001039884,0.001044984,-0.001039741,0.00104508,-0.001044195,0.001040663,-0.001044118,0.001040736,-0.001103703,0.001091899,-0.001090871,0.001104649,0.733028288,1473840,32975,0.006121921,0.00612195,0.004119422,15.25092106,3.72E-05,3.72E-05,3.72E-05,1562049.185,0.016498101
22809600,0.99987606,0.016735719,0.005910578,0.005910604,0.004914537,-0.001474161,0.001473954,-6.59E-06,6.36E-06,-3.44E-07,1.95E-07,-0.001544776,0.001540098,-0.001540494,0.001544359,-0.001544658,0.00154025,-0.001540298,0.001544596,-0.001322064,0.0013092,-0.00130927,0.001321987,4.95E-07,-3.96E-08,4.15E-07,1.29E-07,-0.001473816,0.001474313,-0.001542086,0.001542842,-0.001542145,0.00154274,-0.001542204,0.00154264,-0.001542339,0.001542523,-0.001315262,0.001315922,-0.001315593,0.001315671,-0.001473782,0.001474689,-0.001474337,0.001474048,6.94E-06,-6.04E-06,-0.000989741,0.000990632,3.11E-07,5.98E-07,-0.001039891,0.001044991,-0.001039747,0.001045087,-0.001044202,0.00104067,-0.001044123,0.001040744,-0.001103698,0.001091895,-0.001090866,0.001104645,0.734199543,1473840,32975,0.006122646,0.006122675,0.004119237,15.29906861,3.76E-05,3.76E-05,3.76E-05,1560368.341,0.016499386
22896000,0.999878016,0.016735749,0.005910589,0.005910615,0.004914546,-0.001474335,0.001474129,-6.59E-06,6.36E-06,-3.44E-07,1.96E-07,-0.001544932,0.001540254,-0.001540649,0.001544514,-0.001544813,0.001540405,-0.001540452,0.001544751,-0.001322228,0.001309365,-0.001309434,0.001322152,4.98E-07,-3.89E-08,4.18E-07,1.29E-07,-0.001473989,0.001474489,-0.001542238,0.001542999,-0.001542299,0.001542897,-0.001542358,0.001542797,-0.001542493,0.001542679,-0.001315424,0.001316088,-0.001315756,0.001315835,-0.00147399,0.001474902,-0.001474548,0.001474259,6.94E-06,-6.04E-06,-0.000989693,0.000990586,3.11E-07,6.00E-07,-0.001039897,0.001044998,-0.001039752,0.001045095,-0.001044207,0.001040677,-0.001044128,0.001040752,-0.001103688,0.001091888,-0.001090856,0.001104638,0.717100823,1473840,32975,0.006123369,0.006123398,0.004119045,15.34704048,3.80E-05,3.80E-05,3.80E-05,1558657.574,0.016500661
22982400,0.999879947,0.016735779,0.005910599,0.005910625,0.004914555,-0.001473462,0.001473248,-6.59E-06,6.36E-06,-3.37E-07,1.81E-07,-0.0015447,0.00154002,-0.001540416,0.001544282,-0.001544589,0.001540165,-0.001540227,0.001544512,-0.001320736,0.001307855,-0.001307938,0.001320645,4.91E-07,-2.40E-08,4.09E-07,1.46E-07,-0.001473108,0.001473616,-0.00154201,0.001542763,-0.001542063,0.001542669,-0.001542122,0.001542568,-0.001542249,0.001542459,-0.001313928,0.001314582,-0.001314235,0.001314354,-0.001472593,0.0014735,-0.001473129,0.001472879,6.94E-06,-6.04E-06,-0.000989418,0.00099031,3.23E-07,5.86E-07,-0.001039091,0.001044201,-0.001038955,0.001044289,-0.001043403,0.001039878,-0.001043333,0.001039944,-0.001103446,0.001091633,-0.00109061,0.001104387,0.721959274,1473840,32975,0.006119739,0.006119768,0.004117889,15.39500072,3.84E-05,3.84E-05,3.84E-05,1574226.989,0.016492103
23068800,0.999881853,0.016735809,0.00591061,0.005910636,0.004914563,-0.001473936,0.001473726,-6.59E-06,6.36E-06,-3.40E-07,1.87E-07,-0.001544973,0.001540294,-0.001540689,0.001544556,-0.001544858,0.001540442,-0.001540497,0.001544788,-0.00132136,0.001308487,-0.001308564,0.001321276,4.93E-07,-3.01E-08,4.11E-07,1.40E-07,-0.001473586,0.001474091,-0.001542282,0.001543037,-0.001542337,0.001542941,-0.001542397,0.001542839,-0.001542527,0.001542727,-0.001314555,0.001315212,-0.001314871,0.001314975,-0.001473265,0.001474174,-0.00147381,0.001473545,6.94E-06,-6.04E-06,-0.000989462,0.000990346,3.14E-07,5.87E-07,-0.001039331,0.001044429,-0.001039191,0.00104452,-0.001043642,0.001040107,-0.001043569,0.001040176,-0.001103548,0.001091731,-0.001090715,0.001104483,0.721951491,1473840,32975,0.006121711,0.00612174,0.004118061,15.44296016,3.87E-05,3.87E-05,3.87E-05,1567857.409,0.016496287
23155200,0.999883735,0.016735839,0.00591062,0.005910647,0.004914572,-0.001474079,0.001473869,-6.59E-06,6.36E-06,-3.40E-07,1.89E-07,-0.001545119,0.001540441,-0.001540837,0.001544702,-0.001545004,0.001540589,-0.001540643,0.001544935,-0.001321465,0.001308596,-0.001308671,0.001321382,4.94E-07,-3.12E-08,4.12E-07,1.39E-07,-0.001473729,0.001474233,-0.001542428,0.001543185,-0.001542484,0.001543087,-0.001542544,0.001542986,-0.001542674,0.001542873,-0.001314661,0.001315318,-0.001314979,0.00131508,-0.001473427,0.001474337,-0.001473973,0.001473705,6.94E-06,-6.04E-06,-0.000989423,0.000990309,3.15E-07,5.89E-07,-0.001039314,0.001044413,-0.001039174,0.001044505,-0.001043625,0.001040092,-0.001043551,0.001040161,-0.001103556,0.001091744,-0.001090724,0.001104494,0.722174367,1473840,32975,0.006122302,0.00612233,0.004117906,15.49091955,3.91E-05,3.91E-05,3.91E-05,1566837.999,0.01649733
23241600,0.999885592,0.016735868,0.005910631,0.005910657,0.00491458,-0.001474235,0.001474023,-6.59E-06,6.36E-06,-3.43E-07,1.89E-07,-0.00154527,0.001540589,-0.001540988,0.001544849,-0.001545154,0.001540738,-0.001540794,0.001545083,-0.0013216,0.00130873,-0.001308808,0.001321515,4.96E-07,-3.27E-08,4.13E-07,1.38E-07,-0.001473884,0.001474388,-0.001542577,0.001543335,-0.001542633,0.001543237,-0.001542694,0.001543135,-0.001542824,0.001543022,-0.001314796,0.001315454,-0.001315115,0.001315214,-0.001473606,0.001474518,-0.001474156,0.001473884,6.94E-06,-6.04E-06,-0.000989388,0.000990277,3.16E-07,5.91E-07,-0.001039309,0.00104441,-0.001039169,0.001044503,-0.001043619,0.00104009,-0.001043545,0.00104016,-0.001103559,0.001091754,-0.00109073,0.001104501,0.725566533,1473840,32975,0.006122943,0.006122973,0.004117767,15.53887896,3.95E-05,3.95E-05,3.95E-05,1565579.679,0.016498494
23328000,0.999887426,0.016735897,0.005910641,0.005910667,0.004914588,-0.001474588,0.001474378,-6.59E-06,6.36E-06,-3.46E-07,1.93E-07,-0.001545505,0.001540825,-0.001541225,0.001545083,-0.001545388,0.001540976,-0.001541028,0.001545321,-0.001322017,0.001309151,-0.001309225,0.001321936,5.00E-07,-3.52E-08,4.17E-07,1.36E-07,-0.001474237,0.001474744,-0.00154281,0.001543574,-0.001542867,0.001543474,-0.001542928,0.001543372,-0.001543061,0.001543256,-0.001315212,0.001315877,-0.001315538,0.00131563,-0.001474093,0.001475013,-0.001474651,0.001474371,6.94E-06,-6.04E-06,-0.000989406,0.000990293,3.12E-07,5.93E-07,-0.00103944,0.001044536,-0.001039297,0.00104463,-0.001043749,0.001040217,-0.001043673,0.001040289,-0.001103645,0.001091839,-0.001090816,0.001104585,0.72813796,1473840,32975,0.006124408,0.006124439,0.004117843,15.58683838,3.99E-05,3.99E-05,3.99E-05,1561218.828,0.016501551
23414400,0.999889242,0.016735925,0.005910651,0.005910677,0.004914597,-0.001474987,0.001474774,-6.59E-06,6.36E-06,-3.50E-07,1.95E-07,-0.001545819,0.001541136,-0.001541539,0.001545393,-0.001545701,0.001541289,-0.00154134,0.001545633,-0.001322459,0.001309593,-0.001309667,0.001322379,5.03E-07,-3.88E-08,4.19E-07,1.34E-07,-0.001474635,0.001475141,-0.001543121,0.001543887,-0.00154318,0.001543787,-0.001543241,0.001543684,-0.001543375,0.001543566,-0.001315653,0.00131632,-0.001315984,0.00131607,-0.001474586,0.00147551,-0.001475151,0.001474862,6.93E-06,-6.04E-06,-0.000989502,0.000990384,3.08E-07,5.93E-07,-0.001039634,0.001044725,-0.001039489,0.00104482,-0.001043943,0.001040405,-0.001043866,0.001040478,-0.001103793,0.001091985,-0.001090965,0.00110473,0.723095709,1473840,32975,0.006126052,0.006126084,0.004118236,15.69178882,4.07E-05,4.07E-05,4.07E-05,1558041.182,0.016505295
23500800,0.999891054,0.016735953,0.005910661,0.005910687,0.004914605,-0.001475157,0.001474938,-6.59E-06,6.35E-06,-3.53E-07,1.91E-07,-0.001546159,0.001541468,-0.001541877,0.001545727,-0.00154604,0.001541621,-0.001541679,0.001545965,-0.001322467,0.001309596,-0.001309676,0.001322378,5.03E-07,-3.73E-08,4.18E-07,1.37E-07,-0.001474801,0.001475309,-0.001543457,0.001544224,-0.001543517,0.001544125,-0.001543576,0.00154402,-0.00154371,0.001543905,-0.001315657,0.001316321,-0.001315982,0.001316076,-0.001474594,0.001475518,-0.001475157,0.001474873,6.93E-06,-6.04E-06,-0.00098966,0.000990539,3.08E-07,5.89E-07,-0.001039723,0.001044813,-0.001039581,0.001044907,-0.001044034,0.001040492,-0.001043956,0.001040564,-0.001103955,0.001092142,-0.001091126,0.00110489,0.717538993,1473840,32975,0.006126744,0.006126775,0.004118882,15.91265933,4.25E-05,4.25E-05,4.25E-05,1562587.551,0.016507356
23587200,0.999892862,0.016735982,0.005910671,0.005910697,0.004914613,-0.001475301,0.001475095,-6.59E-06,6.36E-06,-3.44E-07,1.95E-07,-0.001546555,0.001541877,-0.001542273,0.001546138,-0.001546437,0.001542028,-0.001542076,0.001546374,-0.001322307,0.001309445,-0.001309514,0.001322231,4.97E-07,-3.76E-08,4.11E-07,1.37E-07,-0.001474955,0.001475456,-0.001543864,0.00154462,-0.00154392,0.001544523,-0.001543983,0.001544419,-0.001544113,0.001544306,-0.00131551,0.001316161,-0.001315828,0.001315923,-0.001474596,0.001475512,-0.001475151,0.001474871,6.94E-06,-6.04E-06,-0.000989828,0.000990712,3.14E-07,5.88E-07,-0.001039687,0.001044784,-0.001039547,0.001044876,-0.001043998,0.001040463,-0.001043924,0.001040533,-0.001104222,0.001092409,-0.001091391,0.001105159,0.723516463,1473840,32975,0.00612737,0.006127399,0.004119587,16.13824379,4.43E-05,4.43E-05,4.43E-05,1567947.244,0.016509343
23673600,0.999894666,0.01673601,0.005910681,0.005910707,0.004914621,-0.001476173,0.001475997,-6.57E-06,6.38E-06,-3.34E-07,2.16E-07,-0.001547215,0.001542565,-0.001542933,0.001546823,-0.001547096,0.001542719,-0.001542732,0.001547066,-0.001323318,0.001310483,-0.001310519,0.001323278,5.07E-07,-3.83E-08,4.23E-07,1.36E-07,-0.001475838,0.001476349,-0.00154453,0.001545304,-0.001544589,0.001545203,-0.001544651,0.001545099,-0.001544787,0.001544981,-0.001316525,0.001317199,-0.00131686,0.001316948,-0.001475714,0.001476647,-0.001476287,0.001475996,6.94E-06,-6.04E-06,-0.000990184,0.000991075,3.10E-07,5.97E-07,-0.001040229,0.00104533,-0.001040083,0.001045425,-0.001044539,0.001041008,-0.001044462,0.001041081,-0.001104676,0.001092868,-0.001091843,0.001105622,0.729320854,1473840,32975,0.00613104,0.006131075,0.004121086,16.36412334,4.61E-05,4.61E-05,4.61E-05,1561264.466,0.016518335
23760000,0.999896465,0.016736039,0.005910691,0.005910718,0.00491463,-0.001477011,0.001476849,-6.57E-06,6.38E-06,-3.31E-07,2.26E-07,-0.001547825,0.001543186,-0.001543543,0.001547446,-0.001547702,0.001543343,-0.001543341,0.001547689,-0.001324325,0.00131151,-0.001311529,0.001324298,5.04E-07,-4.84E-08,4.23E-07,1.21E-07,-0.001476688,0.001477185,-0.001545148,0.001545915,-0.001545213,0.001545809,-0.001545273,0.001545708,-0.001545412,0.001545586,-0.001317543,0.001318211,-0.001317888,0.001317945,-0.001476769,0.001477689,-0.001477343,0.00147703,6.94E-06,-6.04E-06,-0.000990535,0.000991427,3.04E-07,6.06E-07,-0.001040827,0.001045923,-0.001040677,0.001046024,-0.001045137,0.001041601,-0.001045054,0.00104168,-0.001105084,0.001093287,-0.001092252,0.001106039,0.733087033,1473840,32975,0.006134537,0.006134566,0.004122553,16.5900228,4.79E-05,4.79E-05,4.79E-05,1555442.758,0.016526933
23846400,0.999898258,0.016736067,0.005910702,0.005910728,0.004914638,-0.001477669,0.001477511,-6.57E-06,6.39E-06,-3.32E-07,2.32E-07,-0.001548392,0.001543754,-0.001544109,0.001548014,-0.001548267,0.001543913,-0.001543903,0.00154826,-0.001325031,0.001312218,-0.001312229,0.00132501,5.08E-07,-5.30E-08,4.29E-07,1.16E-07,-0.001477349,0.001477846,-0.001545713,0.001546486,-0.001545781,0.001546377,-0.001545839,0.001546276,-0.001545984,0.001546149,-0.001318244,0.001318922,-0.001318603,0.001318646,-0.001477539,0.001478463,-0.001478123,0.001477796,6.94E-06,-6.04E-06,-0.000990824,0.000991711,2.96E-07,6.09E-07,-0.001041234,0.001046323,-0.00104108,0.001046428,-0.001045546,0.001042001,-0.00104546,0.001042083,-0.00110543,0.001093629,-0.001092594,0.001106383,0.737218939,1473840,32975,0.00613727,0.006137301,0.004123746,16.81592377,4.97E-05,4.97E-05,4.97E-05,1552196.652,0.016533704
23932800,0.999900046,0.016736096,0.005910712,0.005910738,0.004914646,-0.001478322,0.001478145,-6.58E-06,6.38E-06,-3.45E-07,2.26E-07,-0.001548947,0.001544285,-0.001544662,0.001548548,-0.001548818,0.001544447,-0.001544455,0.001548796,-0.001325738,0.001312906,-0.001312936,0.001325701,5.09E-07,-5.93E-08,4.26E-07,1.11E-07,-0.001477995,0.001478486,-0.001546258,0.001547028,-0.001546327,0.001546917,-0.001546387,0.001546815,-0.001546531,0.001546689,-0.001318946,0.001319617,-0.001319305,0.001319337,-0.001478278,0.001479202,-0.001478866,0.001478529,6.95E-06,-6.04E-06,-0.000991082,0.000991977,2.99E-07,6.15E-07,-0.001041647,0.001046744,-0.001041493,0.00104685,-0.00104596,0.00104242,-0.001045872,0.001042504,-0.001105732,0.001093936,-0.001092892,0.001106694,0.741945983,1473840,32975,0.006139933,0.006139962,0.004124837,17.04182499,5.15E-05,5.15E-05,5.15E-05,1549126.868,0.016540226
24019200,0.999901828,0.016736125,0.005910722,0.005910748,0.004914655,-0.001478969,0.00147878,-6.58E-06,6.38E-06,-3.53E-07,2.22E-07,-0.001549501,0.001544825,-0.001545214,0.001549089,-0.001549371,0.001544988,-0.001545006,0.001549338,-0.001326437,0.00131359,-0.00131363,0.00132639,5.09E-07,-6.23E-08,4.29E-07,1.07E-07,-0.001478637,0.001479126,-0.001546803,0.001547575,-0.001546875,0.001547462,-0.001546934,0.001547361,-0.00154708,0.001547232,-0.001319636,0.00132031,-0.001320001,0.001320024,-0.001479015,0.001479939,-0.001479607,0.001479261,6.95E-06,-6.04E-06,-0.000991332,0.00099223,2.97E-07,6.19E-07,-0.00104205,0.001047149,-0.001041894,0.001047257,-0.001046365,0.001042823,-0.001046275,0.001042909,-0.001106023,0.001094226,-0.001093178,0.001106989,0.741967474,1473840,32975,0.006142586,0.006142615,0.004125885,17.26772508,5.33E-05,5.33E-05,5.33E-05,1545899.591,0.016546684
24105600,0.999903603,0.016736153,0.005910732,0.005910758,0.004914663,-0.00147935,0.001479159,-6.59E-06,6.38E-06,-3.56E-07,2.23E-07,-0.001549945,0.001545265,-0.001545658,0.00154953,-0.001549814,0.001545429,-0.001545448,0.00154978,-0.001326737,0.001313888,-0.001313927,0.001326688,5.11E-07,-6.43E-08,4.31E-07,1.04E-07,-0.001479017,0.001479505,-0.001547244,0.001548018,-0.001547318,0.001547903,-0.001547376,0.001547803,-0.001547524,0.001547672,-0.001319932,0.001320609,-0.001320303,0.001320319,-0.001479351,0.001480274,-0.001479946,0.001479594,6.95E-06,-6.04E-06,-0.000991486,0.000992385,2.95E-07,6.22E-07,-0.001042244,0.001047343,-0.001042086,0.001047453,-0.00104656,0.001043017,-0.001046468,0.001043104,-0.00110619,0.001094394,-0.001093343,0.001107159,0.731983034,1473840,32975,0.006144158,0.006144186,0.004126527,17.49362392,5.51E-05,5.51E-05,5.51E-05,1546640.785,0.016550533
24192000,0.999905365,0.016736181,0.005910742,0.005910768,0.004914671,-0.001479176,0.001478982,-6.59E-06,6.37E-06,-3.52E-07,2.16E-07,-0.001550131,0.00154545,-0.001545843,0.001549716,-0.001550002,0.001545611,-0.001545637,0.001549962,-0.001326211,0.001313356,-0.001313404,0.001326156,5.08E-07,-5.59E-08,4.28E-07,1.13E-07,-0.001478839,0.001479333,-0.00154743,0.001548203,-0.0015475,0.001548092,-0.001547559,0.001547991,-0.001547702,0.001547865,-0.001319405,0.001320079,-0.001319762,0.001319801,-0.001478891,0.001479813,-0.001479474,0.001479145,6.95E-06,-6.05E-06,-0.000991485,0.000992379,2.98E-07,6.13E-07,-0.001041991,0.001047088,-0.001041837,0.001047194,-0.001046306,0.001042762,-0.001046218,0.001042846,-0.001106208,0.001094403,-0.001093362,0.001107167,0.733053735,1473840,32975,0.006143434,0.006143463,0.004126506,17.66997625,5.66E-05,5.66E-05,5.66E-05,1555071.162,0.016549039
24278400,0.999907104,0.016736209,0.005910752,0.005910778,0.004914679,-0.001479445,0.001479254,-6.59E-06,6.38E-06,-3.53E-07,2.20E-07,-0.001550375,0.001545697,-0.001546088,0.001549961,-0.001550246,0.001545859,-0.00154588,0.00155021,-0.001326458,0.001313608,-0.00131365,0.001326407,5.10E-07,-5.98E-08,4.28E-07,1.10E-07,-0.001479111,0.001479602,-0.001547676,0.001548448,-0.001547746,0.001548336,-0.001547806,0.001548235,-0.001547951,0.001548108,-0.001319656,0.001320329,-0.001320017,0.001320047,-0.001479211,0.001480136,-0.001479801,0.001479461,6.95E-06,-6.04E-06,-0.000991523,0.000992419,2.98E-07,6.16E-07,-0.001042078,0.001047177,-0.001041923,0.001047284,-0.001046393,0.001042851,-0.001046305,0.001042936,-0.001106306,0.001094507,-0.001093461,0.00110727,0.734266918,1473840,32975,0.006144554,0.006144583,0.004126672,17.75457076,5.72E-05,5.72E-05,5.72E-05,1553346.578,0.016551484
24364800,0.99990882,0.016736236,0.005910761,0.005910788,0.004914687,-0.001479707,0.001479518,-6.58E-06,6.38E-06,-3.55E-07,2.23E-07,-0.001550605,0.001545928,-0.001546319,0.001550192,-0.001550474,0.001546092,-0.00154611,0.001550442,-0.001326712,0.001313867,-0.001313907,0.001326665,5.11E-07,-6.42E-08,4.27E-07,1.07E-07,-0.001479376,0.001479863,-0.001547907,0.001548679,-0.001547978,0.001548566,-0.001548039,0.001548464,-0.001548184,0.001548335,-0.001319914,0.001320584,-0.001320277,0.0013203,-0.001479521,0.001480447,-0.001480116,0.001479767,6.95E-06,-6.04E-06,-0.000991555,0.000992452,2.98E-07,6.18E-07,-0.001042169,0.001047268,-0.001042014,0.001047376,-0.001046484,0.001042943,-0.001046395,0.001043028,-0.001106387,0.001094591,-0.001093544,0.001107352,0.735644562,1473840,32975,0.006145641,0.00614567,0.004126809,17.8354306,5.79E-05,5.79E-05,5.79E-05,1551531.663,0.016553834
24451200,0.999910512,0.016736263,0.005910771,0.005910797,0.004914695,-0.001479969,0.001479782,-6.58E-06,6.38E-06,-3.56E-07,2.28E-07,-0.001550835,0.001546159,-0.001546549,0.001550422,-0.001550702,0.001546325,-0.001546338,0.001550674,-0.001326972,0.001314134,-0.001314168,0.00132693,5.13E-07,-6.75E-08,4.29E-07,1.06E-07,-0.001479639,0.001480126,-0.001548136,0.00154891,-0.001548208,0.001548797,-0.00154827,0.001548693,-0.001548416,0.001548564,-0.001320177,0.001320847,-0.001320543,0.001320561,-0.001479831,0.001480761,-0.001480432,0.001480075,6.95E-06,-6.04E-06,-0.000991583,0.000992481,2.96E-07,6.20E-07,-0.001042259,0.001047357,-0.001042102,0.001047465,-0.001046573,0.001043033,-0.001046483,0.001043119,-0.001106458,0.001094665,-0.001093616,0.001107424,0.733858286,1473840,32975,0.00614673,0.006146759,0.00412693,17.9160565,5.85E-05,5.85E-05,5.85E-05,1549679.053,0.016556171
24537600,0.999912182,0.016736289,0.00591078,0.005910807,0.004914702,-0.00148005,0.001479868,-6.58E-06,6.38E-06,-3.54E-07,2.30E-07,-0.001550985,0.001546314,-0.0015467,0.001550577,-0.001550852,0.00154648,-0.001546489,0.001550829,-0.001326971,0.001314139,-0.001314169,0.001326932,5.11E-07,-6.93E-08,4.27E-07,1.04E-07,-0.001479724,0.001480208,-0.00154829,0.001549062,-0.001548363,0.001548948,-0.001548424,0.001548844,-0.001548571,0.001548715,-0.001320181,0.001320847,-0.001320546,0.001320561,-0.001479866,0.001480792,-0.001480466,0.001480107,6.95E-06,-6.04E-06,-0.000991564,0.00099246,2.96E-07,6.18E-07,-0.001042226,0.001047321,-0.00104207,0.001047429,-0.00104654,0.001042997,-0.001046449,0.001043083,-0.001106461,0.001094668,-0.001093621,0.001107425,0.737632893,1473840,32975,0.006147074,0.006147103,0.004126846,17.99666695,5.92E-05,5.92E-05,5.92E-05,1550624.446,0.016556786
24624000,0.999913829,0.016736316,0.00591079,0.005910816,0.00491471,-0.00148044,0.00148027,-6.57E-06,6.38E-06,-3.53E-07,2.41E-07,-0.001551276,0.001546613,-0.001546991,0.001550875,-0.001551141,0.001546783,-0.001546775,0.001551131,-0.00132741,0.001314589,-0.001314604,0.001327384,5.12E-07,-7.85E-08,4.25E-07,9.76E-08,-0.001480125,0.0014806,-0.001548587,0.001549355,-0.00154866,0.00154924,-0.001548723,0.001549133,-0.001548872,0.001549003,-0.001320628,0.001321288,-0.001321,0.001320998,-0.001480388,0.001481315,-0.001480999,0.001480619,6.95E-06,-6.04E-06,-0.000991633,0.000992529,2.93E-07,6.21E-07,-0.001042397,0.001047491,-0.001042238,0.001047601,-0.001046711,0.001043167,-0.001046619,0.001043255,-0.001106599,0.001094807,-0.001093757,0.001107565,0.742121395,1473840,32975,0.006148715,0.006148745,0.004127138,18.07727647,5.98E-05,5.98E-05,5.98E-05,1546682.207,0.01656042
24710400,0.999915453,0.016736342,0.005910799,0.005910825,0.004914718,-0.001480833,0.001480663,-6.57E-06,6.38E-06,-3.56E-07,2.44E-07,-0.001551554,0.001546889,-0.001547269,0.001551152,-0.001551417,0.001547061,-0.001547051,0.00155141,-0.001327872,0.001315053,-0.001315064,0.001327849,5.14E-07,-8.29E-08,4.28E-07,9.29E-08,-0.001480519,0.001480992,-0.001548863,0.001549633,-0.001548939,0.001549516,-0.001549002,0.00154941,-0.001549153,0.001549277,-0.001321088,0.001321753,-0.00132147,0.001321455,-0.0014809,0.001481828,-0.001481518,0.001481126,6.95E-06,-6.04E-06,-0.00099169,0.000992585,2.89E-07,6.24E-07,-0.001042592,0.001047683,-0.00104243,0.001047795,-0.001046906,0.001043359,-0.001046812,0.001043449,-0.001106703,0.001094912,-0.00109386,0.001107671,0.741948527,1473840,32975,0.006150341,0.006150372,0.004127376,18.15788554,6.05E-05,6.05E-05,6.05E-05,1542618.386,0.01656397
24796800,0.999917054,0.016736367,0.005910808,0.005910834,0.004914725,-0.001480963,0.001480785,-6.58E-06,6.38E-06,-3.60E-07,2.40E-07,-0.001551717,0.001547043,-0.001547431,0.001551307,-0.001551579,0.001547215,-0.001547214,0.001551564,-0.001327955,0.00131513,-0.001315151,0.001327925,5.18E-07,-7.85E-08,4.32E-07,9.62E-08,-0.001480641,0.001481121,-0.001549018,0.001549795,-0.001549094,0.001549677,-0.001549157,0.001549573,-0.001549307,0.001549439,-0.001321166,0.001321837,-0.001321544,0.001321538,-0.001480992,0.001481927,-0.001481608,0.001481225,6.95E-06,-6.04E-06,-0.000991648,0.000992547,2.90E-07,6.26E-07,-0.001042595,0.001047689,-0.001042434,0.001047801,-0.001046909,0.001043364,-0.001046814,0.001043455,-0.00110667,0.001094882,-0.001093828,0.001107641,0.717822075,1473840,32975,0.006150862,0.006150891,0.004127212,18.23849414,6.11E-05,6.11E-05,6.11E-05,1542650.933,0.016564861
24883200,0.999918633,0.016736392,0.005910817,0.005910843,0.004914732,-0.001479848,0.001479651,-6.59E-06,6.37E-06,-3.53E-07,2.14E-07,-0.001551448,0.001546768,-0.001547163,0.001551031,-0.00155132,0.001546929,-0.001546957,0.001551277,-0.001326024,0.001313173,-0.001313223,0.001325966,5.06E-07,-5.76E-08,4.08E-07,1.29E-07,-0.001479512,0.001480002,-0.001548756,0.001549512,-0.001548813,0.001549413,-0.001548884,0.001549301,-0.001549016,0.001549187,-0.00131924,0.001319875,-0.001319563,0.001319632,-0.001479185,0.001480116,-0.001479769,0.001479447,6.94E-06,-6.04E-06,-0.000991399,0.000992289,3.15E-07,5.94E-07,-0.001041595,0.0010467,-0.001041454,0.001046793,-0.001045908,0.001042376,-0.001045833,0.001042447,-0.001106472,0.00109466,-0.001093634,0.001107416,0.72017114,1473840,32975,0.006146211,0.00614624,0.004126143,18.31910321,6.18E-05,6.18E-05,6.18E-05,1563802.741,0.016554313
24969600,0.999920197,0.016736416,0.005910825,0.005910852,0.004914739,-0.001480377,0.001480175,-6.59E-06,6.37E-06,-3.60E-07,2.17E-07,-0.001551882,0.001547192,-0.001547596,0.001551456,-0.001551753,0.001547356,-0.001547387,0.001551706,-0.001326607,0.001313746,-0.001313798,0.001326546,5.11E-07,-6.15E-08,4.13E-07,1.27E-07,-0.001480038,0.00148053,-0.001549182,0.001549946,-0.001549242,0.001549846,-0.001549312,0.001549731,-0.001549447,0.001549614,-0.001319814,0.001320456,-0.001320146,0.001320207,-0.001479824,0.001480763,-0.001480417,0.001480084,6.94E-06,-6.05E-06,-0.000991585,0.000992475,3.10E-07,5.96E-07,-0.001041884,0.001046987,-0.001041739,0.001047083,-0.001046199,0.001042662,-0.001046122,0.001042736,-0.001106729,0.001094913,-0.001093885,0.001107674,0.722246527,1473840,32975,0.006148392,0.006148422,0.004126919,18.47176367,6.30E-05,6.30E-05,6.30E-05,1560327.08,0.016559536
25056000,0.999921757,0.016736441,0.005910834,0.00591086,0.004914746,-0.001481089,0.001480947,-6.56E-06,6.40E-06,-3.34E-07,2.49E-07,-0.00155251,0.001547876,-0.001548221,0.001552141,-0.00155238,0.001548041,-0.001548009,0.001552393,-0.001327358,0.001314553,-0.00131454,0.001327357,5.19E-07,-5.96E-08,4.24E-07,1.27E-07,-0.001480774,0.001481276,-0.001549828,0.001550607,-0.001549892,0.001550505,-0.001549959,0.001550391,-0.001550101,0.001550271,-0.001320578,0.001321241,-0.001320926,0.001320984,-0.001480661,0.001481612,-0.001481265,0.001480929,6.95E-06,-6.05E-06,-0.000991967,0.000992851,3.01E-07,5.98E-07,-0.001042376,0.001047472,-0.001042227,0.00104757,-0.001046693,0.001043144,-0.001046612,0.001043221,-0.001107183,0.001095359,-0.001094333,0.001108129,0.72443194,1473840,32975,0.006151462,0.00615149,0.004128496,18.74623899,6.52E-05,6.52E-05,6.52E-05,1557775.793,0.016567381
25142400,0.999923314,0.016736465,0.005910843,0.005910869,0.004914753,-0.001481835,0.001481696,-6.57E-06,6.41E-06,-3.34E-07,2.53E-07,-0.001553176,0.001548543,-0.001548885,0.001552809,-0.001553044,0.001548709,-0.001548671,0.001553063,-0.001328136,0.00131533,-0.00131531,0.00132814,5.24E-07,-6.00E-08,4.32E-07,1.24E-07,-0.001481519,0.001482026,-0.001550488,0.001551278,-0.001550556,0.001551172,-0.001550621,0.00155106,-0.001550766,0.001550936,-0.001321347,0.001322025,-0.001321708,0.001321757,-0.001481505,0.001482463,-0.001482115,0.001481774,6.95E-06,-6.06E-06,-0.000992356,0.000993236,2.93E-07,6.02E-07,-0.001042872,0.001047963,-0.001042718,0.001048065,-0.001047191,0.001043633,-0.001047106,0.001043714,-0.001107644,0.001095815,-0.001094788,0.001108592,0.726726563,1473840,32975,0.006154556,0.006154584,0.004130105,19.02567827,6.74E-05,6.74E-05,6.74E-05,1555315.544,0.016575307
25228800,0.999924866,0.01673649,0.005910852,0.005910878,0.00491476,-0.001482569,0.00148245,-6.56E-06,6.42E-06,-3.29E-07,2.68E-07,-0.001553833,0.001549214,-0.001549539,0.001553483,-0.001553698,0.001549384,-0.001549323,0.00155374,-0.001328899,0.001316109,-0.001316066,0.001328927,5.25E-07,-6.77E-08,4.34E-07,1.15E-07,-0.001482266,0.001482766,-0.001551152,0.001551942,-0.001551224,0.001551832,-0.001551288,0.001551721,-0.001551437,0.001551593,-0.001322118,0.001322797,-0.001322489,0.001322518,-0.001482349,0.001483305,-0.001482967,0.001482607,6.95E-06,-6.06E-06,-0.000992745,0.00099362,2.85E-07,6.05E-07,-0.001043366,0.001048452,-0.00104321,0.001048558,-0.001047688,0.001044119,-0.001047599,0.001044204,-0.001108106,0.001096268,-0.001095242,0.001109052,0.729157199,1473840,32975,0.006157636,0.006157663,0.004131714,19.30542849,6.96E-05,6.96E-05,6.96E-05,1552914.037,0.016583205
25315200,0.999926413,0.016736514,0.00591086,0.005910886,0.004914767,-0.001483295,0.001483204,-6.55E-06,6.44E-06,-3.20E-07,2.87E-07,-0.001554484,0.001549885,-0.001550188,0.001554157,-0.001554345,0.001550059,-0.001549968,0.001554418,-0.001329655,0.001316887,-0.001316814,0.001329713,5.30E-07,-7.30E-08,4.40E-07,1.08E-07,-0.001483006,0.001483507,-0.001551811,0.001552608,-0.001551886,0.001552493,-0.00155195,0.001552383,-0.001552103,0.001552251,-0.001322881,0.001323568,-0.001323263,0.001323277,-0.001483184,0.001484146,-0.001483811,0.001483437,6.96E-06,-6.06E-06,-0.000993124,0.000994011,2.85E-07,6.17E-07,-0.001043852,0.001048947,-0.001043691,0.001049057,-0.001048176,0.001044612,-0.001048084,0.0010447,-0.001108557,0.001096725,-0.001095684,0.001109518,0.731805406,1473840,32975,0.006160699,0.006160728,0.004133317,19.58519968,7.19E-05,7.19E-05,7.19E-05,1550559.844,0.016591065
25401600,0.999927955,0.016736539,0.005910869,0.005910895,0.004914775,-0.001484042,0.001483926,-6.57E-06,6.43E-06,-3.38E-07,2.80E-07,-0.001555158,0.00155053,-0.00155086,0.001554804,-0.001555017,0.001550707,-0.001550636,0.001555068,-0.001330432,0.001317634,-0.001317582,0.001330468,5.28E-07,-8.68E-08,4.36E-07,9.63E-08,-0.00148375,0.001484234,-0.001552475,0.001553264,-0.001552554,0.001553146,-0.001552618,0.001553034,-0.001552774,0.001552899,-0.001323648,0.001324324,-0.001324039,0.001324024,-0.001484018,0.001484971,-0.001484657,0.001484253,6.97E-06,-6.06E-06,-0.000993505,0.000994399,2.85E-07,6.25E-07,-0.001044336,0.001049438,-0.001044172,0.001049551,-0.001048663,0.001045101,-0.001048568,0.001045192,-0.001109004,0.001097176,-0.001096123,0.001109975,0.740415874,1473840,32975,0.00616374,0.006163771,0.004134916,19.86497403,7.41E-05,7.41E-05,7.41E-05,1548173.22,0.016598876
25488000,0.99992949,0.016736564,0.005910878,0.005910904,0.004914782,-0.001485084,0.00148493,-6.59E-06,6.42E-06,-3.64E-07,2.68E-07,-0.001555941,0.001551265,-0.00155164,0.001555543,-0.001555793,0.001551447,-0.001551412,0.001555812,-0.001331654,0.001318814,-0.001318798,0.001331658,5.26E-07,-1.03E-07,4.35E-07,7.88E-08,-0.001484781,0.001485247,-0.001553239,0.001554018,-0.001553321,0.001553894,-0.001553388,0.001553785,-0.001553546,0.001553645,-0.001324858,0.001325525,-0.00132526,0.001325207,-0.001485302,0.001486247,-0.001485952,0.001485513,6.98E-06,-6.06E-06,-0.000993959,0.000994863,2.83E-07,6.39E-07,-0.001045047,0.001050157,-0.001044879,0.001050276,-0.001049377,0.001045816,-0.001049277,0.001045913,-0.001109551,0.001097728,-0.001096662,0.001110537,0.7475561,1473840,32975,0.006167973,0.006168003,0.00413683,20.13938732,7.63E-05,7.63E-05,7.63E-05,1541175.185,0.016609429
25574400,0.999931018,0.016736589,0.005910887,0.005910913,0.004914789,-0.001485948,0.001485778,-6.60E-06,6.41E-06,-3.71E-07,2.60E-07,-0.001556639,0.001551947,-0.001552336,0.001556229,-0.001556492,0.001552129,-0.001552109,0.001556497,-0.001332634,0.001319773,-0.001319774,0.001332625,5.28E-07,-1.00E-07,4.44E-07,7.33E-08,-0.001485635,0.001486105,-0.001553926,0.001554714,-0.001554013,0.001554585,-0.001554074,0.001554481,-0.001554237,0.001554336,-0.00132582,0.001326505,-0.001326235,0.001326172,-0.001486315,0.001487258,-0.001486963,0.001486525,6.98E-06,-6.07E-06,-0.000994346,0.000995252,2.76E-07,6.47E-07,-0.001045648,0.001050757,-0.001045475,0.00105088,-0.001049981,0.001046414,-0.001049875,0.001046516,-0.001109985,0.001098161,-0.001097089,0.001110975,0.748429105,1473840,32975,0.006171517,0.006171546,0.004138445,20.41866273,7.85E-05,7.85E-05,7.85E-05,1536464.897,0.016618277
25660800,0.999932539,0.016736613,0.005910895,0.005910922,0.004914796,-0.001486429,0.001486252,-6.61E-06,6.41E-06,-3.73E-07,2.54E-07,-0.001557176,0.001552475,-0.00155287,0.001556759,-0.001557029,0.001552656,-0.001552644,0.001557025,-0.001333052,0.001320178,-0.001320188,0.001333034,5.27E-07,-9.61E-08,4.47E-07,7.34E-08,-0.001486111,0.001486584,-0.001554457,0.001555248,-0.001554545,0.001555117,-0.001554604,0.001555016,-0.001554768,0.00155487,-0.001326228,0.00132692,-0.001326644,0.001326583,-0.00148674,0.001487681,-0.001487383,0.001486953,6.98E-06,-6.07E-06,-0.000994553,0.000995462,2.77E-07,6.51E-07,-0.001045937,0.00105105,-0.001045764,0.001051175,-0.001050272,0.001046705,-0.001050164,0.001046808,-0.001110184,0.00109836,-0.001097283,0.001111179,0.74897582,1473840,32975,0.006173492,0.006173521,0.004139312,20.6983719,8.08E-05,8.08E-05,8.08E-05,1537210.751,0.016623175
25747200,0.999934041,0.016736638,0.005910904,0.00591093,0.004914803,-0.001486688,0.001486511,-6.61E-06,6.41E-06,-3.70E-07,2.52E-07,-0.001557483,0.001552783,-0.001553177,0.001557068,-0.001557338,0.001552962,-0.001552953,0.001557332,-0.001333244,0.001320367,-0.00132038,0.001333224,5.25E-07,-9.29E-08,4.47E-07,7.40E-08,-0.001486369,0.001486843,-0.001554765,0.001555555,-0.001554853,0.001555425,-0.001554911,0.001555326,-0.001555074,0.001555179,-0.001326418,0.001327112,-0.001326833,0.001326776,-0.001486968,0.001487905,-0.001487605,0.001487182,6.99E-06,-6.07E-06,-0.000994602,0.000995513,2.78E-07,6.52E-07,-0.001046034,0.001051149,-0.001045861,0.001051274,-0.001050369,0.001046804,-0.001050262,0.001046906,-0.001110244,0.00109842,-0.001097342,0.001111241,0.747716815,1473840,32975,0.006174564,0.006174593,0.00413952,20.85069204,8.20E-05,8.20E-05,8.20E-05,1537371.789,0.016625565
25833600,0.999935505,0.016736661,0.005910912,0.005910939,0.00491481,-0.001486499,0.001486321,-6.61E-06,6.41E-06,-3.68E-07,2.48E-07,-0.00155737,0.001552673,-0.001553065,0.001556956,-0.001557226,0.00155285,-0.001552844,0.001557218,-0.001332975,0.001320101,-0.001320116,0.001332952,5.23E-07,-8.94E-08,4.45E-07,7.63E-08,-0.001486179,0.001486654,-0.001554655,0.001555442,-0.001554742,0.001555313,-0.001554799,0.001555215,-0.00155496,0.00155507,-0.001326152,0.001326844,-0.001326562,0.001326512,-0.001486714,0.001487648,-0.001487344,0.00148693,6.98E-06,-6.06E-06,-0.000994337,0.000995247,2.80E-07,6.49E-07,-0.001045772,0.001050885,-0.0010456,0.001051009,-0.001050105,0.001046541,-0.001049999,0.001046643,-0.001109972,0.001098151,-0.001097074,0.001110966,0.747421517,1473840,32975,0.006173778,0.006173807,0.004138418,20.80371662,8.16E-05,8.16E-05,8.16E-05,1537919.943,0.016622847
25920000,0.999936931,0.016736684,0.005910921,0.005910947,0.004914817,-0.001486361,0.001486181,-6.61E-06,6.41E-06,-3.66E-07,2.45E-07,-0.001557271,0.001552575,-0.001552968,0.001556857,-0.001557129,0.001552751,-0.001552748,0.001557118,-0.00133278,0.001319906,-0.001319924,0.001332754,5.22E-07,-8.66E-08,4.45E-07,7.87E-08,-0.00148604,0.001486516,-0.001554557,0.001555344,-0.001554643,0.001555215,-0.0015547,0.001555117,-0.00155486,0.001554974,-0.001325957,0.001326649,-0.001326364,0.00132632,-0.001486555,0.001487488,-0.001487182,0.001486775,6.98E-06,-6.06E-06,-0.00099409,0.000995,2.81E-07,6.47E-07,-0.001045529,0.001050642,-0.001045359,0.001050765,-0.001049861,0.0010463,-0.001049757,0.0010464,-0.001109744,0.001097925,-0.00109685,0.001110737,0.746792931,1473840,32975,0.006173204,0.006173233,0.004137393,20.74508843,8.12E-05,8.12E-05,8.12E-05,1537433.317,0.016620638
26006400,0.999938321,0.016736707,0.005910929,0.005910955,0.004914823,-0.001486214,0.001486037,-6.60E-06,6.41E-06,-3.64E-07,2.44E-07,-0.00155716,0.001552467,-0.001552857,0.001556748,-0.001557018,0.001552642,-0.001552638,0.001557008,-0.001332587,0.001319717,-0.001319735,0.001332561,5.20E-07,-8.49E-08,4.44E-07,7.95E-08,-0.001485894,0.001486371,-0.001554448,0.001555233,-0.001554533,0.001555105,-0.00155459,0.001555008,-0.001554749,0.001554865,-0.001325766,0.001326458,-0.001326171,0.00132613,-0.001486386,0.001487315,-0.001487008,0.001486605,6.98E-06,-6.06E-06,-0.000993851,0.000994758,2.81E-07,6.45E-07,-0.001045299,0.001050409,-0.001045129,0.001050531,-0.00104963,0.001046068,-0.001049526,0.001046168,-0.001109519,0.001097701,-0.001096629,0.001110508,0.741528727,1473840,32975,0.006172601,0.006172629,0.004136398,20.68541516,8.07E-05,8.07E-05,8.07E-05,1537051.197,0.016618399
26092800,0.999939675,0.016736728,0.005910936,0.005910962,0.00491483,-0.00148586,0.001485671,-6.61E-06,6.40E-06,-3.63E-07,2.32E-07,-0.001556987,0.001552288,-0.001552685,0.001556568,-0.00155685,0.001552458,-0.00155247,0.001556823,-0.001332039,0.001319155,-0.001319188,0.001331998,5.16E-07,-7.59E-08,4.40E-07,8.87E-08,-0.001485532,0.001486013,-0.001554273,0.001555055,-0.001554354,0.001554932,-0.001554411,0.001554834,-0.001554566,0.001554695,-0.001325212,0.001325901,-0.001325605,0.001325586,-0.001485892,0.001486819,-0.001486504,0.001486122,6.98E-06,-6.06E-06,-0.000993568,0.000994475,2.87E-07,6.38E-07,-0.001044876,0.001049989,-0.00104471,0.001050107,-0.001049206,0.001045648,-0.001049106,0.001045744,-0.00110927,0.001097448,-0.001096381,0.001110255,0.730548562,1473840,32975,0.006171111,0.00617114,0.00413522,20.62564115,8.02E-05,8.02E-05,8.02E-05,1540340.87,0.016614172
26179200,0.999940994,0.016736749,0.005910944,0.00591097,0.004914836,-0.001485202,0.001485016,-6.60E-06,6.40E-06,-3.57E-07,2.28E-07,-0.0015567,0.00155201,-0.0015524,0.001556287,-0.001556566,0.001552176,-0.001552189,0.001556539,-0.001331011,0.001318133,-0.001318167,0.00133097,5.12E-07,-6.92E-08,4.29E-07,1.02E-07,-0.001484874,0.001485358,-0.001553995,0.001554768,-0.001554068,0.001554653,-0.001554129,0.00155455,-0.001554277,0.00155442,-0.001324196,0.001324867,-0.001324565,0.001324576,-0.001484941,0.001485868,-0.001485542,0.001485181,6.98E-06,-6.05E-06,-0.000993248,0.000994161,3.02E-07,6.29E-07,-0.00104423,0.001049356,-0.001044073,0.001049466,-0.001048558,0.001045018,-0.001048467,0.001045105,-0.001108989,0.001097172,-0.001096107,0.001109972,0.743244886,1473840,32975,0.006168396,0.006168425,0.004133899,20.56585596,7.97E-05,7.97E-05,7.97E-05,1548725.062,0.016607305
26265600,0.99994228,0.01673677,0.005910951,0.005910977,0.004914842,-0.001485899,0.001485714,-6.60E-06,6.40E-06,-3.59E-07,2.32E-07,-0.001556938,0.001552248,-0.00155264,0.001556525,-0.001556805,0.001552416,-0.001552425,0.001556781,-0.001332073,0.001319193,-0.001319225,0.001332036,5.18E-07,-6.91E-08,4.46E-07,9.24E-08,-0.001485568,0.001486059,-0.001554225,0.001555013,-0.001554305,0.00155489,-0.00155436,0.001554796,-0.001554516,0.001554655,-0.001325242,0.001325947,-0.001325641,0.001325628,-0.001486074,0.001487006,-0.001486685,0.001486312,6.97E-06,-6.06E-06,-0.000993276,0.00099418,2.84E-07,6.38E-07,-0.001044631,0.00104974,-0.001044463,0.001049858,-0.001048959,0.001045401,-0.00104886,0.001045497,-0.001109117,0.001097297,-0.001096233,0.0011101,0.751940697,1473840,32975,0.00617128,0.006171309,0.004134007,20.50606876,7.92E-05,7.92E-05,7.92E-05,1535384.105,0.016613283
26352000,0.999943533,0.016736791,0.005910958,0.005910985,0.004914848,-0.00148622,0.001486043,-6.60E-06,6.40E-06,-3.58E-07,2.39E-07,-0.001556984,0.001552297,-0.001552684,0.001556576,-0.001556847,0.001552468,-0.001552468,0.001556833,-0.001332647,0.001319778,-0.001319799,0.001332619,5.17E-07,-7.72E-08,4.48E-07,8.03E-08,-0.001485898,0.00148638,-0.001554274,0.001555061,-0.00155436,0.001554932,-0.001554411,0.00155484,-0.001554573,0.001554695,-0.00132582,0.001326525,-0.001326231,0.001326193,-0.001486624,0.001487548,-0.001487239,0.001486847,6.97E-06,-6.06E-06,-0.000993193,0.000994098,2.78E-07,6.46E-07,-0.001044831,0.001049937,-0.00104466,0.00105006,-0.00104916,0.001045597,-0.001049055,0.001045698,-0.001109045,0.00109723,-0.001096159,0.001110034,0.752724398,1473840,32975,0.006172625,0.006172654,0.004133672,20.44628333,7.88E-05,7.88E-05,7.88E-05,1527587.562,0.01661568
26438400,0.999944755,0.016736811,0.005910966,0.005910992,0.004914854,-0.001486054,0.001485869,-6.60E-06,6.40E-06,-3.60E-07,2.34E-07,-0.001556854,0.001552162,-0.001552554,0.00155644,-0.001556717,0.001552332,-0.001552339,0.001556695,-0.001332447,0.001319573,-0.001319602,0.00133241,5.16E-07,-7.47E-08,4.47E-07,8.27E-08,-0.001485727,0.00148621,-0.001554141,0.001554928,-0.001554226,0.0015548,-0.001554278,0.001554707,-0.001554438,0.001554564,-0.001325618,0.001326321,-0.001326024,0.001325993,-0.001486414,0.001487336,-0.001487024,0.00148664,6.97E-06,-6.06E-06,-0.000992887,0.000993794,2.81E-07,6.45E-07,-0.001044574,0.001049682,-0.001044404,0.001049804,-0.001048902,0.001045343,-0.001048798,0.001045443,-0.001108713,0.001096902,-0.00109583,0.001109703,0.757346925,1473840,32975,0.00617192,0.006171949,0.004132405,20.38649698,7.83E-05,7.83E-05,7.83E-05,1526991.517,0.016612958
26524800,0.999945953,0.016736831,0.005910973,0.005910999,0.004914859,-0.001486296,0.001486111,-6.60E-06,6.40E-06,-3.60E-07,2.33E-07,-0.001557006,0.001552313,-0.001552706,0.001556591,-0.00155687,0.001552483,-0.001552492,0.001556846,-0.001332754,0.001319878,-0.001319909,0.001332716,5.16E-07,-7.35E-08,4.49E-07,8.17E-08,-0.001485969,0.001486453,-0.001554292,0.00155508,-0.001554378,0.001554952,-0.001554428,0.00155486,-0.001554589,0.001554716,-0.001325922,0.00132663,-0.001326331,0.001326299,-0.001486736,0.001487657,-0.001487345,0.001486962,6.97E-06,-6.06E-06,-0.000992835,0.000993743,2.79E-07,6.47E-07,-0.001044661,0.001049768,-0.00104449,0.001049891,-0.001048989,0.001045429,-0.001048884,0.00104553,-0.001108677,0.001096868,-0.001095794,0.001109669,0.75917773,1473840,32975,0.00617292,0.006172949,0.004132196,20.4255457,7.86E-05,7.86E-05,7.86E-05,1523567.372,0.016614779
26611200,0.999947138,0.01673685,0.005910979,0.005911006,0.004914865,-0.001486662,0.001486488,-6.60E-06,6.40E-06,-3.55E-07,2.38E-07,-0.001557378,0.001552696,-0.001553077,0.001556974,-0.001557242,0.001552865,-0.001552863,0.001557229,-0.001333092,0.001320225,-0.001320244,0.001333065,5.17E-07,-7.25E-08,4.51E-07,8.18E-08,-0.001486339,0.001486825,-0.001554667,0.001555459,-0.001554755,0.00155533,-0.001554804,0.001555239,-0.001554966,0.001555094,-0.001326262,0.001326974,-0.001326673,0.001326641,-0.001487108,0.001488031,-0.001487718,0.001487336,6.98E-06,-6.06E-06,-0.000992951,0.000993859,2.78E-07,6.49E-07,-0.001044853,0.001049961,-0.001044681,0.001050085,-0.001049182,0.001045621,-0.001049076,0.001045723,-0.001108811,0.001096999,-0.001095925,0.001109804,0.758886899,1473840,32975,0.006174457,0.006174486,0.004132679,20.60640912,8.01E-05,8.01E-05,8.01E-05,1522892.446,0.016618395
26697600,0.999948311,0.016736869,0.005910986,0.005911012,0.004914871,-0.001486968,0.0014868,-6.60E-06,6.41E-06,-3.52E-07,2.41E-07,-0.001557738,0.001553062,-0.001553436,0.00155734,-0.001557603,0.001553231,-0.001553222,0.001557596,-0.001333335,0.001320472,-0.001320484,0.001333314,5.24E-07,-6.64E-08,4.59E-07,8.76E-08,-0.001486642,0.001487141,-0.001555024,0.001555831,-0.001555113,0.001555701,-0.00155516,0.001555609,-0.001555324,0.001555464,-0.001326498,0.001327226,-0.001326913,0.001326891,-0.001487366,0.0014883,-0.001487978,0.001487608,6.98E-06,-6.06E-06,-0.000993074,0.000993982,2.77E-07,6.49E-07,-0.001045015,0.001050123,-0.001044842,0.001050247,-0.001049345,0.001045782,-0.001049238,0.001045884,-0.001108944,0.001097131,-0.001096056,0.001109937,0.75768461,1473840,32975,0.006175735,0.006175767,0.00413319,20.79556297,8.16E-05,8.16E-05,8.16E-05,1523551.578,0.016621517
26784000,0.999949471,0.016736888,0.005910993,0.005911019,0.004914876,-0.001487272,0.001487101,-6.60E-06,6.41E-06,-3.54E-07,2.39E-07,-0.001558112,0.001553433,-0.001553811,0.001557711,-0.001557978,0.001553602,-0.001553596,0.001557967,-0.001333554,0.001320688,-0.001320703,0.001333529,5.30E-07,-5.97E-08,4.67E-07,9.39E-08,-0.001486937,0.00148745,-0.001555389,0.00155621,-0.001555479,0.001556079,-0.001555526,0.001555988,-0.00155569,0.001555843,-0.001326707,0.001327449,-0.001327123,0.001327114,-0.001487613,0.001488559,-0.001488225,0.001487868,6.98E-06,-6.06E-06,-0.000993209,0.000994118,2.77E-07,6.50E-07,-0.001045161,0.001050269,-0.001044987,0.001050393,-0.001049491,0.001045928,-0.001049384,0.00104603,-0.001109104,0.001097291,-0.001096215,0.001110098,0.755735931,1473840,32975,0.006176989,0.006177018,0.004133754,20.98546022,8.31E-05,8.31E-05,8.31E-05,1524673.828,0.016624636
26870400,0.999950618,0.016736907,0.005911,0.005911026,0.004914882,-0.00148757,0.00148739,-6.60E-06,6.40E-06,-3.58E-07,2.35E-07,-0.001558495,0.001553807,-0.001554192,0.001558086,-0.001558359,0.001553976,-0.001553978,0.001558341,-0.001333745,0.001320869,-0.001320892,0.001333712,5.24E-07,-6.57E-08,4.60E-07,8.76E-08,-0.001487237,0.001487738,-0.001555773,0.001556581,-0.001555863,0.001556451,-0.00155591,0.001556361,-0.001556074,0.001556215,-0.001326899,0.001327629,-0.001327315,0.001327294,-0.001487859,0.001488794,-0.001488471,0.001488102,6.98E-06,-6.06E-06,-0.000993357,0.000994267,2.77E-07,6.50E-07,-0.001045291,0.0010504,-0.001045117,0.001050525,-0.001049621,0.001046059,-0.001049514,0.001046161,-0.001109293,0.001097481,-0.001096403,0.001110289,0.753216492,1473840,32975,0.006178204,0.006178234,0.004134371,21.17542906,8.46E-05,8.46E-05,8.46E-05,1526164.903,0.016627733
26956800,0.999951752,0.016736926,0.005911006,0.005911032,0.004914887,-0.001487854,0.001487673,-6.61E-06,6.40E-06,-3.59E-07,2.35E-07,-0.001558874,0.001554183,-0.001554571,0.001558463,-0.001558738,0.001554352,-0.001554356,0.001558719,-0.001333909,0.001321029,-0.001321054,0.001333875,5.21E-07,-6.88E-08,4.57E-07,8.50E-08,-0.001487524,0.001488018,-0.001556155,0.001556956,-0.001556244,0.001556826,-0.001556291,0.001556735,-0.001556454,0.00155659,-0.001327066,0.001327788,-0.00132748,0.001327454,-0.001488089,0.001489018,-0.0014887,0.001488325,6.98E-06,-6.06E-06,-0.000993517,0.000994428,2.79E-07,6.51E-07,-0.001045413,0.001050526,-0.00104524,0.00105065,-0.001049745,0.001046184,-0.001049638,0.001046286,-0.001109506,0.001097692,-0.001096613,0.001110503,0.750299738,1473840,32975,0.006179379,0.006179409,0.004135038,21.36540501,8.61E-05,8.61E-05,8.61E-05,1527929.967,0.0166308
27043200,0.999952873,0.016736944,0.005911013,0.005911039,0.004914892,-0.001488133,0.001487946,-6.61E-06,6.40E-06,-3.61E-07,2.32E-07,-0.001559252,0.001554555,-0.001554948,0.001558836,-0.001559117,0.001554724,-0.001554734,0.001559091,-0.001334063,0.001321174,-0.001321205,0.001334023,5.25E-07,-6.46E-08,4.60E-07,9.00E-08,-0.001487795,0.001488298,-0.001556526,0.001557335,-0.001556614,0.001557205,-0.001556662,0.001557114,-0.001556825,0.001556969,-0.001327212,0.00132794,-0.001327624,0.001327609,-0.001488299,0.001489236,-0.001488909,0.001488543,6.98E-06,-6.06E-06,-0.000993689,0.000994597,2.78E-07,6.48E-07,-0.001045537,0.001050648,-0.001045364,0.001050772,-0.001049869,0.001046305,-0.001049763,0.001046406,-0.001109734,0.001097913,-0.001096838,0.001110727,0.7471182,1473840,32975,0.00618052,0.00618055,0.004135745,21.55538192,8.76E-05,8.76E-05,8.76E-05,1529902.306,0.016633839
27129600,0.999953981,0.016736962,0.005911019,0.005911045,0.004914898,-0.001488399,0.001488218,-6.61E-06,6.41E-06,-3.59E-07,2.35E-07,-0.001559624,0.001554931,-0.001555319,0.001559213,-0.001559488,0.0015551,-0.001555104,0.001559468,-0.001334199,0.001321312,-0.001321338,0.001334165,5.24E-07,-6.56E-08,4.57E-07,9.11E-08,-0.001488065,0.001488566,-0.001556901,0.001557707,-0.001556988,0.001557579,-0.001557037,0.001557486,-0.001557199,0.001557342,-0.001327352,0.001328075,-0.00132776,0.001327746,-0.001488503,0.00148944,-0.001489114,0.001488747,6.99E-06,-6.06E-06,-0.000993862,0.000994777,2.84E-07,6.50E-07,-0.001045651,0.001050771,-0.00104548,0.001050894,-0.001049984,0.001046427,-0.001049879,0.001046527,-0.001109968,0.001098149,-0.001097069,0.001110967,0.74375507,1473840,32975,0.006181635,0.006181665,0.004136478,21.74535913,8.92E-05,8.92E-05,8.92E-05,1532050.806,0.01663685
27216000,0.999955075,0.016736979,0.005911025,0.005911051,0.004914903,-0.001488662,0.001488481,-6.61E-06,6.41E-06,-3.58E-07,2.34E-07,-0.001559997,0.001555303,-0.00155569,0.001559587,-0.001559862,0.001555472,-0.001555476,0.001559842,-0.001334326,0.001321435,-0.00132146,0.001334292,5.18E-07,-7.07E-08,4.50E-07,8.67E-08,-0.001488334,0.001488823,-0.001557279,0.001558073,-0.001557366,0.001557946,-0.001557416,0.001557853,-0.001557576,0.00155771,-0.001327483,0.001328193,-0.001327889,0.001327867,-0.001488704,0.001489629,-0.001489314,0.001488938,6.99E-06,-6.06E-06,-0.000994045,0.000994958,2.84E-07,6.48E-07,-0.001045766,0.001050886,-0.001045595,0.001051008,-0.001050101,0.001046541,-0.001049997,0.00104664,-0.001110215,0.001098389,-0.001097311,0.001111211,0.740261394,1473840,32975,0.006182725,0.006182754,0.004137231,21.93533655,9.07E-05,9.07E-05,9.07E-05,1534349.405,0.016639831
27302400,0.999956153,0.016736996,0.005911031,0.005911058,0.004914908,-0.00148886,0.001488673,-6.62E-06,6.41E-06,-3.60E-07,2.30E-07,-0.00156031,0.001555609,-0.001556002,0.001559894,-0.001560175,0.001555777,-0.001555789,0.001560148,-0.001334383,0.001321483,-0.001321515,0.001334342,5.19E-07,-6.79E-08,4.50E-07,9.00E-08,-0.001488527,0.00148902,-0.001557588,0.001558384,-0.001557673,0.001558257,-0.001557724,0.001558164,-0.001557883,0.001558022,-0.001327535,0.001328245,-0.001327938,0.001327923,-0.001488827,0.001489755,-0.001489434,0.001489065,6.99E-06,-6.07E-06,-0.000994179,0.000995092,2.85E-07,6.46E-07,-0.001045824,0.001050946,-0.001045655,0.001051066,-0.00105016,0.001046599,-0.001050056,0.001046697,-0.001110413,0.001098583,-0.001097507,0.001111408,0.739667658,1473840,32975,0.006183534,0.006183562,0.004137787,22.09408357,9.20E-05,9.20E-05,9.20E-05,1536689.226,0.016642039
27388800,0.999957213,0.016737014,0.005911037,0.005911064,0.004914913,-0.001489131,0.001488943,-6.62E-06,6.41E-06,-3.59E-07,2.29E-07,-0.001560607,0.001555906,-0.001556299,0.001560192,-0.001560473,0.001556074,-0.001556086,0.001560445,-0.001334568,0.001321664,-0.001321698,0.001334526,5.13E-07,-7.13E-08,4.45E-07,8.56E-08,-0.001488802,0.001489286,-0.001557892,0.001558675,-0.001557975,0.001558549,-0.001558027,0.001558457,-0.001558185,0.001558315,-0.001327725,0.001328426,-0.001328126,0.001328103,-0.001489122,0.00149004,-0.001489726,0.001489351,6.99E-06,-6.07E-06,-0.000994283,0.000995191,2.84E-07,6.43E-07,-0.001045912,0.001051031,-0.001045744,0.001051152,-0.001050249,0.001046684,-0.001050147,0.001046782,-0.001110608,0.001098771,-0.0010977,0.001111597,0.744214423,1473840,32975,0.006184653,0.006184682,0.004138208,22.21164121,9.29E-05,9.29E-05,9.29E-05,1536395.247,0.016644743
27475200,0.999958255,0.01673703,0.005911043,0.00591107,0.004914917,-0.001489668,0.001489482,-6.62E-06,6.41E-06,-3.59E-07,2.31E-07,-0.001560983,0.00155628,-0.001556673,0.001560569,-0.001560848,0.001556449,-0.001556459,0.001560823,-0.001335222,0.001322314,-0.001322346,0.001335183,5.14E-07,-7.26E-08,4.49E-07,8.05E-08,-0.001489341,0.001489824,-0.001558265,0.001559051,-0.001558351,0.001558922,-0.0015584,0.001558832,-0.001558562,0.001558688,-0.001328373,0.001329083,-0.001328784,0.00132875,-0.001489822,0.001490739,-0.001490429,0.001490047,6.99E-06,-6.07E-06,-0.000994444,0.000995353,2.79E-07,6.48E-07,-0.001046241,0.001051359,-0.001046069,0.001051482,-0.001050579,0.00104701,-0.001050474,0.001047111,-0.001110833,0.001098993,-0.001097919,0.001111825,0.745222735,1473840,32975,0.00618688,0.006186908,0.004138885,22.32677217,9.38E-05,9.38E-05,9.38E-05,1531560.75,0.016649959
27561600,0.999959278,0.016737047,0.005911049,0.005911075,0.004914922,-0.001489988,0.001489801,-6.62E-06,6.41E-06,-3.59E-07,2.30E-07,-0.001561274,0.00155657,-0.001556963,0.001560859,-0.001561139,0.001556738,-0.00155675,0.001561113,-0.001335542,0.001322629,-0.001322662,0.001335501,5.15E-07,-7.14E-08,4.52E-07,8.00E-08,-0.001489659,0.001490144,-0.001558554,0.001559343,-0.001558642,0.001559213,-0.001558689,0.001559125,-0.001558852,0.001558979,-0.001328688,0.001329402,-0.001329102,0.001329067,-0.001490185,0.001491102,-0.001490791,0.001490411,6.99E-06,-6.07E-06,-0.000994544,0.000995454,2.78E-07,6.51E-07,-0.001046396,0.001051516,-0.001046223,0.00105164,-0.001050736,0.001047165,-0.001050629,0.001047267,-0.00111098,0.00109914,-0.001098062,0.001111976,0.746416129,1473840,32975,0.006188202,0.006188231,0.004139305,22.44168447,9.47E-05,9.47E-05,9.47E-05,1530144.946,0.016653076
27648000,0.999960283,0.016737063,0.005911055,0.005911081,0.004914927,-0.001490308,0.001490121,-6.62E-06,6.42E-06,-3.59E-07,2.30E-07,-0.001561565,0.00155686,-0.001557252,0.00156115,-0.00156143,0.001557028,-0.001557039,0.001561404,-0.001335859,0.001322944,-0.001322977,0.001335819,5.15E-07,-7.15E-08,4.53E-07,7.86E-08,-0.00148998,0.001490464,-0.001558844,0.001559634,-0.001558933,0.001559503,-0.001558979,0.001559415,-0.001559143,0.001559269,-0.001329003,0.001329719,-0.001329419,0.001329382,-0.001490551,0.001491467,-0.001491156,0.001490775,7.00E-06,-6.08E-06,-0.000994642,0.000995552,2.77E-07,6.52E-07,-0.001046551,0.001051671,-0.001046378,0.001051797,-0.001050892,0.00104732,-0.001050785,0.001047423,-0.001111126,0.001099284,-0.001098205,0.001112123,0.747821212,1473840,32975,0.006189527,0.006189556,0.004139714,22.55657575,9.57E-05,9.57E-05,9.57E-05,1528680.728,0.016656187
27734400,0.99996127,0.016737079,0.005911061,0.005911087,0.004914932,-0.001490629,0.001490443,-6.62E-06,6.42E-06,-3.59E-07,2.31E-07,-0.001561854,0.001557149,-0.001557541,0.00156144,-0.001561719,0.001557317,-0.001557328,0.001561694,-0.00133618,0.001323263,-0.001323295,0.001336141,5.15E-07,-7.15E-08,4.54E-07,7.77E-08,-0.0014903,0.001490785,-0.001559133,0.001559924,-0.001559222,0.001559792,-0.001559268,0.001559705,-0.001559432,0.001559558,-0.001329322,0.00133004,-0.00132974,0.001329701,-0.001490917,0.001491832,-0.001491523,0.001491141,7.00E-06,-6.08E-06,-0.000994736,0.000995647,2.76E-07,6.53E-07,-0.001046707,0.001051828,-0.001046533,0.001051955,-0.001051049,0.001047476,-0.001050941,0.00104758,-0.001111265,0.001099421,-0.001098342,0.001112263,0.749467003,1473840,32975,0.006190855,0.006190884,0.004140108,22.67146506,9.66E-05,9.66E-05,9.66E-05,1527154.265,0.016659288
27820800,0.99996224,0.016737095,0.005911066,0.005911092,0.004914936,-0.001490948,0.001490766,-6.62E-06,6.42E-06,-3.58E-07,2.34E-07,-0.001562143,0.00155744,-0.001557829,0.001561732,-0.001562008,0.001557609,-0.001557614,0.001561987,-0.001336505,0.001323588,-0.001323614,0.001336469,5.18E-07,-7.07E-08,4.58E-07,7.80E-08,-0.00149062,0.001491109,-0.001559419,0.001560216,-0.00155951,0.001560084,-0.001559555,0.001559997,-0.001559721,0.001559848,-0.001329642,0.001330367,-0.001330065,0.001330025,-0.001491282,0.001492203,-0.001491891,0.001491509,7.00E-06,-6.08E-06,-0.000994827,0.000995735,2.73E-07,6.53E-07,-0.001046864,0.001051982,-0.001046688,0.00105211,-0.001051207,0.001047629,-0.001051098,0.001047734,-0.001111396,0.001099548,-0.001098469,0.001112393,0.751376686,1473840,32975,0.006192187,0.006192216,0.004140484,22.78635431,9.75E-05,9.75E-05,9.75E-05,1525556.416,0.016662379
27907200,0.999963191,0.016737111,0.005911072,0.005911098,0.004914941,-0.001491267,0.00149109,-6.62E-06,6.43E-06,-3.57E-07,2.38E-07,-0.001562428,0.001557729,-0.001558114,0.001562021,-0.001562294,0.001557898,-0.001557898,0.001562278,-0.00133683,0.001323914,-0.001323936,0.001336799,5.23E-07,-6.80E-08,4.64E-07,8.00E-08,-0.001490938,0.001491435,-0.001559701,0.001560509,-0.001559793,0.001560376,-0.001559838,0.001560288,-0.001560005,0.001560139,-0.001329961,0.001330699,-0.00133039,0.001330352,-0.001491643,0.001492574,-0.001492257,0.001491878,7.00E-06,-6.08E-06,-0.000994913,0.000995822,2.71E-07,6.56E-07,-0.001047022,0.001052141,-0.001046844,0.001052269,-0.001051366,0.001047786,-0.001051255,0.001047893,-0.00111152,0.001099671,-0.00109859,0.001112518,0.753559847,1473840,32975,0.006193517,0.006193547,0.004140846,22.90124368,9.84E-05,9.84E-05,9.84E-05,1523854.012,0.016665452
27993600,0.999964125,0.016737126,0.005911077,0.005911103,0.004914945,-0.001491591,0.001491413,-6.62E-06,6.43E-06,-3.59E-07,2.39E-07,-0.001562716,0.001558014,-0.001558401,0.001562307,-0.00156258,0.001558185,-0.001558184,0.001562565,-0.001337161,0.001324244,-0.001324264,0.001337131,5.23E-07,-7.22E-08,4.65E-07,7.50E-08,-0.001491263,0.001491756,-0.001559988,0.001560795,-0.001560082,0.00156066,-0.001560126,0.001560573,-0.001560296,0.001560421,-0.001330291,0.001331029,-0.001330725,0.001330677,-0.001492014,0.001492943,-0.001492631,0.001492242,7.00E-06,-6.08E-06,-0.000994994,0.000995901,2.68E-07,6.58E-07,-0.001047183,0.0010523,-0.001047004,0.00105243,-0.001051528,0.001047944,-0.001051415,0.001048053,-0.001111634,0.001099784,-0.001098702,0.001112634,0.756009333,1473840,32975,0.006194856,0.006194887,0.00414118,23.01613318,9.93E-05,9.93E-05,9.93E-05,1522094.004,0.016668515
28080000,0.999965041,0.016737141,0.005911083,0.005911109,0.00491495,-0.001491897,0.0014917,-6.63E-06,6.42E-06,-3.70E-07,2.31E-07,-0.001562984,0.001558261,-0.001558667,0.001562555,-0.001562847,0.001558432,-0.00155845,0.001562813,-0.001337477,0.00132454,-0.001324579,0.001337429,5.29E-07,-6.86E-08,4.72E-07,7.68E-08,-0.001491555,0.001492057,-0.00156024,0.001561058,-0.001560336,0.001560921,-0.001560378,0.001560835,-0.00156055,0.001560682,-0.001330591,0.001331342,-0.00133103,0.001330985,-0.001492351,0.001493288,-0.00149297,0.001492586,7.00E-06,-6.08E-06,-0.000995044,0.000995953,2.66E-07,6.62E-07,-0.001047321,0.001052438,-0.00104714,0.00105257,-0.001051666,0.001048082,-0.001051552,0.001048192,-0.001111715,0.001099865,-0.00109878,0.001112717,0.75870344,1473840,32975,0.006196082,0.006196112,0.004141394,23.11678169,0.000100134,0.000100134,0.000100134,1520211.419,0.016671225
28166400,0.999965938,0.016737156,0.005911088,0.005911114,0.004914954,-0.001492151,0.00149197,-6.63E-06,6.43E-06,-3.63E-07,2.41E-07,-0.001563197,0.00155849,-0.001558881,0.001562784,-0.001563059,0.001558663,-0.001558663,0.001563043,-0.001337745,0.001324825,-0.001324847,0.001337714,5.33E-07,-6.79E-08,4.77E-07,7.66E-08,-0.001491815,0.001492321,-0.001560457,0.001561283,-0.001560555,0.001561144,-0.001560597,0.001561059,-0.00156077,0.001560904,-0.001330863,0.001331623,-0.001331308,0.001331261,-0.001492654,0.001493598,-0.001493276,0.001492892,7.00E-06,-6.08E-06,-0.000995061,0.000995971,2.64E-07,6.65E-07,-0.001047432,0.001052548,-0.001047249,0.001052682,-0.001051777,0.001048192,-0.001051661,0.001048304,-0.001111755,0.001099909,-0.001098821,0.001112761,0.761612614,1473840,32975,0.006197167,0.006197197,0.00414147,23.20014771,0.000100801,0.000100801,0.000100801,1518202.89,0.016673509
28252800,0.999966816,0.01673717,0.005911093,0.005911119,0.004914958,-0.00149241,0.001492232,-6.62E-06,6.43E-06,-3.63E-07,2.43E-07,-0.001563413,0.001558709,-0.001559097,0.001563003,-0.001563275,0.001558882,-0.001558878,0.001563263,-0.001338021,0.001325105,-0.001325123,0.001337994,5.26E-07,-7.67E-08,4.72E-07,6.64E-08,-0.001492083,0.001492574,-0.001560682,0.001561494,-0.00156078,0.001561353,-0.001560822,0.001561269,-0.001560996,0.001561113,-0.001331147,0.001331896,-0.001331596,0.001331528,-0.001492966,0.001493895,-0.00149359,0.001493187,7.00E-06,-6.08E-06,-0.000995072,0.000995983,2.62E-07,6.67E-07,-0.001047542,0.001052657,-0.001047358,0.001052793,-0.001051888,0.001048301,-0.00105177,0.001048415,-0.001111788,0.001099943,-0.001098854,0.001112795,0.764706294,1473840,32975,0.006198244,0.006198274,0.004141521,23.2824912,0.00010146,0.00010146,0.00010146,1516129.525,0.016675752
28339200,0.999967676,0.016737185,0.005911098,0.005911124,0.004914962,-0.001492668,0.001492494,-6.62E-06,6.43E-06,-3.62E-07,2.46E-07,-0.001563629,0.001558926,-0.001559312,0.001563221,-0.001563489,0.0015591,-0.001559093,0.001563481,-0.001338299,0.001325387,-0.001325401,0.001338277,5.27E-07,-7.74E-08,4.74E-07,6.44E-08,-0.001492343,0.001492834,-0.001560897,0.001561711,-0.001560997,0.00156157,-0.001561038,0.001561486,-0.001561213,0.001561328,-0.001331426,0.001332178,-0.001331878,0.001331806,-0.00149327,0.001494199,-0.001493895,0.001493489,7.00E-06,-6.08E-06,-0.000995079,0.000995991,2.60E-07,6.70E-07,-0.001047653,0.001052768,-0.001047468,0.001052905,-0.001051999,0.001048412,-0.00105188,0.001048526,-0.001111814,0.00109997,-0.001098879,0.001112822,0.767954951,1473840,32975,0.00619932,0.006199351,0.004141554,23.36474232,0.000102118,0.000102118,0.000102118,1514010.551,0.016677975
28425600,0.999968518,0.016737199,0.005911103,0.005911129,0.004914966,-0.001492928,0.001492755,-6.62E-06,6.43E-06,-3.62E-07,2.47E-07,-0.001563844,0.001559142,-0.001559527,0.001563437,-0.001563704,0.001559317,-0.001559307,0.001563698,-0.001338581,0.00132567,-0.001325682,0.00133856,5.29E-07,-7.66E-08,4.78E-07,6.39E-08,-0.001492602,0.001493096,-0.00156111,0.00156193,-0.001561212,0.001561786,-0.001561251,0.001561704,-0.001561428,0.001561544,-0.001331705,0.001332464,-0.001332161,0.001332087,-0.001493571,0.001494503,-0.001494197,0.001493792,7.00E-06,-6.08E-06,-0.000995082,0.000995995,2.59E-07,6.73E-07,-0.001047764,0.00105288,-0.001047577,0.001053018,-0.00105211,0.001048524,-0.00105199,0.00104864,-0.001111833,0.001099993,-0.001098898,0.001112845,0.771330951,1473840,32975,0.006200396,0.006200426,0.004141572,23.44698453,0.000102776,0.000102776,0.000102776,1511858.913,0.016680181
28512000,0.999969342,0.016737213,0.005911108,0.005911134,0.004914971,-0.001493194,0.001493008,-6.63E-06,6.42E-06,-3.69E-07,2.41E-07,-0.001564066,0.00155935,-0.001559749,0.001563645,-0.001563925,0.001559525,-0.001559528,0.001563906,-0.001338871,0.001325946,-0.001325971,0.001338837,5.24E-07,-8.29E-08,4.75E-07,5.59E-08,-0.001492867,0.00149335,-0.001561329,0.00156214,-0.001561432,0.001561995,-0.001561471,0.001561914,-0.001561649,0.001561752,-0.001331991,0.001332743,-0.001332452,0.001332362,-0.001493878,0.001494799,-0.001494505,0.001494086,7.00E-06,-6.08E-06,-0.000995082,0.000995996,2.57E-07,6.76E-07,-0.001047877,0.001052991,-0.001047688,0.001053131,-0.001052223,0.001048635,-0.001052101,0.001048753,-0.001111848,0.001100009,-0.001098911,0.001112863,0.774808503,1473840,32975,0.006201469,0.006201499,0.004141578,23.52922591,0.000103434,0.000103434,0.000103434,1509684.867,0.01668237
28598400,0.999970148,0.016737226,0.005911113,0.005911139,0.004914974,-0.001493453,0.001493266,-6.63E-06,6.43E-06,-3.71E-07,2.42E-07,-0.00156428,0.001559562,-0.001559962,0.001563858,-0.001564139,0.001559738,-0.001559741,0.001564121,-0.001339156,0.001326228,-0.001326253,0.001339122,5.27E-07,-8.20E-08,4.80E-07,5.50E-08,-0.001493123,0.001493611,-0.00156154,0.001562357,-0.001561645,0.00156221,-0.001561682,0.001562131,-0.001561863,0.001561967,-0.001332269,0.001333032,-0.001332736,0.001332644,-0.001494175,0.0014951,-0.001494805,0.001494385,7.01E-06,-6.08E-06,-0.000995079,0.000995995,2.55E-07,6.80E-07,-0.001047989,0.001053104,-0.001047798,0.001053246,-0.001052336,0.001048747,-0.001052212,0.001048866,-0.001111859,0.001100022,-0.00109892,0.001112878,0.776657459,1473840,32975,0.00620254,0.006202571,0.004141572,23.61146646,0.000104092,0.000104092,0.000104092,1507497.702,0.016684542
28684800,0.999970937,0.016737239,0.005911117,0.005911144,0.004914978,-0.001493635,0.001493451,-6.63E-06,6.43E-06,-3.68E-07,2.42E-07,-0.001564458,0.001559743,-0.001560139,0.00156404,-0.001564317,0.001559918,-0.00155992,0.0015643,-0.001339333,0.001326407,-0.00132643,0.001339302,5.22E-07,-8.43E-08,4.73E-07,5.25E-08,-0.001493311,0.00149379,-0.001561724,0.001562531,-0.001561828,0.001562384,-0.001561866,0.001562305,-0.001562045,0.001562143,-0.001332454,0.001333204,-0.001332916,0.001332821,-0.001494359,0.001495274,-0.001494985,0.001494562,7.01E-06,-6.08E-06,-0.000995041,0.000995962,2.59E-07,6.81E-07,-0.001048044,0.001053166,-0.001047855,0.001053307,-0.001052392,0.001048808,-0.001052269,0.001048927,-0.001111823,0.001099987,-0.001098882,0.001112845,0.77589793,1473840,32975,0.0062033,0.006203329,0.004141425,23.693706,0.00010475,0.00010475,0.00010475,1506513.324,0.016685936
28771200,0.999971708,0.016737252,0.005911122,0.005911148,0.004914982,-0.001493723,0.001493533,-6.63E-06,6.42E-06,-3.70E-07,2.38E-07,-0.001564607,0.001559886,-0.001560288,0.001564183,-0.001564466,0.00156006,-0.001560069,0.001564442,-0.001339356,0.001326424,-0.001326454,0.001339317,5.24E-07,-8.02E-08,4.76E-07,5.68E-08,-0.001493393,0.001493878,-0.001561867,0.00156268,-0.001561971,0.001562534,-0.001562008,0.001562454,-0.001562187,0.001562293,-0.001332472,0.001333226,-0.001332931,0.001332845,-0.001494385,0.001495305,-0.001495009,0.001494596,7.01E-06,-6.08E-06,-0.000994988,0.000995911,2.61E-07,6.80E-07,-0.001048019,0.001053143,-0.00104783,0.001053283,-0.001052366,0.001048785,-0.001052244,0.001048903,-0.001111775,0.001099941,-0.001098835,0.001112798,0.774172822,1473840,32975,0.006203649,0.006203679,0.004141212,23.7759452,0.000105408,0.000105408,0.000105408,1507119.634,0.016686431
28857600,0.999972465,0.016737265,0.005911127,0.005911153,0.004914986,-0.001493843,0.001493661,-6.63E-06,6.43E-06,-3.65E-07,2.40E-07,-0.001564804,0.001560092,-0.001560485,0.001564389,-0.001564664,0.001560265,-0.001560266,0.001564647,-0.00133939,0.001326466,-0.001326488,0.001339359,5.26E-07,-7.54E-08,4.78E-07,6.18E-08,-0.001493513,0.001494006,-0.001562065,0.001562884,-0.001562169,0.001562739,-0.001562206,0.001562659,-0.001562384,0.001562499,-0.001332506,0.001333266,-0.001332963,0.001332888,-0.001494446,0.00149537,-0.001495067,0.001494665,7.01E-06,-6.08E-06,-0.000994993,0.000995915,2.62E-07,6.78E-07,-0.001048021,0.001053144,-0.001047833,0.001053284,-0.001052369,0.001048786,-0.001052247,0.001048903,-0.001111801,0.001099965,-0.001098861,0.001112823,0.776793986,1473840,32975,0.006204164,0.006204194,0.00414123,23.88352307,0.000106268,0.000106268,0.000106268,1508246.675,0.016687496
28944000,0.999973207,0.016737277,0.005911131,0.005911157,0.004914989,-0.001494221,0.001494051,-6.62E-06,6.44E-06,-3.59E-07,2.47E-07,-0.001565146,0.001560446,-0.001560826,0.001564743,-0.001565006,0.001560619,-0.001560607,0.001565003,-0.001339764,0.001326849,-0.001326859,0.001339746,5.29E-07,-7.33E-08,4.82E-07,6.29E-08,-0.001493894,0.001494392,-0.00156241,0.001563234,-0.001562514,0.001563089,-0.001562551,0.00156301,-0.00156273,0.001562848,-0.001332881,0.00133365,-0.001333342,0.001333268,-0.001494881,0.001495811,-0.001495504,0.001495104,7.01E-06,-6.08E-06,-0.00099511,0.000996028,2.58E-07,6.78E-07,-0.001048217,0.001053338,-0.001048028,0.001053478,-0.001052565,0.001048979,-0.001052443,0.001049097,-0.001111974,0.001100132,-0.001099031,0.001112993,0.767969348,1473840,32975,0.006205752,0.006205781,0.004141712,24.01940985,0.000107355,0.000107355,0.000107355,1506344.814,0.016691214
29030400,0.999973934,0.016737289,0.005911135,0.005911161,0.004914993,-0.001494133,0.001493956,-6.63E-06,6.43E-06,-3.60E-07,2.40E-07,-0.001565292,0.001560586,-0.001560972,0.001564883,-0.001565153,0.001560758,-0.001560756,0.00156514,-0.00133946,0.001326541,-0.00132656,0.001339432,5.21E-07,-7.64E-08,4.71E-07,6.16E-08,-0.001493809,0.001494294,-0.001562562,0.001563371,-0.001562664,0.001563227,-0.001562701,0.001563146,-0.001562876,0.001562989,-0.001332585,0.001333331,-0.001333033,0.00133296,-0.001494581,0.001495495,-0.001495197,0.001494796,7.01E-06,-6.08E-06,-0.00099512,0.000996045,2.68E-07,6.77E-07,-0.001048086,0.001053216,-0.001047902,0.001053354,-0.001052434,0.001048857,-0.001052314,0.001048972,-0.001111988,0.001100153,-0.001099047,0.001113013,0.758935509,1473840,32975,0.006205374,0.006205403,0.004141762,24.15697961,0.000108456,0.000108456,0.000108456,1512294.815,0.016690494
29116800,0.999974648,0.016737301,0.005911139,0.005911165,0.004914996,-0.001494052,0.001493865,-6.63E-06,6.43E-06,-3.62E-07,2.32E-07,-0.001565472,0.001560759,-0.001561152,0.001565056,-0.001565333,0.001560929,-0.001560938,0.00156531,-0.001339114,0.001326187,-0.001326217,0.001339075,5.18E-07,-7.28E-08,4.65E-07,6.89E-08,-0.001493722,0.001494209,-0.001562741,0.001563545,-0.001562839,0.001563404,-0.001562879,0.001563322,-0.001563049,0.001563169,-0.00133224,0.001332975,-0.001332674,0.001332619,-0.00149429,0.001495202,-0.001494898,0.001494511,7.01E-06,-6.08E-06,-0.000995175,0.000996098,2.73E-07,6.69E-07,-0.001047929,0.001053061,-0.00104775,0.001053194,-0.001052277,0.001048702,-0.001052161,0.001048813,-0.001112094,0.001100254,-0.001099155,0.001113111,0.753025676,1473840,32975,0.00620502,0.006205049,0.004141981,24.29470371,0.000109558,0.000109558,0.000109558,1518543.47,0.016689994
29203200,0.999975348,0.016737313,0.005911143,0.00591117,0.004915,-0.001494117,0.001493927,-6.63E-06,6.42E-06,-3.61E-07,2.28E-07,-0.00156572,0.001561006,-0.0015614,0.001565303,-0.001565583,0.001561174,-0.001561187,0.001565555,-0.001338967,0.001326033,-0.001326068,0.001338923,5.16E-07,-7.01E-08,4.61E-07,7.38E-08,-0.001493785,0.001494273,-0.00156299,0.00156379,-0.001563085,0.001563653,-0.001563126,0.001563569,-0.001563294,0.001563419,-0.001332092,0.001332822,-0.001332519,0.001332474,-0.001494236,0.001495146,-0.00149484,0.00149446,7.01E-06,-6.08E-06,-0.000995277,0.0009962,2.77E-07,6.64E-07,-0.001047869,0.001053004,-0.001047692,0.001053134,-0.001052216,0.001048645,-0.001052104,0.001048752,-0.001112281,0.001100437,-0.001099341,0.001113295,0.753317361,1473840,32975,0.006205284,0.006205313,0.004142403,24.432444,0.00011066,0.00011066,0.00011066,1522468.184,0.016690958
29289600,0.999976035,0.016737324,0.005911147,0.005911173,0.004915003,-0.001494497,0.001494304,-6.64E-06,6.42E-06,-3.62E-07,2.27E-07,-0.001566093,0.001561375,-0.001561773,0.001565673,-0.001565959,0.001561543,-0.00156156,0.001565926,-0.001339297,0.00132635,-0.00132639,0.001339248,5.16E-07,-6.95E-08,4.64E-07,7.17E-08,-0.001494163,0.001494651,-0.001563361,0.001564161,-0.001563456,0.001564024,-0.001563495,0.001563941,-0.001563665,0.001563789,-0.001332412,0.001333149,-0.001332847,0.001332797,-0.001494672,0.001495584,-0.001495279,0.001494895,7.01E-06,-6.08E-06,-0.000995442,0.000996361,2.72E-07,6.64E-07,-0.001048036,0.001053167,-0.001047857,0.001053298,-0.001052385,0.001048808,-0.001052272,0.001048917,-0.001112551,0.001100699,-0.001099605,0.00111356,0.745318053,1473840,32975,0.006206849,0.006206878,0.004143084,24.57018494,0.000111761,0.000111761,0.000111761,1521193.153,0.016694834
29376000,0.999976707,0.016737334,0.005911151,0.005911177,0.004915006,-0.001494436,0.001494248,-6.64E-06,6.43E-06,-3.57E-07,2.25E-07,-0.001566258,0.001561544,-0.001561936,0.001565844,-0.001566124,0.00156171,-0.001561726,0.001566094,-0.00133901,0.001326068,-0.001326105,0.001338964,5.13E-07,-6.48E-08,4.58E-07,7.89E-08,-0.001494104,0.001494594,-0.00156353,0.001564327,-0.001563622,0.001564193,-0.001563663,0.001564109,-0.001563828,0.001563961,-0.001332132,0.00133286,-0.001332552,0.00133252,-0.001494422,0.00149533,-0.001495018,0.001494651,7.01E-06,-6.08E-06,-0.000995528,0.000996448,2.80E-07,6.60E-07,-0.001047947,0.001053083,-0.001047773,0.001053211,-0.001052297,0.001048723,-0.001052187,0.001048827,-0.001112683,0.001100827,-0.001099736,0.001113691,0.740203983,1473840,32975,0.00620661,0.006206639,0.004143439,24.70792669,0.000112863,0.000112863,0.000112863,1527155.84,0.016694707
29462400,0.999977366,0.016737345,0.005911155,0.005911181,0.004915009,-0.001494521,0.001494334,-6.64E-06,6.43E-06,-3.53E-07,2.23E-07,-0.001566511,0.0015618,-0.001562188,0.0015661,-0.001566379,0.001561964,-0.00156198,0.001566348,-0.001338894,0.00132595,-0.001325987,0.001338848,5.12E-07,-6.17E-08,4.55E-07,8.33E-08,-0.001494189,0.00149468,-0.001563786,0.001564579,-0.001563876,0.001564448,-0.001563917,0.001564363,-0.00156408,0.001564218,-0.001332018,0.00133274,-0.00133243,0.001332408,-0.001494403,0.001495311,-0.001494995,0.001494636,7.01E-06,-6.08E-06,-0.000995649,0.000996568,2.83E-07,6.55E-07,-0.001047911,0.00105305,-0.001047738,0.001053175,-0.00105226,0.001048689,-0.001052153,0.001048791,-0.001112891,0.001101032,-0.001099943,0.001113897,0.729391253,1473840,32975,0.006206965,0.006206994,0.004143935,24.8456692,0.000113965,0.000113965,0.000113965,1530769.054,0.016695933
29548800,0.999978012,0.016737355,0.005911158,0.005911185,0.004915012,-0.001494264,0.001494065,-6.64E-06,6.42E-06,-3.52E-07,2.10E-07,-0.001566611,0.001561893,-0.001562289,0.001566193,-0.001566482,0.001562053,-0.001562086,0.001566435,-0.001338286,0.001325332,-0.001325385,0.001338224,5.07E-07,-5.22E-08,4.48E-07,9.55E-08,-0.001493923,0.001494419,-0.001563886,0.001564675,-0.00156397,0.001564548,-0.001564013,0.001564461,-0.001564169,0.001564324,-0.001331409,0.001332121,-0.0013318,0.001331809,-0.001493836,0.001494739,-0.001494411,0.00149408,7.02E-06,-6.08E-06,-0.000995732,0.000996657,2.96E-07,6.49E-07,-0.001047679,0.001052827,-0.001047514,0.001052947,-0.001052028,0.001048467,-0.001051926,0.001048562,-0.001113028,0.00110117,-0.001100082,0.001114032,0.726380106,1473840,32975,0.006205878,0.006205907,0.004144285,24.98341109,0.000115067,0.000115067,0.000115067,1540261.21,0.016694076
29635200,0.999978644,0.016737365,0.005911162,0.005911188,0.004915015,-0.001494429,0.001494231,-6.64E-06,6.42E-06,-3.50E-07,2.10E-07,-0.001566918,0.001562204,-0.001562597,0.001566503,-0.001566793,0.001562362,-0.001562394,0.001566746,-0.001338209,0.001325249,-0.001325302,0.001338148,5.04E-07,-5.25E-08,4.42E-07,9.74E-08,-0.001494091,0.001494583,-0.001564198,0.001564977,-0.001564277,0.001564856,-0.001564324,0.001564768,-0.001564477,0.001564631,-0.001331336,0.001332041,-0.001331723,0.001331733,-0.001493974,0.001494879,-0.001494551,0.001494217,7.01E-06,-6.08E-06,-0.000995855,0.000996775,2.97E-07,6.42E-07,-0.001047625,0.001052773,-0.001047461,0.001052888,-0.001051974,0.001048413,-0.001051877,0.001048506,-0.001113321,0.001101454,-0.001100376,0.001114317,0.730526707,1473840,32975,0.006206565,0.006206594,0.004144786,25.10714561,0.000116057,0.000116057,0.000116057,1542224.445,0.016695982
29721600,0.999979261,0.016737375,0.005911165,0.005911192,0.004915018,-0.001495009,0.00149481,-6.64E-06,6.42E-06,-3.54E-07,2.12E-07,-0.001567299,0.001562581,-0.001562978,0.00156688,-0.001567172,0.001562741,-0.001562773,0.001567126,-0.001338943,0.001325983,-0.001326035,0.001338882,5.06E-07,-5.64E-08,4.45E-07,9.27E-08,-0.001494672,0.001495162,-0.001564576,0.001565357,-0.001564657,0.001565233,-0.001564704,0.001565146,-0.00156486,0.001565007,-0.001332068,0.001332777,-0.001332462,0.001332461,-0.001494747,0.001495654,-0.00149533,0.001494986,7.01E-06,-6.09E-06,-0.000996005,0.000996919,2.90E-07,6.43E-07,-0.001047977,0.001053117,-0.001047811,0.001053235,-0.001052327,0.001048757,-0.001052227,0.001048853,-0.001113526,0.001101655,-0.001100581,0.001114519,0.73490037,1473840,32975,0.006208964,0.006208993,0.004145401,25.2164541,0.000116932,0.000116932,0.000116932,1536498.547,0.016701487
29808000,0.999979865,0.016737385,0.005911169,0.005911195,0.004915021,-0.001495567,0.001495365,-6.64E-06,6.42E-06,-3.58E-07,2.14E-07,-0.001567684,0.001562962,-0.001563364,0.001567261,-0.001567557,0.001563124,-0.001563156,0.00156751,-0.001339619,0.001326653,-0.001326708,0.001339557,5.07E-07,-6.21E-08,4.47E-07,8.60E-08,-0.00149523,0.001495716,-0.001564959,0.00156574,-0.001565042,0.001565615,-0.001565088,0.001565527,-0.001565248,0.001565385,-0.001332739,0.001333452,-0.001333145,0.001333126,-0.001495493,0.0014964,-0.001496085,0.001495724,7.01E-06,-6.09E-06,-0.000996159,0.000997063,2.81E-07,6.42E-07,-0.001048289,0.001053418,-0.00104812,0.001053538,-0.00105264,0.001049058,-0.001052538,0.001049156,-0.00111375,0.00110187,-0.001100803,0.001114735,0.739427266,1473840,32975,0.006211265,0.006211293,0.004146026,25.32489994,0.000117799,0.000117799,0.000117799,1531074.947,0.016706801
29894400,0.999980455,0.016737394,0.005911172,0.005911198,0.004915023,-0.0014961,0.001495907,-6.64E-06,6.43E-06,-3.56E-07,2.20E-07,-0.001568043,0.001563327,-0.001563721,0.001567626,-0.001567914,0.001563489,-0.001563511,0.001567876,-0.001340282,0.001327322,-0.001327367,0.001340231,5.17E-07,-5.58E-08,4.57E-07,9.35E-08,-0.001495759,0.001496262,-0.00156531,0.00156611,-0.001565394,0.001565985,-0.00156544,0.001565897,-0.001565601,0.001565753,-0.001333396,0.001334127,-0.001333805,0.001333798,-0.001496196,0.001497124,-0.001496794,0.001496443,7.00E-06,-6.10E-06,-0.000996312,0.000997207,2.75E-07,6.38E-07,-0.001048618,0.001053737,-0.001048447,0.001053858,-0.001052969,0.001049376,-0.001052866,0.001049475,-0.001113959,0.001102067,-0.001101009,0.001114935,0.744081795,1473840,32975,0.00621349,0.006213518,0.004146647,25.43326756,0.000118666,0.000118666,0.000118666,1525982.198,0.016711959
29980800,0.999981031,0.016737403,0.005911176,0.005911202,0.004915026,-0.001496622,0.001496423,-6.64E-06,6.42E-06,-3.63E-07,2.21E-07,-0.001568397,0.001563672,-0.001564076,0.001567971,-0.001568266,0.001563838,-0.001563863,0.001568225,-0.001340927,0.001327963,-0.001328012,0.001340872,5.15E-07,-6.52E-08,4.53E-07,8.58E-08,-0.001496283,0.001496775,-0.001565664,0.001566456,-0.00156575,0.001566329,-0.001565796,0.00156624,-0.001565958,0.001566095,-0.001334044,0.001334765,-0.001334457,0.001334434,-0.001496883,0.001497804,-0.001497487,0.001497117,7.00E-06,-6.10E-06,-0.000996462,0.000997355,2.72E-07,6.39E-07,-0.00104894,0.001054056,-0.001048768,0.001054179,-0.001053292,0.001049695,-0.001053188,0.001049796,-0.001114158,0.001102265,-0.001101207,0.001115133,0.751695918,1473840,32975,0.006215637,0.006215666,0.004147274,25.54162875,0.000119533,0.000119533,0.000119533,1521171.805,0.016716963
30067200,0.999981594,0.016737413,0.005911179,0.005911205,0.004915029,-0.001497254,0.001497066,-6.64E-06,6.43E-06,-3.61E-07,2.33E-07,-0.001568775,0.001564057,-0.001564452,0.001568358,-0.001568639,0.001564226,-0.001564237,0.001568614,-0.001341764,0.001328815,-0.001328847,0.001341724,5.16E-07,-7.44E-08,4.51E-07,7.95E-08,-0.001496925,0.001497409,-0.001566048,0.001566836,-0.001566135,0.001566707,-0.001566184,0.001566617,-0.001566347,0.001566471,-0.001334892,0.001335606,-0.001335308,0.00133527,-0.001497746,0.001498668,-0.001498358,0.001497969,7.00E-06,-6.10E-06,-0.000996641,0.000997537,2.71E-07,6.43E-07,-0.00104938,0.001054498,-0.001049208,0.001054623,-0.001053733,0.001050136,-0.001053626,0.001050239,-0.001114377,0.001102487,-0.001101424,0.001115359,0.747781529,1473840,32975,0.006218275,0.006218304,0.004148027,25.64998692,0.0001204,0.0001204,0.0001204,1514466.832,0.016723095
30153600,0.999982144,0.016737421,0.005911182,0.005911208,0.004915031,-0.001497279,0.001497091,-6.64E-06,6.43E-06,-3.60E-07,2.30E-07,-0.001568935,0.001564218,-0.001564611,0.001568519,-0.0015688,0.001564386,-0.001564398,0.001568773,-0.001341652,0.001328703,-0.001328737,0.001341611,5.14E-07,-7.15E-08,4.48E-07,8.33E-08,-0.00149695,0.001497434,-0.00156621,0.001566996,-0.001566295,0.001566869,-0.001566345,0.001566778,-0.001566505,0.001566634,-0.001334784,0.001335491,-0.001335191,0.001335163,-0.001497661,0.00149858,-0.001498267,0.001497889,7.01E-06,-6.09E-06,-0.000996649,0.000997557,2.81E-07,6.46E-07,-0.00104931,0.001054442,-0.00104914,0.001054564,-0.001053662,0.001050079,-0.001053558,0.001050179,-0.0011144,0.001102519,-0.001101447,0.001115391,0.736900594,1473840,32975,0.006218378,0.006218407,0.004148086,25.75834492,0.000121267,0.000121267,0.000121267,1517365.301,0.016723363
30240000,0.99998268,0.01673743,0.005911185,0.005911211,0.004915034,-0.001496971,0.001496777,-6.64E-06,6.43E-06,-3.57E-07,2.20E-07,-0.00156898,0.00156426,-0.001564656,0.001568562,-0.001568848,0.001564424,-0.001564447,0.00156881,-0.00134101,0.001328054,-0.001328099,0.001340957,5.11E-07,-6.26E-08,4.43E-07,9.37E-08,-0.001496636,0.001497126,-0.001566255,0.001567039,-0.001566337,0.001566915,-0.001566387,0.001566823,-0.001566542,0.001566686,-0.001334141,0.001334841,-0.00133453,0.001334528,-0.001497057,0.001497972,-0.001497649,0.001497296,7.01E-06,-6.09E-06,-0.000996627,0.000997543,2.92E-07,6.42E-07,-0.001048987,0.001054132,-0.001048823,0.001054249,-0.001053339,0.001049769,-0.001053239,0.001049864,-0.001114402,0.001102526,-0.00110145,0.001115395,0.733194627,1473840,32975,0.006217093,0.006217122,0.004148003,25.86670364,0.000122134,0.000122134,0.000122134,1526063.042,0.016720663
30326400,0.999983204,0.016737438,0.005911188,0.005911214,0.004915036,-0.001497043,0.001496848,-6.64E-06,6.43E-06,-3.56E-07,2.18E-07,-0.00156917,0.001564451,-0.001564847,0.001568753,-0.00156904,0.001564615,-0.001564639,0.001569001,-0.001340939,0.00132798,-0.001328026,0.001340884,5.08E-07,-6.27E-08,4.39E-07,9.48E-08,-0.001496709,0.001497196,-0.001566448,0.001567227,-0.001566529,0.001567106,-0.001566579,0.001567012,-0.001566732,0.001566876,-0.001334071,0.001334764,-0.001334457,0.001334457,-0.001497051,0.001497962,-0.001497641,0.001497289,7.01E-06,-6.09E-06,-0.000996699,0.000997616,2.95E-07,6.40E-07,-0.001048958,0.001054105,-0.001048795,0.001054221,-0.00105331,0.001049743,-0.001053212,0.001049836,-0.001114528,0.001102651,-0.001101575,0.001115521,0.729366973,1473840,32975,0.006217388,0.006217417,0.004148301,25.97506244,0.000123,0.000123,0.000123,1528676.572,0.016721567
30412800,0.999983716,0.016737446,0.005911191,0.005911217,0.004915038,-0.001497171,0.001496971,-6.65E-06,6.43E-06,-3.57E-07,2.15E-07,-0.001569425,0.001564702,-0.001565101,0.001569003,-0.001569296,0.001564864,-0.001564894,0.001569251,-0.001340918,0.001327951,-0.001328003,0.001340858,5.04E-07,-6.48E-08,4.34E-07,9.39E-08,-0.001496837,0.001497318,-0.001566704,0.001567476,-0.001566784,0.001567355,-0.001566834,0.001567261,-0.001566987,0.001567127,-0.001334051,0.001334734,-0.001334432,0.001334432,-0.001497096,0.001498,-0.001497684,0.001497329,7.01E-06,-6.09E-06,-0.000996827,0.000997741,2.96E-07,6.37E-07,-0.001048978,0.001054125,-0.001048816,0.001054239,-0.001053331,0.001049761,-0.001053234,0.001049853,-0.001114715,0.001102831,-0.00110176,0.001115703,0.723684097,1473840,32975,0.006217909,0.006217937,0.004148826,26.11477025,0.000124118,0.000124118,0.000124118,1531539.007,0.016723157
30499200,0.999984217,0.016737454,0.005911194,0.00591122,0.004915041,-0.001497242,0.001497046,-6.64E-06,6.43E-06,-3.53E-07,2.14E-07,-0.001569719,0.001565001,-0.001565395,0.001569303,-0.001569591,0.001565161,-0.001565189,0.001569548,-0.001340711,0.001327746,-0.001327795,0.001340654,5.06E-07,-5.69E-08,4.35E-07,1.03E-07,-0.001496906,0.001497396,-0.001566999,0.001567773,-0.001567074,0.001567657,-0.001567127,0.001567562,-0.001567276,0.00156743,-0.001333843,0.001334532,-0.001334218,0.001334236,-0.001497029,0.001497942,-0.001497612,0.001497274,7.01E-06,-6.10E-06,-0.000996997,0.000997898,2.94E-07,6.26E-07,-0.001048926,0.001054064,-0.001048767,0.001054175,-0.001053279,0.001049701,-0.001053185,0.00104979,-0.001114993,0.001103095,-0.001102039,0.001115967,0.730650999,1473840,32975,0.006218213,0.006218242,0.004149502,26.28424037,0.000125474,0.000125474,0.000125474,1536543.634,0.016724462
30585600,0.999984708,0.016737462,0.005911196,0.005911223,0.004915043,-0.001498079,0.001497888,-6.64E-06,6.43E-06,-3.56E-07,2.23E-07,-0.001570277,0.001565561,-0.001565954,0.001569861,-0.001570147,0.001565725,-0.001565744,0.001570113,-0.001341757,0.001328798,-0.001328838,0.001341708,5.09E-07,-6.62E-08,4.38E-07,9.33E-08,-0.001497748,0.001498233,-0.001567557,0.001568333,-0.001567635,0.001568213,-0.001567688,0.001568118,-0.001567842,0.001567981,-0.001334889,0.001335582,-0.00133528,0.001335274,-0.001498146,0.001499062,-0.001498744,0.00149838,7.00E-06,-6.10E-06,-0.000997281,0.000998175,2.83E-07,6.29E-07,-0.00104948,0.001054606,-0.001049316,0.001054721,-0.001053833,0.001050243,-0.001053735,0.001050337,-0.001115347,0.001103445,-0.001102393,0.001116318,0.732370726,1473840,32975,0.006221688,0.006221716,0.004150675,26.45550115,0.000126844,0.000126844,0.000126844,1528815.07,0.016732722
30672000,0.999985189,0.01673747,0.005911199,0.005911225,0.004915045,-0.001498567,0.00149838,-6.64E-06,6.43E-06,-3.57E-07,2.28E-07,-0.001570695,0.001565981,-0.001566372,0.001570281,-0.001570563,0.001566147,-0.001566159,0.001570534,-0.001342289,0.001329336,-0.00132937,0.001342246,5.10E-07,-7.12E-08,4.39E-07,8.94E-08,-0.00149824,0.001498721,-0.001567975,0.001568751,-0.001568056,0.00156863,-0.001568108,0.001568534,-0.001568264,0.001568396,-0.001335424,0.001336115,-0.001335819,0.001335804,-0.001498715,0.00149963,-0.001499318,0.001498944,7.01E-06,-6.10E-06,-0.000997505,0.000998404,2.83E-07,6.33E-07,-0.001049795,0.001054923,-0.001049629,0.00105504,-0.001054147,0.001050561,-0.001054048,0.001050655,-0.001115609,0.001103712,-0.001102654,0.001116585,0.734006974,1473840,32975,0.006223716,0.006223744,0.004151617,26.62692563,0.000128215,0.000128215,0.000128215,1526623.14,0.016737805
30758400,0.999985658,0.016737477,0.005911202,0.005911228,0.004915047,-0.00149904,0.001498863,-6.63E-06,6.44E-06,-3.55E-07,2.36E-07,-0.001571109,0.001566403,-0.001566785,0.001570702,-0.001570976,0.00156657,-0.001566571,0.001570958,-0.001342787,0.001329845,-0.001329867,0.001342755,5.13E-07,-7.41E-08,4.41E-07,8.82E-08,-0.001498717,0.001499199,-0.00156839,0.001569171,-0.001568473,0.001569049,-0.001568525,0.001568951,-0.001568683,0.001568812,-0.001335925,0.001336618,-0.001336324,0.001336305,-0.001499265,0.001500186,-0.001499875,0.001499494,7.01E-06,-6.10E-06,-0.000997725,0.000998627,2.83E-07,6.36E-07,-0.001050091,0.001055222,-0.001049923,0.00105534,-0.001054443,0.001050859,-0.001054344,0.001050955,-0.001115874,0.001103982,-0.001102919,0.001116856,0.737045263,1473840,32975,0.006225694,0.00622572,0.004152541,26.79836631,0.000129587,0.000129587,0.000129587,1524670.263,0.016742765
30844800,0.999986118,0.016737484,0.005911204,0.005911231,0.00491505,-0.001499581,0.001499419,-6.63E-06,6.45E-06,-3.51E-07,2.46E-07,-0.001571549,0.001566855,-0.001567225,0.001571155,-0.001571414,0.001567025,-0.001567009,0.001571413,-0.001343383,0.001330458,-0.001330462,0.001343368,5.22E-07,-7.22E-08,4.51E-07,8.91E-08,-0.001499261,0.001499753,-0.001568829,0.001569625,-0.001568914,0.0015695,-0.001568966,0.001569404,-0.001569127,0.001569262,-0.001336521,0.001337231,-0.001336928,0.001336909,-0.001499923,0.001500857,-0.001500539,0.001500158,7.01E-06,-6.09E-06,-0.000997958,0.000998862,2.80E-07,6.42E-07,-0.001050437,0.001055568,-0.001050267,0.001055689,-0.001054789,0.001051205,-0.001054687,0.001051304,-0.00111616,0.001104273,-0.001103204,0.001117147,0.743527362,1473840,32975,0.006227965,0.006227992,0.004153516,26.96980992,0.000130958,0.000130958,0.000130958,1521640.127,0.016748376
30931200,0.999986567,0.016737492,0.005911207,0.005911233,0.004915052,-0.001500285,0.001500133,-6.63E-06,6.45E-06,-3.49E-07,2.55E-07,-0.001572042,0.001567354,-0.001567717,0.001571657,-0.001571903,0.001567526,-0.001567498,0.001571917,-0.001344242,0.001331325,-0.001331317,0.001344241,5.20E-07,-8.04E-08,4.54E-07,7.50E-08,-0.001499976,0.001500457,-0.001569327,0.00157012,-0.001569417,0.001569989,-0.001569467,0.001569897,-0.001569632,0.001569749,-0.001337385,0.0013381,-0.001337807,0.001337757,-0.001500838,0.001501764,-0.00150146,0.001501057,7.01E-06,-6.10E-06,-0.000998231,0.000999136,2.72E-07,6.51E-07,-0.001050932,0.001056059,-0.001050757,0.001056186,-0.001055287,0.001051694,-0.001055178,0.001051799,-0.001116487,0.0011046,-0.001103526,0.001117481,0.746091605,1473840,32975,0.0062309,0.006230928,0.004154658,27.14125318,0.00013233,0.00013233,0.00013233,1516025.662,0.016755508
31017600,0.999987006,0.016737499,0.005911209,0.005911236,0.004915054,-0.001500731,0.001500591,-6.62E-06,6.46E-06,-3.46E-07,2.63E-07,-0.001572437,0.001567759,-0.001568111,0.001572062,-0.001572297,0.001567933,-0.001567891,0.001572323,-0.001344714,0.001331809,-0.001331788,0.001344726,5.31E-07,-7.40E-08,4.68E-07,7.92E-08,-0.001500418,0.001500918,-0.001569716,0.001570532,-0.00156981,0.001570397,-0.001569857,0.001570307,-0.001570026,0.001570155,-0.00133785,0.00133859,-0.001338281,0.001338238,-0.001501338,0.001502282,-0.001501964,0.001501572,7.02E-06,-6.10E-06,-0.000998421,0.000999332,2.70E-07,6.59E-07,-0.001051214,0.001056345,-0.001051035,0.001056475,-0.00105557,0.001051979,-0.001055458,0.001052087,-0.0011167,0.001104821,-0.001103737,0.001117702,0.748360044,1473840,32975,0.006232768,0.006232797,0.00415546,27.31269638,0.000133702,0.000133702,0.000133702,1514148.273,0.016760125
31104000,0.999987437,0.016737506,0.005911212,0.005911238,0.004915056,-0.001501259,0.001501132,-6.61E-06,6.47E-06,-3.41E-07,2.71E-07,-0.001572928,0.001568261,-0.001568602,0.001572565,-0.001572788,0.001568436,-0.001568381,0.001572827,-0.00134525,0.001332356,-0.001332321,0.001345274,5.40E-07,-6.82E-08,4.80E-07,8.25E-08,-0.001500945,0.00150146,-0.001570203,0.001571039,-0.0015703,0.001570901,-0.001570345,0.001570812,-0.001570517,0.001570658,-0.001338379,0.001339142,-0.00133882,0.001338782,-0.00150191,0.001502869,-0.00150254,0.001502156,7.02E-06,-6.09E-06,-0.000998679,0.000999604,2.72E-07,6.70E-07,-0.001051561,0.001056703,-0.001051379,0.001056835,-0.001055916,0.001052337,-0.001055802,0.001052447,-0.001116987,0.001105124,-0.001104022,0.001118006,0.75461538,1473840,32975,0.006234981,0.006235009,0.004156564,27.53814681,0.000135505,0.000135505,0.000135505,1512858.185,0.016765747
31190400,0.999987859,0.016737513,0.005911214,0.005911241,0.004915058,-0.001501989,0.001501872,-6.61E-06,6.48E-06,-3.42E-07,2.83E-07,-0.001573519,0.001568857,-0.001569191,0.001573163,-0.001573373,0.001569037,-0.001568966,0.001573429,-0.001346072,0.001333189,-0.001333139,0.001346113,5.28E-07,-9.40E-08,4.65E-07,5.74E-08,-0.0015017,0.001502175,-0.001570812,0.001571616,-0.001570912,0.001571475,-0.001570959,0.001571386,-0.001571134,0.001571228,-0.001339225,0.001339954,-0.001339675,0.001339583,-0.001502792,0.001503723,-0.001503434,0.001502995,7.02E-06,-6.09E-06,-0.000999008,0.000999929,2.65E-07,6.74E-07,-0.001052082,0.001057218,-0.001051897,0.001057354,-0.00105644,0.00105285,-0.001056321,0.001052964,-0.001117352,0.001105482,-0.001104383,0.00111837,0.761196626,1473840,32975,0.006238022,0.006238051,0.004157927,27.78245438,0.00013746,0.00013746,0.00013746,1508963.469,0.016773319
31276800,0.999988272,0.01673752,0.005911217,0.005911243,0.00491506,-0.001502682,0.001502583,-6.60E-06,6.49E-06,-3.38E-07,2.96E-07,-0.001574096,0.001569447,-0.001569767,0.001573754,-0.001573948,0.00156963,-0.001569539,0.001574024,-0.001346846,0.001333979,-0.00133391,0.001346908,5.32E-07,-9.85E-08,4.71E-07,5.17E-08,-0.001502402,0.001502878,-0.001571392,0.001572203,-0.001571496,0.001572058,-0.001571542,0.001571969,-0.001571721,0.001571808,-0.001340003,0.001340741,-0.001340465,0.001340359,-0.001503605,0.00150454,-0.001504256,0.001503805,7.02E-06,-6.10E-06,-0.000999317,0.001000227,2.55E-07,6.74E-07,-0.001052576,0.001057699,-0.001052387,0.00105784,-0.001056934,0.001053331,-0.001056813,0.001053449,-0.001117682,0.001105803,-0.00110471,0.001118694,0.760599294,1473840,32975,0.006240929,0.006240957,0.004159191,28.02795656,0.000139424,0.000139424,0.000139424,1505318.019,0.016780516
31363200,0.999988677,0.016737526,0.005911219,0.005911245,0.004915062,-0.001503071,0.001502949,-6.62E-06,6.47E-06,-3.48E-07,2.84E-07,-0.001574559,0.001569888,-0.00157023,0.001574196,-0.00157441,0.00157007,-0.001570003,0.001574463,-0.001347152,0.001334266,-0.001334219,0.001347191,5.29E-07,-9.91E-08,4.68E-07,5.08E-08,-0.001502781,0.001503253,-0.001571848,0.001572653,-0.00157195,0.001572508,-0.001571997,0.00157242,-0.001572174,0.00157226,-0.001340303,0.001341034,-0.00134076,0.001340654,-0.001503915,0.001504845,-0.001504562,0.001504113,7.02E-06,-6.10E-06,-0.000999511,0.00100042,2.55E-07,6.73E-07,-0.001052806,0.001057928,-0.001052619,0.001058067,-0.001057164,0.001053559,-0.001057043,0.001053676,-0.001117868,0.001105988,-0.001104898,0.001118878,0.757878609,1473840,32975,0.00624249,0.006242519,0.004159994,28.27356839,0.000141389,0.000141389,0.000141389,1506830.275,0.016784507
31449600,0.999989074,0.016737533,0.005911222,0.005911248,0.004915064,-0.00150343,0.001503278,-6.63E-06,6.46E-06,-3.62E-07,2.68E-07,-0.001575025,0.001570325,-0.001570696,0.001574632,-0.001574877,0.001570507,-0.001570469,0.0015749,-0.001347397,0.001334479,-0.001334463,0.001347404,5.30E-07,-9.69E-08,4.68E-07,5.42E-08,-0.001503123,0.001503598,-0.001572298,0.001573106,-0.0015724,0.001572961,-0.001572446,0.001572872,-0.001572623,0.001572713,-0.00134053,0.001341262,-0.001340985,0.001340886,-0.001504174,0.001505105,-0.00150482,0.001504375,7.02E-06,-6.10E-06,-0.00099974,0.001000654,2.59E-07,6.74E-07,-0.001053008,0.001058136,-0.001052821,0.001058274,-0.001057366,0.001053767,-0.001057245,0.001053883,-0.001118115,0.001106238,-0.001105142,0.001119128,0.753842955,1473840,32975,0.006243913,0.006243942,0.004160956,28.51919141,0.000143354,0.000143354,0.000143354,1509316.806,0.016788379
31536000,0.999989462,0.016737539,0.005911224,0.00591125,0.004915065,-0.00150375,0.001503604,-6.63E-06,6.46E-06,-3.57E-07,2.69E-07,-0.001575474,0.001570781,-0.001571144,0.001575089,-0.001575328,0.001570961,-0.001570919,0.001575354,-0.001347574,0.00133466,-0.001334639,0.001347585,5.31E-07,-9.15E-08,4.70E-07,5.92E-08,-0.001503443,0.001503924,-0.001572748,0.00157356,-0.00157285,0.001573417,-0.001572895,0.001573328,-0.001573071,0.00157317,-0.001340706,0.001341442,-0.001341157,0.001341071,-0.0015044,0.001505334,-0.001505043,0.001504611,7.03E-06,-6.09E-06,-0.000999991,0.001000919,2.68E-07,6.79E-07,-0.001053187,0.00105833,-0.001053001,0.001058468,-0.001057545,0.00105396,-0.001057425,0.001054075,-0.001118404,0.001106539,-0.00110543,0.001119431,0.749072446,1473840,32975,0.00624525,0.006245278,0.004162026,28.76481656,0.000145319,0.000145319,0.000145319,1512463.68,0.016792183
31622400,0.999989842,0.016737545,0.005911226,0.005911252,0.004915067,-0.001504046,0.001503918,-6.62E-06,6.47E-06,-3.45E-07,2.75E-07,-0.001575913,0.001571241,-0.001571582,0.001575548,-0.001575768,0.001571418,-0.001571359,0.001575811,-0.001347713,0.001334815,-0.001334778,0.00134774,5.30E-07,-8.70E-08,4.69E-07,6.33E-08,-0.001503746,0.001504231,-0.001573196,0.001574009,-0.001573297,0.001573868,-0.001573341,0.001573778,-0.001573516,0.001573622,-0.001340852,0.001341587,-0.001341298,0.001341222,-0.001504602,0.001505536,-0.00150524,0.001504819,7.03E-06,-6.09E-06,-0.001000265,0.001001192,2.70E-07,6.76E-07,-0.001053364,0.001058508,-0.00105318,0.001058644,-0.001057722,0.001054139,-0.001057605,0.001054252,-0.001118725,0.001106857,-0.001105751,0.001119749,0.743860851,1473840,32975,0.006246516,0.006246543,0.004163159,29.01044251,0.000147284,0.000147284,0.000147284,1516063.408,0.016795907
31708800,0.999990213,0.016737551,0.005911228,0.005911254,0.004915069,-0.001504318,0.001504209,-6.61E-06,6.48E-06,-3.34E-07,2.81E-07,-0.001576344,0.001571691,-0.001572013,0.001575998,-0.001576201,0.001571867,-0.001571792,0.00157626,-0.001347806,0.001334923,-0.00133487,0.001347848,5.30E-07,-8.20E-08,4.70E-07,6.69E-08,-0.001504025,0.001504515,-0.001573635,0.001574451,-0.001573736,0.001574311,-0.001573779,0.001574222,-0.001573953,0.001574067,-0.00134095,0.00134169,-0.001341394,0.001341327,-0.001504773,0.001505707,-0.001505406,0.001504995,7.04E-06,-6.09E-06,-0.001000537,0.001001471,2.75E-07,6.78E-07,-0.001053512,0.001058665,-0.001053329,0.001058801,-0.001057871,0.001054295,-0.001057754,0.001054408,-0.001119056,0.001107194,-0.001106081,0.001120087,0.738351351,1473840,32975,0.006247681,0.006247709,0.004164298,29.25137978,0.000149211,0.000149211,0.000149211,1520035.265,0.016799435
31795200,0.999990571,0.016737557,0.00591123,0.005911256,0.004915071,-0.00150415,0.001504023,-6.62E-06,6.47E-06,-3.40E-07,2.71E-07,-0.001576348,0.001571678,-0.001572017,0.001575987,-0.001576205,0.001571854,-0.001571797,0.001576247,-0.001347448,0.00133455,-0.001334516,0.001347474,5.25E-07,-8.27E-08,4.63E-07,6.79E-08,-0.001503852,0.001504336,-0.001573638,0.001574443,-0.001573735,0.001574304,-0.001573781,0.001574216,-0.001573951,0.001574063,-0.001340594,0.001341321,-0.001341028,0.001340964,-0.001504476,0.001505402,-0.001505103,0.001504694,7.04E-06,-6.08E-06,-0.001000448,0.001001393,2.84E-07,6.80E-07,-0.001053275,0.00105844,-0.001053096,0.001058573,-0.001057634,0.00105407,-0.001057519,0.001054181,-0.001119017,0.001107163,-0.001106043,0.001120055,0.731335703,1473840,32975,0.00624695,0.006246979,0.00416395,29.26966157,0.000149357,0.000149357,0.000149357,1523671.481,0.016797594
31881600,0.999990916,0.016737562,0.005911232,0.005911258,0.004915072,-0.001503876,0.001503715,-6.64E-06,6.46E-06,-3.53E-07,2.50E-07,-0.001576328,0.001571627,-0.001571998,0.001575935,-0.001576189,0.001571799,-0.001571781,0.001576193,-0.001346869,0.001333931,-0.001333934,0.001346859,5.18E-07,-8.11E-08,4.51E-07,7.42E-08,-0.001503563,0.001504041,-0.00157361,0.001574399,-0.001573699,0.001574267,-0.00157375,0.001574176,-0.001573914,0.001574028,-0.001340006,0.001340714,-0.001340424,0.001340374,-0.001504033,0.001504954,-0.001504651,0.00150425,7.02E-06,-6.10E-06,-0.001000359,0.001001272,2.77E-07,6.54E-07,-0.001052912,0.001058052,-0.001052738,0.001058178,-0.001057271,0.001053683,-0.001057163,0.001053787,-0.001119039,0.001107147,-0.001106066,0.001120038,0.747896117,1473840,32975,0.006245746,0.006245775,0.00416351,29.27487115,0.000149399,0.000149399,0.000149399,1528826.286,0.016794697
31968000,0.999991248,0.016737568,0.005911234,0.00591126,0.004915074,-0.001504888,0.001504744,-6.63E-06,6.47E-06,-3.52E-07,2.67E-07,-0.001576756,0.001572065,-0.001572425,0.001576374,-0.001576614,0.001572242,-0.001572201,0.001576639,-0.001348353,0.001335429,-0.001335406,0.001348366,5.23E-07,-9.29E-08,4.61E-07,5.77E-08,-0.001504587,0.001505058,-0.001574038,0.001574832,-0.001574134,0.001574695,-0.001574182,0.001574606,-0.001574356,0.001574448,-0.001341488,0.001342213,-0.001341938,0.001341845,-0.00150562,0.001506546,-0.001506259,0.001505822,7.01E-06,-6.12E-06,-0.00100055,0.001001436,2.50E-07,6.53E-07,-0.001053597,0.001058704,-0.001053413,0.001058838,-0.001057958,0.001054333,-0.001057843,0.001054445,-0.001119336,0.001107419,-0.001106358,0.001120318,0.750220529,1473840,32975,0.006249967,0.006249996,0.004164262,29.27888432,0.000149431,0.000149431,0.000149431,1512555.991,0.016804049
32054400,0.999991569,0.016737573,0.005911236,0.005911262,0.004915075,-0.00150499,0.001504838,-6.64E-06,6.46E-06,-3.57E-07,2.64E-07,-0.001576791,0.001572091,-0.001572459,0.001576401,-0.001576647,0.001572269,-0.001572235,0.001576666,-0.001348528,0.001335597,-0.001335584,0.001348533,5.25E-07,-9.18E-08,4.63E-07,5.80E-08,-0.001504684,0.001505159,-0.001574067,0.001574867,-0.001574165,0.001574727,-0.001574212,0.001574638,-0.001574386,0.001574481,-0.001341658,0.001342387,-0.001342107,0.001342017,-0.001505751,0.001506679,-0.001506388,0.001505955,7.02E-06,-6.11E-06,-0.001000457,0.001001355,2.56E-07,6.61E-07,-0.001053627,0.001058746,-0.001053443,0.001058882,-0.001057989,0.001054374,-0.001057872,0.001054488,-0.001119221,0.001107318,-0.001106242,0.001120217,0.752826125,1473840,32975,0.006250374,0.006250403,0.004163904,29.28277972,0.000149462,0.000149462,0.000149462,1510388.319,0.016804514
32140800,0.999991877,0.016737578,0.005911238,0.005911264,0.004915077,-0.001505119,0.001504915,-6.66E-06,6.44E-06,-3.44E-07,1.99E-07,-0.001576848,0.001572121,-0.001572515,0.001576432,-0.001576728,0.001572274,-0.001572317,0.00157667,-0.001348724,0.001335716,-0.001335781,0.001348652,4.99E-07,-4.03E-08,4.20E-07,1.27E-07,-0.001504774,0.001505274,-0.001574129,0.001574893,-0.001574191,0.001574789,-0.001574249,0.001574689,-0.001574386,0.00157457,-0.001341846,0.001342514,-0.001342183,0.001342256,-0.0015059,0.001506813,-0.00150646,0.001506167,7.01E-06,-6.12E-06,-0.001000369,0.001001252,3.04E-07,5.98E-07,-0.001053629,0.00105877,-0.001053483,0.001058869,-0.001057991,0.001054398,-0.00105791,0.001054474,-0.001119143,0.001107186,-0.001106162,0.001120085,0.75611978,1473840,32975,0.006250798,0.006250827,0.004163512,29.28666334,0.000149493,0.000149493,0.000149493,1508193.578,0.016804979
32227200,0.999992175,0.016737583,0.005911239,0.005911266,0.004915078,-0.001505238,0.001505034,-6.66E-06,6.44E-06,-3.46E-07,2.00E-07,-0.001576907,0.001572179,-0.001572574,0.001576491,-0.001576787,0.001572333,-0.001572375,0.00157673,-0.001348885,0.001335877,-0.001335941,0.001348814,5.00E-07,-4.19E-08,4.20E-07,1.26E-07,-0.001504893,0.001505393,-0.001574188,0.001574952,-0.00157425,0.001574847,-0.001574309,0.001574748,-0.001574446,0.001574628,-0.001342007,0.001342675,-0.001342345,0.001342415,-0.001506072,0.001506987,-0.001506635,0.001506339,7.00E-06,-6.13E-06,-0.001000282,0.001001148,2.95E-07,5.90E-07,-0.001053645,0.001058769,-0.001053498,0.001058868,-0.001058007,0.001054396,-0.001057926,0.001054473,-0.001119061,0.001107087,-0.001106079,0.001119987,0.759775608,1473840,32975,0.00625129,0.006251319,0.004163116,29.29054578,0.000149524,0.000149524,0.000149524,1505662.833,0.016805578
32313600,0.999992461,0.016737588,0.005911241,0.005911267,0.00491508,-0.001505356,0.001505156,-6.66E-06,6.44E-06,-3.45E-07,2.03E-07,-0.001576964,0.001572238,-0.00157263,0.001576549,-0.001576842,0.001572392,-0.001572431,0.001576789,-0.001349048,0.001336045,-0.001336105,0.001348981,5.01E-07,-4.38E-08,4.21E-07,1.24E-07,-0.001505013,0.001505512,-0.001574245,0.00157501,-0.001574308,0.001574905,-0.001574367,0.001574804,-0.001574505,0.001574684,-0.001342172,0.00134284,-0.001342513,0.001342579,-0.001506244,0.00150716,-0.00150681,0.001506509,7.01E-06,-6.12E-06,-0.001000174,0.001001048,2.98E-07,5.95E-07,-0.00105365,0.001058781,-0.001053502,0.001058881,-0.001058012,0.001054409,-0.00105793,0.001054486,-0.001118953,0.001106988,-0.001105971,0.001119889,0.763735182,1473840,32975,0.006251784,0.006251813,0.004162688,29.29442811,0.000149555,0.000149555,0.000149555,1503036.633,0.016806148
32400000,0.999992738,0.016737592,0.005911243,0.005911269,0.004915081,-0.001505474,0.001505276,-6.66E-06,6.44E-06,-3.46E-07,2.05E-07,-0.001577019,0.001572295,-0.001572686,0.001576605,-0.001576897,0.00157245,-0.001572486,0.001576846,-0.001349215,0.001336215,-0.001336272,0.00134915,5.02E-07,-4.58E-08,4.22E-07,1.23E-07,-0.001505134,0.001505631,-0.001574301,0.001575066,-0.001574364,0.00157496,-0.001574424,0.00157486,-0.001574562,0.001574739,-0.001342341,0.001343009,-0.001342683,0.001342745,-0.001506415,0.001507332,-0.001506984,0.001506678,7.01E-06,-6.12E-06,-0.00100006,0.00100094,3.00E-07,5.99E-07,-0.001053657,0.001058793,-0.001053509,0.001058894,-0.001058019,0.001054421,-0.001057937,0.001054499,-0.001118836,0.001106878,-0.001105855,0.001119778,0.767936664,1473840,32975,0.006252278,0.006252307,0.004162231,29.29831043,0.000149586,0.000149586,0.000149586,1500338.449,0.016806689
32486400,0.999993004,0.016737597,0.005911244,0.00591127,0.004915082,-0.001505589,0.001505394,-6.66E-06,6.44E-06,-3.46E-07,2.09E-07,-0.001577075,0.001572354,-0.001572743,0.001576664,-0.001576952,0.00157251,-0.001572541,0.001576906,-0.001349368,0.001336374,-0.001336426,0.001349307,5.03E-07,-4.77E-08,4.23E-07,1.21E-07,-0.00150525,0.001505747,-0.001574357,0.001575124,-0.001574422,0.001575018,-0.001574481,0.001574917,-0.001574621,0.001574795,-0.001342495,0.001343165,-0.001342842,0.001342898,-0.001506584,0.001507503,-0.001507156,0.001506845,7.01E-06,-6.12E-06,-0.00099994,0.001000825,3.00E-07,6.03E-07,-0.001053654,0.001058794,-0.001053505,0.001058895,-0.001058016,0.001054422,-0.001057933,0.001054501,-0.001118718,0.001106767,-0.001105739,0.001119665,0.763226157,1473840,32975,0.006252759,0.006252788,0.004161746,29.3010254,0.000149608,0.000149608,0.000149608,1497598.905,0.016807173
32572800,0.99999326,0.016737601,0.005911246,0.005911272,0.004915083,-0.00150531,0.001505112,-6.66E-06,6.44E-06,-3.46E-07,2.05E-07,-0.001576938,0.001572215,-0.001572606,0.001576525,-0.001576814,0.00157237,-0.001572406,0.001576765,-0.001348967,0.001335973,-0.001336031,0.001348901,4.97E-07,-4.99E-08,4.15E-07,1.20E-07,-0.001504974,0.001505462,-0.001574225,0.001574981,-0.001574289,0.001574876,-0.001574349,0.001574775,-0.001574485,0.001574655,-0.001342102,0.001342757,-0.001342439,0.001342497,-0.001506167,0.001507074,-0.001506733,0.001506422,7.01E-06,-6.11E-06,-0.000999701,0.001000591,3.07E-07,6.03E-07,-0.001053356,0.001058502,-0.00105321,0.001058602,-0.001057717,0.001054131,-0.001057635,0.001054208,-0.001118454,0.00110651,-0.001105477,0.001119404,0.756260982,1473840,32975,0.006251598,0.006251627,0.004160763,29.27723762,0.000149418,0.000149418,0.000149418,1500566.451,0.016803811
32659200,0.999993506,0.016737605,0.005911247,0.005911273,0.004915085,-0.001504987,0.001504775,-6.66E-06,6.43E-06,-3.50E-07,1.95E-07,-0.001576807,0.001572072,-0.001572475,0.001576382,-0.001576684,0.001572226,-0.001572278,0.00157662,-0.001348464,0.001335457,-0.001335532,0.001348383,5.00E-07,-4.14E-08,4.16E-07,1.30E-07,-0.001504639,0.001505138,-0.001574086,0.001574848,-0.001574147,0.001574745,-0.001574208,0.001574643,-0.001574341,0.001574527,-0.001341592,0.001342249,-0.001341918,0.001342,-0.00150567,0.001506584,-0.001506229,0.001505939,7.02E-06,-6.11E-06,-0.000999497,0.001000394,3.15E-07,6.01E-07,-0.001053,0.001058154,-0.001052857,0.001058251,-0.00105736,0.001053784,-0.001057281,0.001053858,-0.00111826,0.001106321,-0.001105285,0.001119213,0.748297486,1473840,32975,0.006250232,0.006250262,0.004159926,29.2518934,0.000149215,0.000149215,0.000149215,1504797.189,0.016800182
32745600,0.999993743,0.016737609,0.005911248,0.005911275,0.004915086,-0.001504621,0.001504407,-6.66E-06,6.43E-06,-3.46E-07,1.89E-07,-0.001576702,0.001571969,-0.001572371,0.001576278,-0.001576585,0.001572119,-0.001572176,0.001576513,-0.001347801,0.001334787,-0.001334865,0.001347715,4.97E-07,-3.53E-08,4.09E-07,1.40E-07,-0.00150427,0.001504772,-0.001573984,0.001574739,-0.001574038,0.001574643,-0.001574102,0.001574539,-0.001574231,0.001574427,-0.001340928,0.001341578,-0.001341243,0.001341344,-0.001505138,0.001506054,-0.001505691,0.001505416,7.01E-06,-6.12E-06,-0.000999328,0.001000208,3.13E-07,5.84E-07,-0.001052558,0.0010577,-0.001052419,0.001057791,-0.001056917,0.00105333,-0.001056845,0.001053399,-0.001118184,0.001106222,-0.00110521,0.001119115,0.739751076,1473840,32975,0.006248715,0.006248744,0.004159185,29.22640653,0.000149011,0.000149011,0.000149011,1509951.159,0.016796341
32832000,0.999993971,0.016737612,0.00591125,0.005911276,0.004915087,-0.001504218,0.001504005,-6.66E-06,6.43E-06,-3.41E-07,1.86E-07,-0.001576557,0.001571828,-0.001572227,0.001576137,-0.001576442,0.001571975,-0.001572034,0.001576369,-0.001347131,0.001334116,-0.001334196,0.001347043,4.94E-07,-2.96E-08,4.03E-07,1.49E-07,-0.001503866,0.001504371,-0.001573844,0.001574594,-0.001573893,0.001574503,-0.001573959,0.001574396,-0.001574082,0.00157429,-0.001340263,0.001340903,-0.001340562,0.001340683,-0.001504539,0.001505454,-0.001505083,0.001504825,7.00E-06,-6.12E-06,-0.000999169,0.001000042,3.18E-07,5.73E-07,-0.001052142,0.001057283,-0.001052008,0.001057369,-0.001056501,0.001052914,-0.001056433,0.001052977,-0.001118085,0.001106113,-0.001105112,0.001119005,0.731352926,1473840,32975,0.006247049,0.006247078,0.004158505,29.20090549,0.000148807,0.000148807,0.000148807,1515790.088,0.016792259
32918400,0.99999419,0.016737616,0.005911251,0.005911277,0.004915088,-0.001503805,0.001503587,-6.66E-06,6.43E-06,-3.39E-07,1.79E-07,-0.001576394,0.001571664,-0.001572063,0.001575972,-0.00157628,0.001571809,-0.001571874,0.001576201,-0.001346483,0.001333465,-0.001333554,0.001346388,4.92E-07,-2.23E-08,3.99E-07,1.59E-07,-0.001503448,0.001503959,-0.001573681,0.001574431,-0.001573727,0.001574343,-0.001573794,0.001574234,-0.001573912,0.001574134,-0.001339617,0.00134025,-0.0013399,0.001340046,-0.00150391,0.001504825,-0.001504444,0.001504207,7.00E-06,-6.12E-06,-0.000999019,0.000999895,3.27E-07,5.68E-07,-0.001051755,0.001056903,-0.001051627,0.001056984,-0.001056113,0.001052534,-0.00105605,0.001052592,-0.001117968,0.001105996,-0.001104996,0.001118884,0.741579078,1473840,32975,0.006245332,0.006245362,0.004157883,29.17540309,0.000148603,0.000148603,0.000148603,1521852.857,0.016788134
33004800,0.999994401,0.016737619,0.005911252,0.005911278,0.004915089,-0.00150441,0.001504211,-6.66E-06,6.44E-06,-3.37E-07,1.97E-07,-0.001576634,0.001571919,-0.001572305,0.001576226,-0.00157652,0.001572068,-0.001572109,0.001576462,-0.001347356,0.001334355,-0.001334418,0.001347286,4.94E-07,-3.59E-08,4.00E-07,1.46E-07,-0.001504068,0.001504567,-0.001573929,0.001574674,-0.001573977,0.001574586,-0.001574045,0.001574476,-0.00157417,0.001574369,-0.001340498,0.001341132,-0.001340801,0.001340912,-0.0015049,0.00150582,-0.001505454,0.00150518,7.00E-06,-6.13E-06,-0.000999033,0.000999894,3.12E-07,5.66E-07,-0.001052082,0.001057212,-0.001051948,0.001057297,-0.001056442,0.001052843,-0.001056375,0.001052906,-0.001118079,0.001106094,-0.001105107,0.001118986,0.74293812,1473840,32975,0.006247874,0.006247902,0.004157923,29.14990046,0.000148399,0.000148399,0.000148399,1510871.115,0.016793346
33091200,0.999994604,0.016737623,0.005911253,0.00591128,0.00491509,-0.001504483,0.00150428,-6.66E-06,6.43E-06,-3.42E-07,1.96E-07,-0.00157663,0.001571908,-0.0015723,0.001576216,-0.001576512,0.001572059,-0.001572104,0.001576453,-0.001347501,0.0013345,-0.001334566,0.001347427,4.98E-07,-3.75E-08,4.03E-07,1.45E-07,-0.001504138,0.001504639,-0.00157392,0.001574671,-0.001573971,0.001574579,-0.001574039,0.001574469,-0.001574164,0.001574362,-0.001340642,0.001341278,-0.001340945,0.001341055,-0.001505021,0.001505943,-0.001505577,0.001505302,7.00E-06,-6.12E-06,-0.000998935,0.000999807,3.15E-07,5.74E-07,-0.001052086,0.001057224,-0.001051952,0.001057311,-0.001056445,0.001052855,-0.001056377,0.00105292,-0.001117983,0.001106011,-0.001105011,0.001118902,0.753027437,1473840,32975,0.006248165,0.006248194,0.004157541,29.12439728,0.000148195,0.000148195,0.000148195,1508550.314,0.01679355
33177600,0.9999948,0.016737626,0.005911254,0.005911281,0.004915091,-0.00150496,0.001504762,-6.66E-06,6.44E-06,-3.45E-07,2.05E-07,-0.001576788,0.001572065,-0.001572456,0.001576375,-0.001576666,0.00157222,-0.001572256,0.001576615,-0.001348258,0.001335261,-0.001335318,0.001348193,5.02E-07,-4.49E-08,4.10E-07,1.35E-07,-0.001504619,0.001505117,-0.001574074,0.001574831,-0.00157413,0.001574734,-0.001574197,0.001574626,-0.001574327,0.001574513,-0.001341396,0.001342041,-0.001341715,0.001341802,-0.001505786,0.001506709,-0.001506353,0.001506057,7.01E-06,-6.12E-06,-0.000998938,0.000999815,3.10E-07,5.85E-07,-0.001052397,0.001057537,-0.001052257,0.001057629,-0.001056758,0.001053166,-0.001056684,0.001053236,-0.001118014,0.001106048,-0.001105036,0.001118944,0.755939519,1473840,32975,0.00625015,0.006250179,0.004157571,29.09889438,0.000147991,0.000147991,0.000147991,1499585.447,0.01679762
33264000,0.999994988,0.016737629,0.005911256,0.005911282,0.004915092,-0.001505022,0.001504823,-6.66E-06,6.44E-06,-3.47E-07,2.06E-07,-0.001576799,0.001572075,-0.001572467,0.001576385,-0.001576676,0.001572231,-0.001572266,0.001576626,-0.001348354,0.001335357,-0.001335414,0.001348289,5.02E-07,-4.64E-08,4.11E-07,1.33E-07,-0.001504681,0.001505178,-0.001574084,0.001574843,-0.001574141,0.001574744,-0.001574208,0.001574636,-0.001574339,0.001574522,-0.001341492,0.001342138,-0.001341813,0.001341896,-0.001505893,0.001506817,-0.001506462,0.001506163,7.01E-06,-6.12E-06,-0.000998808,0.000999685,3.09E-07,5.87E-07,-0.001052359,0.001057498,-0.001052218,0.001057591,-0.001056719,0.001053127,-0.001056644,0.001053198,-0.001117887,0.001105922,-0.001104909,0.001118819,0.759054951,1473840,32975,0.006250405,0.006250434,0.004157036,29.08280155,0.000147862,0.000147862,0.000147862,1497290.552,0.016797594
33350400,0.99999517,0.016737632,0.005911257,0.005911283,0.004915092,-0.001505358,0.001505163,-6.66E-06,6.44E-06,-3.46E-07,2.09E-07,-0.001577084,0.001572363,-0.001572752,0.001576673,-0.001576961,0.001572519,-0.00157255,0.001576915,-0.001348718,0.001335723,-0.001335775,0.001348658,5.03E-07,-4.79E-08,4.12E-07,1.31E-07,-0.001505019,0.001505516,-0.00157437,0.00157513,-0.001574428,0.00157503,-0.001574494,0.001574922,-0.001574627,0.001574807,-0.001341855,0.001342504,-0.001342181,0.001342258,-0.00150628,0.001507204,-0.001506851,0.001506547,7.01E-06,-6.12E-06,-0.000998899,0.000999778,3.08E-07,5.90E-07,-0.001052549,0.001057689,-0.001052406,0.001057784,-0.00105691,0.001053317,-0.001056834,0.00105339,-0.001117995,0.00110603,-0.001105014,0.001118929,0.762370339,1473840,32975,0.006251802,0.006251831,0.00415742,29.20506508,0.000148841,0.000148841,0.000148841,1495395.008,0.016800827
33436800,0.999995348,0.016737635,0.005911258,0.005911284,0.004915093,-0.001505705,0.00150552,-6.65E-06,6.45E-06,-3.43E-07,2.15E-07,-0.00157739,0.001572676,-0.001573057,0.001576987,-0.001577266,0.001572834,-0.001572853,0.001577231,-0.001349083,0.001336096,-0.001336138,0.001349034,5.07E-07,-4.79E-08,4.18E-07,1.30E-07,-0.001505369,0.00150587,-0.001574675,0.001575443,-0.001574736,0.001575341,-0.0015748,0.001575234,-0.001574936,0.001575117,-0.001342219,0.001342878,-0.001342553,0.001342626,-0.001506676,0.001507607,-0.001507254,0.001506947,7.01E-06,-6.12E-06,-0.000999001,0.00099988,3.04E-07,5.92E-07,-0.001052747,0.001057886,-0.001052602,0.001057983,-0.00105711,0.001053514,-0.001057032,0.001053588,-0.001118115,0.00110615,-0.001105132,0.001119051,0.765861287,1473840,32975,0.006253259,0.006253288,0.004157847,29.33545488,0.000149884,0.000149884,0.000149884,1493484.309,0.016804225
33523200,0.99999552,0.016737638,0.005911259,0.005911285,0.004915094,-0.001506053,0.001505881,-6.65E-06,6.46E-06,-3.39E-07,2.25E-07,-0.001577692,0.00157299,-0.001573358,0.001577301,-0.001577567,0.001573148,-0.001573153,0.001577547,-0.001349456,0.00133648,-0.001336507,0.001349421,5.13E-07,-4.71E-08,4.24E-07,1.30E-07,-0.001505721,0.001506228,-0.001574978,0.001575755,-0.00157504,0.001575652,-0.001575104,0.001575545,-0.001575242,0.001575426,-0.001342592,0.001343262,-0.001342931,0.001343003,-0.001507072,0.001508012,-0.001507655,0.001507347,7.01E-06,-6.12E-06,-0.000999099,0.000999976,3.01E-07,5.95E-07,-0.001052955,0.001058092,-0.001052808,0.001058191,-0.001057318,0.001053719,-0.001057239,0.001053795,-0.001118226,0.001106258,-0.00110524,0.001119162,0.769500704,1473840,32975,0.006254726,0.006254755,0.004158253,29.46658825,0.000150933,0.000150933,0.000150933,1491560.161,0.016807621
33609600,0.999995687,0.016737641,0.00591126,0.005911286,0.004915095,-0.001506412,0.001506234,-6.65E-06,6.45E-06,-3.43E-07,2.23E-07,-0.001577996,0.001573285,-0.001573661,0.001577598,-0.001577869,0.001573446,-0.001573456,0.001577844,-0.001349854,0.001336875,-0.001336906,0.001349815,5.12E-07,-5.13E-08,4.23E-07,1.25E-07,-0.00150608,0.001506581,-0.00157528,0.001576054,-0.001575344,0.001575949,-0.001575408,0.001575843,-0.001575546,0.001575722,-0.00134299,0.001343657,-0.001343333,0.001343394,-0.001507471,0.001508407,-0.001508055,0.001507738,7.01E-06,-6.13E-06,-0.000999189,0.001000067,2.99E-07,5.98E-07,-0.001053178,0.001058314,-0.00105303,0.001058414,-0.001057542,0.00105394,-0.00105746,0.001054018,-0.001118315,0.001106349,-0.001105328,0.001119254,0.768433373,1473840,32975,0.006256198,0.006256227,0.004158631,29.59779141,0.000151982,0.000151982,0.000151982,1489620.476,0.016811001
33696000,0.999995849,0.016737643,0.005911261,0.005911287,0.004915096,-0.001506581,0.00150641,-6.65E-06,6.46E-06,-3.41E-07,2.27E-07,-0.001578237,0.001573532,-0.001573902,0.001577846,-0.001578109,0.001573693,-0.001573696,0.001578092,-0.001349941,0.001336967,-0.001336991,0.001349909,5.08E-07,-5.64E-08,4.18E-07,1.21E-07,-0.001506256,0.001506749,-0.001575528,0.001576294,-0.001575592,0.001576189,-0.001575657,0.001576083,-0.001575795,0.001575962,-0.001343085,0.001343741,-0.001343426,0.00134348,-0.001507593,0.001508521,-0.001508177,0.001507852,7.01E-06,-6.13E-06,-0.000999237,0.001000117,3.00E-07,5.98E-07,-0.001053227,0.001058365,-0.001053079,0.001058465,-0.001057591,0.00105399,-0.001057509,0.001054068,-0.001118375,0.001106409,-0.001105387,0.001119315,0.774893762,1473840,32975,0.00625691,0.006256939,0.004158834,29.72900756,0.000153032,0.000153032,0.000153032,1490735.01,0.016812654
33782400,0.999996006,0.016737646,0.005911262,0.005911288,0.004915097,-0.001507081,0.001506908,-6.65E-06,6.46E-06,-3.45E-07,2.30E-07,-0.001578602,0.001573891,-0.001574266,0.001578206,-0.001578472,0.001574055,-0.001574057,0.001578455,-0.001350547,0.00133757,-0.001337594,0.001350516,5.10E-07,-6.13E-08,4.20E-07,1.17E-07,-0.001506756,0.001507246,-0.00157589,0.001576657,-0.001575955,0.00157655,-0.00157602,0.001576443,-0.00157616,0.00157632,-0.00134369,0.001344346,-0.001344036,0.001344079,-0.001508212,0.001509143,-0.001508803,0.001508466,7.01E-06,-6.13E-06,-0.000999392,0.001000267,2.95E-07,5.98E-07,-0.001053569,0.001058702,-0.00105342,0.001058804,-0.001057934,0.001054326,-0.001057851,0.001054406,-0.001118554,0.001106581,-0.001105562,0.001119491,0.775682425,1473840,32975,0.006258975,0.006259004,0.004159474,29.8602201,0.000154082,0.000154082,0.000154082,1486629.398,0.016817506
33868800,0.999996158,0.016737648,0.005911263,0.005911289,0.004915097,-0.001507303,0.001507144,-6.65E-06,6.47E-06,-3.40E-07,2.38E-07,-0.001578856,0.001574158,-0.001574519,0.001578472,-0.001578725,0.001574322,-0.00157431,0.001578723,-0.00135073,0.001337765,-0.001337774,0.001350712,5.13E-07,-6.17E-08,4.22E-07,1.18E-07,-0.001506984,0.001507477,-0.001576148,0.001576919,-0.001576214,0.001576812,-0.001576279,0.001576704,-0.00157642,0.001576581,-0.001343876,0.001344536,-0.001344225,0.001344267,-0.001508413,0.001509349,-0.001509008,0.001508669,7.02E-06,-6.13E-06,-0.00099944,0.00100032,2.97E-07,6.02E-07,-0.001053669,0.001058808,-0.001053519,0.00105891,-0.001058035,0.001054431,-0.001057951,0.001054512,-0.001118606,0.001106638,-0.001105613,0.00111955,0.769266432,1473840,32975,0.006259924,0.006259953,0.004159685,29.99142778,0.000155131,0.000155131,0.000155131,1486646.463,0.016819649
33955200,0.999996305,0.016737651,0.005911263,0.00591129,0.004915098,-0.001507296,0.001507135,-6.65E-06,6.46E-06,-3.39E-07,2.35E-07,-0.001579025,0.001574327,-0.001574688,0.001578641,-0.001578894,0.00157449,-0.00157448,0.001578889,-0.001350559,0.001337595,-0.001337608,0.001350538,5.15E-07,-5.54E-08,4.24E-07,1.25E-07,-0.001506972,0.001507474,-0.001576314,0.001577092,-0.001576379,0.001576986,-0.001576444,0.001576877,-0.001576583,0.001576757,-0.001343703,0.001344367,-0.001344044,0.001344104,-0.001508242,0.001509184,-0.001508834,0.00150851,7.02E-06,-6.12E-06,-0.000999464,0.001000358,3.06E-07,6.06E-07,-0.001053596,0.001058748,-0.001053448,0.001058849,-0.001057961,0.001054372,-0.001057878,0.00105445,-0.001118633,0.001106678,-0.001105641,0.001119587,0.767289028,1473840,32975,0.006259892,0.006259922,0.004159808,30.12263879,0.000156181,0.000156181,0.000156181,1490960.138,0.01681971
34041600,0.999996448,0.016737653,0.005911264,0.00591129,0.004915099,-0.001507526,0.001507367,-6.64E-06,6.47E-06,-3.38E-07,2.36E-07,-0.001579324,0.001574629,-0.001574988,0.001578943,-0.001579195,0.001574792,-0.001574779,0.001579191,-0.001350697,0.001337734,-0.001337743,0.001350677,5.11E-07,-5.94E-08,4.20E-07,1.21E-07,-0.001507207,0.0015077,-0.001576618,0.001577388,-0.001576683,0.001577283,-0.001576748,0.001577173,-0.001576887,0.001577053,-0.001343844,0.0013445,-0.001344187,0.001344238,-0.001508444,0.001509378,-0.001509036,0.001508704,7.02E-06,-6.12E-06,-0.000999595,0.001000485,3.04E-07,6.03E-07,-0.001053687,0.001058836,-0.001053538,0.001058936,-0.001058052,0.00105446,-0.001057969,0.001054538,-0.001118814,0.001106855,-0.001105821,0.001119765,0.765153489,1473840,32975,0.006260848,0.006260876,0.004160342,30.2656865,0.000157325,0.000157325,0.000157325,1492053.147,0.016822194
34128000,0.999996588,0.016737656,0.005911265,0.005911291,0.004915099,-0.00150801,0.001507853,-6.64E-06,6.47E-06,-3.36E-07,2.37E-07,-0.001579872,0.001575179,-0.001575535,0.001579492,-0.001579744,0.001575342,-0.001575327,0.001579741,-0.00135109,0.001338126,-0.001338133,0.00135107,5.11E-07,-5.91E-08,4.20E-07,1.22E-07,-0.001507692,0.001508186,-0.001577166,0.001577936,-0.001577232,0.001577832,-0.001577295,0.001577722,-0.001577436,0.001577602,-0.001344234,0.00134489,-0.001344578,0.001344631,-0.001508901,0.001509834,-0.001509493,0.001509161,7.02E-06,-6.12E-06,-0.000999939,0.00100083,3.05E-07,6.03E-07,-0.001054001,0.001059153,-0.001053853,0.001059252,-0.001058366,0.001054776,-0.001058285,0.001054854,-0.001119221,0.001107262,-0.001106227,0.001120173,0.762841147,1473840,32975,0.006262858,0.006262886,0.004161774,30.535933,0.000159487,0.000159487,0.000159487,1493598.39,0.016827737
34214400,0.999996724,0.016737658,0.005911266,0.005911292,0.0049151,-0.001508522,0.001508342,-6.66E-06,6.46E-06,-3.47E-07,2.25E-07,-0.001580452,0.001575736,-0.001576114,0.00158005,-0.001580325,0.001575898,-0.001575907,0.001580298,-0.001351498,0.001338507,-0.001338538,0.001351455,5.12E-07,-5.65E-08,4.22E-07,1.24E-07,-0.001508189,0.001508688,-0.001577732,0.001578507,-0.001577798,0.001578403,-0.001577861,0.001578293,-0.001578002,0.001578173,-0.001344627,0.001345287,-0.001344971,0.001345028,-0.00150937,0.001510306,-0.001509961,0.001509634,7.02E-06,-6.12E-06,-0.0010003,0.001001189,3.04E-07,6.01E-07,-0.001054328,0.001059478,-0.00105418,0.001059577,-0.001058695,0.001055101,-0.001058613,0.001055178,-0.001119653,0.001107688,-0.001106655,0.001120602,0.758349749,1473840,32975,0.006264927,0.006264956,0.004163268,30.81367765,0.000161709,0.000161709,0.000161709,1495303.73,0.016833465
34300800,0.999996857,0.01673766,0.005911267,0.005911293,0.004915101,-0.001508936,0.001508744,-6.67E-06,6.45E-06,-3.53E-07,2.18E-07,-0.001580989,0.001576258,-0.001576649,0.001580575,-0.001580861,0.00157642,-0.001576442,0.001580823,-0.001351768,0.001338759,-0.001338804,0.001351714,5.13E-07,-5.43E-08,4.23E-07,1.25E-07,-0.001508597,0.001509098,-0.001578262,0.001579039,-0.001578328,0.001578934,-0.001578391,0.001578825,-0.001578531,0.001578705,-0.001344887,0.001345551,-0.001345231,0.001345292,-0.001509696,0.001510632,-0.001510285,0.001509962,7.03E-06,-6.13E-06,-0.001000652,0.001001539,3.03E-07,6.01E-07,-0.001054596,0.001059747,-0.001054448,0.001059847,-0.001058964,0.001055368,-0.001058883,0.001055445,-0.001120069,0.001108097,-0.001107065,0.001121017,0.752876816,1473840,32975,0.006266618,0.006266649,0.004164724,31.0921112,0.000163937,0.000163937,0.000163937,1498576.72,0.016838385
34387200,0.999996986,0.016737662,0.005911267,0.005911294,0.004915101,-0.001509312,0.001509105,-6.67E-06,6.45E-06,-3.59E-07,2.10E-07,-0.00158152,0.001576774,-0.00157718,0.001581091,-0.001581392,0.001576935,-0.001576973,0.001581338,-0.001351962,0.001338938,-0.001338997,0.001351893,5.10E-07,-5.60E-08,4.20E-07,1.25E-07,-0.001508967,0.001509464,-0.001578788,0.001579559,-0.001578853,0.001579455,-0.001578916,0.001579345,-0.001579055,0.001579226,-0.001345077,0.001345732,-0.001345416,0.001345477,-0.001509963,0.001510895,-0.001510551,0.001510227,7.02E-06,-6.13E-06,-0.001001007,0.00100189,3.03E-07,5.98E-07,-0.001054825,0.001059973,-0.001054678,0.001060072,-0.001059193,0.001055593,-0.001059112,0.001055669,-0.001120498,0.001108519,-0.001107493,0.001121442,0.755098902,1473840,32975,0.006268144,0.006268173,0.004166188,31.37061622,0.000166165,0.000166165,0.000166165,1502642.104,0.016842973
34473600,0.999997112,0.016737664,0.005911268,0.005911294,0.004915102,-0.001510041,0.001509842,-6.67E-06,6.45E-06,-3.55E-07,2.13E-07,-0.001582192,0.001577454,-0.001577851,0.001581772,-0.001582068,0.001577614,-0.001577644,0.00158202,-0.001352684,0.001339659,-0.00133971,0.001352621,5.17E-07,-4.72E-08,4.29E-07,1.32E-07,-0.001509691,0.001510204,-0.001579455,0.001580242,-0.00157952,0.001580138,-0.001579581,0.001580028,-0.001579722,0.001579909,-0.001345785,0.001346463,-0.001346133,0.001346207,-0.001510796,0.001511743,-0.001511385,0.001511075,7.02E-06,-6.14E-06,-0.001001435,0.001002313,2.98E-07,5.95E-07,-0.001055304,0.001060448,-0.001055155,0.001060547,-0.001059675,0.001056067,-0.001059594,0.001056144,-0.001121029,0.001109041,-0.00110802,0.001121968,0.757830645,1473840,32975,0.006271178,0.006271205,0.004167957,31.64912924,0.000168393,0.000168393,0.000168393,1500611.667,0.016850943
34560000,0.999997235,0.016737666,0.005911269,0.005911295,0.004915102,-0.00151077,0.001510586,-6.67E-06,6.46E-06,-3.50E-07,2.23E-07,-0.001582838,0.00157811,-0.001578495,0.00158243,-0.001582709,0.001578273,-0.001578287,0.001582679,-0.001353432,0.001340422,-0.001340457,0.001353387,5.16E-07,-5.42E-08,4.27E-07,1.24E-07,-0.001510433,0.001510937,-0.00158011,0.00158089,-0.001580175,0.001580784,-0.00158024,0.001580677,-0.00158038,0.001580554,-0.001346548,0.00134722,-0.001346897,0.001346954,-0.001511638,0.001512581,-0.001512231,0.001511905,7.03E-06,-6.13E-06,-0.001001846,0.001002728,2.98E-07,6.02E-07,-0.001055824,0.001060971,-0.001055674,0.001061073,-0.001060196,0.001056589,-0.001060112,0.001056669,-0.001121521,0.001109537,-0.00110851,0.001122467,0.761277564,1473840,32975,0.006274228,0.006274257,0.004169676,31.9276448,0.000170621,0.000170621,0.000170621,1498591.359,0.016858896
34646400,0.999997354,0.016737668,0.005911269,0.005911296,0.004915103,-0.001511489,0.001511324,-6.66E-06,6.48E-06,-3.42E-07,2.35E-07,-0.001583476,0.001578766,-0.001579131,0.001583087,-0.001583349,0.001578929,-0.001578922,0.001583338,-0.001354194,0.001341196,-0.00134121,0.001354169,5.26E-07,-4.73E-08,4.42E-07,1.28E-07,-0.001511153,0.001511675,-0.001580746,0.00158155,-0.001580816,0.00158144,-0.001580876,0.001581334,-0.001581022,0.001581208,-0.0013473,0.001348001,-0.001347664,0.001347726,-0.001512454,0.001513415,-0.001513054,0.001512737,7.02E-06,-6.15E-06,-0.001002267,0.001003126,2.81E-07,5.95E-07,-0.001056354,0.001061477,-0.001056199,0.001061581,-0.001060728,0.001057093,-0.001060642,0.001057175,-0.001121999,0.001109987,-0.00110898,0.001122923,0.765662577,1473840,32975,0.006277242,0.006277274,0.00417138,32.20616276,0.000172849,0.000172849,0.000172849,1496244.595,0.016866763
34732800,0.999997471,0.01673767,0.00591127,0.005911296,0.004915104,-0.001512457,0.001512297,-6.66E-06,6.48E-06,-3.45E-07,2.43E-07,-0.001584343,0.00157963,-0.001579995,0.001583956,-0.001584209,0.001579797,-0.001579782,0.001584209,-0.001355215,0.00134222,-0.001342226,0.001355201,5.14E-07,-6.95E-08,4.29E-07,1.03E-07,-0.001512141,0.001512627,-0.001581626,0.0015824,-0.001581698,0.001582286,-0.00158176,0.001582182,-0.001581908,0.001582052,-0.001348341,0.001349012,-0.00134871,0.001348723,-0.001513539,0.00151447,-0.001514143,0.001513781,7.04E-06,-6.14E-06,-0.001002829,0.001003714,2.89E-07,6.15E-07,-0.001057081,0.001062229,-0.001056923,0.001062338,-0.001061458,0.001057841,-0.001061367,0.001057928,-0.001122613,0.001110624,-0.001109586,0.00112357,0.770955798,1473840,32975,0.006281259,0.006281288,0.00417377,32.60164505,0.000176013,0.000176013,0.000176013,1494156.499,0.01687736
34819200,0.999997585,0.016737672,0.005911271,0.005911297,0.004915104,-0.001513511,0.001513369,-6.66E-06,6.50E-06,-3.37E-07,2.53E-07,-0.001585302,0.001580604,-0.001580951,0.001584933,-0.001585168,0.001580772,-0.001580738,0.001585187,-0.001356323,0.001343338,-0.001343325,0.001356328,5.17E-07,-6.89E-08,4.35E-07,1.02E-07,-0.001513202,0.001513692,-0.001582589,0.00158337,-0.001582664,0.001583254,-0.001582724,0.001583152,-0.001582874,0.001583019,-0.001349449,0.00135013,-0.001349825,0.001349833,-0.001514699,0.001515634,-0.001515306,0.001514943,7.04E-06,-6.15E-06,-0.001003468,0.001004352,2.85E-07,6.18E-07,-0.001057889,0.001063036,-0.001057729,0.001063148,-0.001062269,0.001058645,-0.001062176,0.001058735,-0.0011233,0.001111302,-0.001110264,0.001124257,0.769495675,1473840,32975,0.006285659,0.006285688,0.004176424,33.04519285,0.000179562,0.000179562,0.000179562,1491968.052,0.016889009
34905600,0.999997697,0.016737674,0.005911272,0.005911298,0.004915105,-0.001514308,0.001514144,-6.67E-06,6.49E-06,-3.47E-07,2.40E-07,-0.001586177,0.001581455,-0.001581821,0.001585785,-0.001586046,0.001581621,-0.001581609,0.001586039,-0.001357042,0.001344021,-0.001344029,0.00135702,5.30E-07,-5.37E-08,4.53E-07,1.16E-07,-0.001513976,0.001514496,-0.001583438,0.001584252,-0.001583517,0.001584135,-0.00158357,0.001584031,-0.001583725,0.001583898,-0.001350126,0.001350844,-0.001350511,0.001350548,-0.001515415,0.001516375,-0.001516026,0.001515689,7.05E-06,-6.15E-06,-0.001004045,0.001004927,2.81E-07,6.17E-07,-0.001058486,0.001063635,-0.001058324,0.001063746,-0.00106287,0.001059239,-0.001062776,0.001059329,-0.001123904,0.001111895,-0.001110855,0.00112486,0.768188822,1473840,32975,0.006288915,0.006288953,0.004178816,33.49181226,0.000183134,0.000183134,0.000183134,1494256.634,0.016898072
34992000,0.999997806,0.016737676,0.005911272,0.005911298,0.004915105,-0.001515155,0.00151498,-6.68E-06,6.49E-06,-3.51E-07,2.34E-07,-0.001587099,0.001582362,-0.001582742,0.001586696,-0.001586965,0.001582529,-0.001582529,0.00158695,-0.001357768,0.00134473,-0.00134475,0.001357736,5.20E-07,-6.21E-08,4.43E-07,1.05E-07,-0.001514825,0.001515324,-0.001584361,0.001585153,-0.001584438,0.001585034,-0.001584495,0.001584935,-0.001584647,0.001584801,-0.001350855,0.001351553,-0.001351238,0.001351254,-0.001516242,0.001517181,-0.001516847,0.001516494,7.05E-06,-6.15E-06,-0.001004637,0.001005531,2.87E-07,6.25E-07,-0.001059065,0.001064226,-0.001058904,0.00106434,-0.001063451,0.00105983,-0.001063356,0.001059921,-0.001124573,0.00111257,-0.001111518,0.001125542,0.763993318,1473840,32975,0.006292398,0.006292426,0.004181299,33.93871523,0.00018671,0.00018671,0.00018671,1496351.447,0.01690767
35078400,0.999997913,0.016737677,0.005911273,0.005911299,0.004915106,-0.001515882,0.001515733,-6.68E-06,6.51E-06,-3.39E-07,2.48E-07,-0.001587962,0.001583248,-0.001583602,0.001587586,-0.001587828,0.001583415,-0.001583389,0.001587839,-0.001358323,0.001345303,-0.001345298,0.001358319,5.20E-07,-6.36E-08,4.38E-07,1.07E-07,-0.001515566,0.001516064,-0.001585237,0.001586026,-0.001585312,0.001585909,-0.001585372,0.001585808,-0.001585521,0.001585676,-0.001351426,0.001352115,-0.001351801,0.001351821,-0.001516903,0.001517845,-0.001517508,0.001517156,7.06E-06,-6.15E-06,-0.001005243,0.00100614,2.92E-07,6.24E-07,-0.001059587,0.001064756,-0.001059428,0.001064868,-0.001063976,0.001060357,-0.001063883,0.001060446,-0.001125264,0.001113252,-0.0011122,0.001126234,0.760656244,1473840,32975,0.006295463,0.006295492,0.004183819,34.38565017,0.000190285,0.000190285,0.000190285,1500112.245,0.016916467
35164800,0.999998017,0.016737679,0.005911273,0.0059113,0.004915106,-0.001516663,0.00151653,-6.67E-06,6.52E-06,-3.32E-07,2.57E-07,-0.001588832,0.001584132,-0.00158447,0.001588472,-0.0015887,0.001584299,-0.001584255,0.001588726,-0.001358998,0.001345982,-0.001345961,0.001359008,5.35E-07,-4.95E-08,4.52E-07,1.25E-07,-0.001516341,0.001516869,-0.001586102,0.001586921,-0.001586178,0.001586806,-0.001586235,0.0015867,-0.001586386,0.001586571,-0.001352086,0.001352802,-0.001352462,0.001352517,-0.001517621,0.001518593,-0.001518229,0.001517905,7.06E-06,-6.17E-06,-0.001005889,0.001006773,2.87E-07,6.14E-07,-0.001060195,0.001065358,-0.001060036,0.001065467,-0.001064588,0.001060955,-0.001064497,0.001061041,-0.001125976,0.001113938,-0.001112898,0.001126929,0.757049577,1473840,32975,0.006298728,0.006298764,0.004186474,34.83258894,0.000193861,0.000193861,0.000193861,1503021.779,0.016925813
35251200,0.999998118,0.016737681,0.005911274,0.0059113,0.004915107,-0.001517453,0.001517315,-6.68E-06,6.52E-06,-3.32E-07,2.51E-07,-0.001589724,0.001585019,-0.001585358,0.001589362,-0.001589594,0.001585184,-0.001585146,0.001589614,-0.001359655,0.001346622,-0.001346608,0.001359657,5.37E-07,-4.27E-08,4.57E-07,1.28E-07,-0.001517125,0.001517661,-0.001586989,0.001587815,-0.001587066,0.001587699,-0.00158712,0.001587596,-0.001587272,0.001587466,-0.001352728,0.001353454,-0.001353105,0.00135317,-0.001518354,0.001519328,-0.001518958,0.001518646,7.06E-06,-6.18E-06,-0.001006538,0.001007407,2.78E-07,6.07E-07,-0.001060781,0.001065931,-0.001060621,0.00106604,-0.001065176,0.001061525,-0.001065086,0.001061611,-0.001126708,0.001114647,-0.00111362,0.001127646,0.753263712,1473840,32975,0.006301989,0.006302027,0.004189135,35.27952874,0.000197436,0.000197436,0.000197436,1506185.519,0.016935152
35337600,0.999998216,0.016737682,0.005911275,0.005911301,0.004915107,-0.001518104,0.001517983,-6.68E-06,6.54E-06,-3.25E-07,2.61E-07,-0.001590491,0.001585795,-0.00158612,0.001590142,-0.001590358,0.001585961,-0.001585906,0.001590395,-0.001360155,0.001347128,-0.001347095,0.001360175,5.24E-07,-5.77E-08,4.40E-07,1.17E-07,-0.001517797,0.001518306,-0.001587773,0.00158857,-0.001587847,0.001588457,-0.001587906,0.00158835,-0.001588055,0.001588222,-0.001353248,0.001353939,-0.001353618,0.00135366,-0.001518969,0.001519921,-0.001519575,0.001519236,7.07E-06,-6.17E-06,-0.001007069,0.001007959,2.92E-07,6.15E-07,-0.001061227,0.001066404,-0.00106107,0.001066512,-0.001065627,0.001061994,-0.001065538,0.001062079,-0.001127333,0.00111528,-0.001114235,0.001128293,0.749355331,1473840,32975,0.006304719,0.006304752,0.004191382,35.66350796,0.000200508,0.000200508,0.000200508,1509331.956,0.016942985
35424000,0.99999831,0.016737684,0.005911275,0.005911301,0.004915108,-0.001518564,0.001518426,-6.69E-06,6.53E-06,-3.34E-07,2.53E-07,-0.001591066,0.001586349,-0.001586691,0.0015907,-0.001590933,0.001586516,-0.001586478,0.001590953,-0.001360467,0.001347417,-0.0013474,0.001360472,5.29E-07,-5.45E-08,4.41E-07,1.24E-07,-0.001518244,0.001518761,-0.001588334,0.001589136,-0.001588405,0.001589025,-0.001588467,0.001588916,-0.001588614,0.001588791,-0.001353549,0.001354242,-0.001353912,0.001353966,-0.001519355,0.001520317,-0.001519961,0.001519631,7.08E-06,-6.17E-06,-0.001007447,0.001008346,2.99E-07,6.17E-07,-0.001061514,0.001066704,-0.001061359,0.00106681,-0.001065917,0.00106229,-0.001065828,0.001062374,-0.001127795,0.00111574,-0.00111469,0.001128762,0.745363827,1473840,32975,0.00630659,0.006306621,0.004192969,35.94677213,0.000202774,0.000202774,0.000202774,1512250.47,0.016948401
35510400,0.999998401,0.016737685,0.005911276,0.005911302,0.004915108,-0.001519011,0.00151885,-6.71E-06,6.52E-06,-3.45E-07,2.41E-07,-0.001591644,0.001586901,-0.001587267,0.001591256,-0.00159151,0.001587068,-0.001587056,0.001591508,-0.001360717,0.001347638,-0.001347646,0.001360701,5.17E-07,-6.53E-08,4.24E-07,1.16E-07,-0.001518691,0.001519184,-0.001588911,0.001589686,-0.001588978,0.001589578,-0.001589046,0.001589469,-0.001589187,0.001589345,-0.001353806,0.001354467,-0.001354157,0.001354195,-0.001519749,0.001520691,-0.00152035,0.001520004,7.08E-06,-6.18E-06,-0.001007828,0.001008716,2.99E-07,6.07E-07,-0.001061763,0.001066947,-0.001061612,0.00106705,-0.001066168,0.001062531,-0.001066083,0.001062612,-0.001128298,0.001116223,-0.001115189,0.00112925,0.750050211,1473840,32975,0.006308394,0.006308423,0.004194527,36.22390236,0.000204991,0.000204991,0.000204991,1515318.954,0.016953653
35596800,0.999998488,0.016737687,0.005911276,0.005911302,0.004915108,-0.001519876,0.001519699,-6.72E-06,6.52E-06,-3.59E-07,2.41E-07,-0.001592351,0.001587585,-0.001587971,0.001591943,-0.001592214,0.001587756,-0.001587753,0.001592201,-0.001361692,0.001348586,-0.001348604,0.001361664,5.23E-07,-7.36E-08,4.26E-07,1.12E-07,-0.001519549,0.00152004,-0.001589605,0.001590385,-0.001589673,0.001590275,-0.001589743,0.001590162,-0.001589888,0.001590036,-0.001354765,0.001355426,-0.001355126,0.00135515,-0.001520773,0.001521728,-0.001521392,0.001521025,7.10E-06,-6.18E-06,-0.001008269,0.001009173,3.03E-07,6.18E-07,-0.001062369,0.001067572,-0.001062215,0.001067678,-0.001066778,0.001063152,-0.001066692,0.001063235,-0.001128814,0.001116742,-0.001115689,0.001129783,0.733908145,1473840,32975,0.006311941,0.006311971,0.004196395,36.50045551,0.000207204,0.000207204,0.000207204,1511155.066,0.016962768
35683200,0.999998571,0.016737688,0.005911277,0.005911303,0.004915109,-0.001519695,0.001519514,-6.72E-06,6.52E-06,-3.56E-07,2.33E-07,-0.001592681,0.001587915,-0.001588301,0.001592272,-0.001592546,0.001588083,-0.001588089,0.001592525,-0.001360987,0.001347881,-0.001347908,0.001360952,5.14E-07,-7.12E-08,4.09E-07,1.22E-07,-0.00151937,0.001519854,-0.001589944,0.001590704,-0.001590004,0.001590603,-0.001590079,0.001590486,-0.001590214,0.001590369,-0.001354077,0.001354708,-0.001354409,0.001354457,-0.001520198,0.001521141,-0.001520803,0.001520452,7.08E-06,-6.19E-06,-0.001008572,0.001009456,3.07E-07,5.95E-07,-0.001062167,0.001067358,-0.001062023,0.001067454,-0.001066575,0.001062939,-0.001066497,0.001063013,-0.001129216,0.001117121,-0.001116098,0.001130157,0.738305009,1473840,32975,0.006311188,0.006311216,0.004197601,36.7769521,0.000209416,0.000209416,0.000209416,1524598.694,0.016962457
35769600,0.999998652,0.016737689,0.005911277,0.005911303,0.004915109,-0.001520563,0.001520398,-6.72E-06,6.53E-06,-3.54E-07,2.47E-07,-0.001593388,0.001588635,-0.001589007,0.001592992,-0.001593252,0.001588805,-0.001588788,0.001593249,-0.001361965,0.001348866,-0.001348875,0.001361945,5.38E-07,-5.84E-08,4.32E-07,1.37E-07,-0.001520229,0.00152075,-0.001590637,0.001591441,-0.001590701,0.001591339,-0.001590774,0.001591217,-0.001590914,0.001591098,-0.001355035,0.001355707,-0.001355381,0.001355454,-0.001521241,0.001522232,-0.001521861,0.001521529,7.09E-06,-6.19E-06,-0.001009019,0.001009912,3.07E-07,6.01E-07,-0.001062769,0.00106797,-0.001062621,0.001068068,-0.00106718,0.001063548,-0.001067102,0.001063625,-0.001129741,0.00111765,-0.001116613,0.00113069,0.742674567,1473840,32975,0.006314813,0.006314849,0.004199481,37.05344392,0.000211628,0.000211628,0.000211628,1519978.739,0.016971752
35856000,0.999998728,0.016737691,0.005911277,0.005911304,0.00491511,-0.001521402,0.001521248,-6.72E-06,6.54E-06,-3.53E-07,2.56E-07,-0.001594068,0.001589318,-0.001589684,0.001593678,-0.00159393,0.001589491,-0.001589461,0.001593939,-0.001362916,0.00134982,-0.001349813,0.001362909,5.35E-07,-7.11E-08,4.26E-07,1.26E-07,-0.00152108,0.001521585,-0.001591322,0.001592115,-0.001591388,0.001592011,-0.001591463,0.001591888,-0.001591605,0.001591768,-0.001355992,0.00135665,-0.001356344,0.001356393,-0.001522255,0.001523236,-0.001522884,0.001522525,7.10E-06,-6.19E-06,-0.001009457,0.001010352,3.05E-07,6.05E-07,-0.001063384,0.001068589,-0.001063233,0.001068688,-0.001067798,0.001064164,-0.001067717,0.001064242,-0.001130241,0.001118145,-0.001117103,0.001131197,0.747476431,1473840,32975,0.006318307,0.006318338,0.004201309,37.32993716,0.000213839,0.000213839,0.000213839,1516057.466,0.016980714
35942400,0.999998802,0.016737692,0.005911278,0.005911304,0.00491511,-0.001522228,0.001522074,-6.72E-06,6.55E-06,-3.56E-07,2.60E-07,-0.001594746,0.001589991,-0.001590358,0.001594354,-0.001594607,0.001590166,-0.001590134,0.001594618,-0.001363846,0.001350742,-0.001350731,0.001363843,5.37E-07,-7.44E-08,4.31E-07,1.22E-07,-0.001521905,0.001522411,-0.001591994,0.001592792,-0.001592063,0.001592686,-0.001592135,0.001592563,-0.001592281,0.00159244,-0.001356914,0.00135758,-0.001357276,0.001357315,-0.001523236,0.001524221,-0.001523872,0.001523503,7.10E-06,-6.20E-06,-0.001009901,0.001010784,2.95E-07,6.04E-07,-0.001063994,0.001069188,-0.001063841,0.001069291,-0.001068412,0.00106476,-0.001068329,0.001064841,-0.001130741,0.001118625,-0.001117594,0.001131689,0.75328017,1473840,32975,0.006321724,0.006321755,0.004203132,37.60643338,0.000216051,0.000216051,0.000216051,1512218.392,0.016989519
36028800,0.999998872,0.016737693,0.005911278,0.005911305,0.00491511,-0.001523048,0.001522892,-6.73E-06,6.55E-06,-3.61E-07,2.63E-07,-0.001595415,0.001590649,-0.001591022,0.001595018,-0.001595273,0.001590827,-0.001590795,0.001595286,-0.001364779,0.001351659,-0.001351649,0.001364779,5.36E-07,-8.44E-08,4.30E-07,1.12E-07,-0.001522731,0.001523226,-0.001592661,0.001593454,-0.001592732,0.001593345,-0.001592806,0.001593223,-0.001592954,0.001593096,-0.001357844,0.001358505,-0.001358212,0.001358229,-0.001524209,0.001525188,-0.001524853,0.001524461,7.11E-06,-6.21E-06,-0.001010316,0.001011202,2.92E-07,6.10E-07,-0.001064601,0.001069799,-0.001064444,0.001069905,-0.001069024,0.001065366,-0.001068937,0.00106545,-0.001131202,0.001119075,-0.001118039,0.001132156,0.758632562,1473840,32975,0.006325115,0.006325148,0.004204866,37.88293151,0.000218263,0.000218263,0.000218263,1508347.303,0.016998184
36115200,0.999998938,0.016737694,0.005911279,0.005911305,0.004915111,-0.001523462,0.001523296,-6.74E-06,6.55E-06,-3.64E-07,2.56E-07,-0.001595706,0.001590927,-0.001591309,0.001595302,-0.001595561,0.001591105,-0.001591086,0.001595566,-0.001365303,0.00135217,-0.001352172,0.001365294,5.24E-07,-9.23E-08,4.16E-07,1.05E-07,-0.001523149,0.001523623,-0.001592959,0.001593727,-0.001593027,0.001593618,-0.001593104,0.001593498,-0.001593247,0.001593373,-0.00135838,0.001359013,-0.001358734,0.001358738,-0.001524715,0.00152567,-0.00152535,0.001524949,7.11E-06,-6.21E-06,-0.001010412,0.001011298,2.97E-07,6.08E-07,-0.001064896,0.001070099,-0.001064744,0.001070203,-0.001069322,0.001065662,-0.001069236,0.001065744,-0.001131286,0.001119149,-0.001118115,0.001132237,0.754978791,1473840,32975,0.006326806,0.006326835,0.004205269,37.99474596,0.000219158,0.000219158,0.000219158,1504958.387,0.017002031
36201600,0.999999001,0.016737695,0.005911279,0.005911305,0.004915111,-0.00152303,0.001522856,-6.74E-06,6.55E-06,-3.64E-07,2.48E-07,-0.001595402,0.001590621,-0.001591008,0.001594994,-0.00159526,0.001590797,-0.001590788,0.001595255,-0.001364746,0.00135161,-0.001351622,0.001364726,5.20E-07,-8.74E-08,4.11E-07,1.10E-07,-0.001522713,0.001523187,-0.001592657,0.00159342,-0.001592722,0.001593314,-0.0015928,0.001593194,-0.001592939,0.001593072,-0.001357824,0.00135845,-0.001358168,0.001358185,-0.001524174,0.001525126,-0.001524801,0.001524414,7.10E-06,-6.21E-06,-0.001010051,0.001010931,2.99E-07,5.99E-07,-0.001064447,0.001069644,-0.001064299,0.001069745,-0.001068871,0.00106521,-0.001068788,0.001065289,-0.001130914,0.001118774,-0.001117752,0.001131855,0.753648614,1473840,32975,0.006325002,0.006325031,0.004203755,37.86484402,0.000218119,0.000218119,0.000218119,1506914.116,0.016996821
36288000,0.999999059,0.016737696,0.005911279,0.005911306,0.004915111,-0.0015227,0.001522519,-6.74E-06,6.54E-06,-3.64E-07,2.41E-07,-0.001595114,0.00159033,-0.001590722,0.001594701,-0.001594974,0.001590503,-0.001590503,0.001594959,-0.001364365,0.001351225,-0.001351247,0.001364336,5.18E-07,-8.32E-08,4.09E-07,1.14E-07,-0.001522379,0.001522855,-0.001592368,0.001593129,-0.001592431,0.001593025,-0.001592509,0.001592905,-0.001592646,0.001592785,-0.001357442,0.001358067,-0.00135778,0.001357808,-0.001523812,0.001524761,-0.001524432,0.001524055,7.10E-06,-6.21E-06,-0.001009719,0.001010597,3.00E-07,5.96E-07,-0.001064084,0.001069279,-0.001063937,0.001069378,-0.001068506,0.001064847,-0.001068425,0.001064924,-0.001130589,0.001118451,-0.001117432,0.001131526,0.752247353,1473840,32975,0.006323621,0.006323651,0.004202374,37.72008912,0.000216961,0.000216961,0.000216961,1506835.913,0.016992608
36374400,0.999999113,0.016737697,0.00591128,0.005911306,0.004915111,-0.001522374,0.001522187,-6.74E-06,6.53E-06,-3.64E-07,2.35E-07,-0.001594826,0.00159004,-0.001590435,0.001594409,-0.001594688,0.001590211,-0.001590219,0.001594665,-0.001363991,0.001350848,-0.001350878,0.001363954,5.17E-07,-7.78E-08,4.09E-07,1.19E-07,-0.001522048,0.001522528,-0.001592079,0.00159284,-0.00159214,0.001592737,-0.001592217,0.001592618,-0.001592353,0.0015925,-0.001357065,0.001357692,-0.001357399,0.001357438,-0.001523457,0.001524406,-0.001524072,0.001523706,7.10E-06,-6.21E-06,-0.001009392,0.001010273,3.04E-07,5.95E-07,-0.001063723,0.001068921,-0.001063578,0.001069019,-0.001068143,0.00106449,-0.001068064,0.001064566,-0.001130273,0.001118141,-0.00111712,0.001131212,0.750633204,1473840,32975,0.00632226,0.006322289,0.004201023,37.57393592,0.000215791,0.000215791,0.000215791,1506702.489,0.016988464
36460800,0.999999164,0.016737698,0.00591128,0.005911306,0.004915112,-0.001522047,0.001521851,-6.74E-06,6.53E-06,-3.66E-07,2.27E-07,-0.00159454,0.001589747,-0.001590151,0.001594114,-0.001594404,0.001589916,-0.001589936,0.001594369,-0.001363614,0.001350463,-0.001350505,0.001363564,5.16E-07,-7.37E-08,4.09E-07,1.21E-07,-0.001521714,0.001522198,-0.001591789,0.001592551,-0.00159185,0.001592449,-0.001591926,0.001592331,-0.001592061,0.001592213,-0.001356683,0.001357312,-0.001357015,0.00135706,-0.001523099,0.001524046,-0.001523708,0.001523352,7.10E-06,-6.21E-06,-0.00100907,0.001009953,3.06E-07,5.95E-07,-0.001063361,0.00106856,-0.001063217,0.001068657,-0.00106778,0.001064131,-0.001067701,0.001064206,-0.001129964,0.001117838,-0.001116816,0.001130903,0.748863679,1473840,32975,0.006320886,0.006320915,0.00419969,37.4276416,0.000214621,0.000214621,0.000214621,1506665.387,0.016984313
36547200,0.999999211,0.016737699,0.00591128,0.005911306,0.004915112,-0.001521723,0.001521507,-6.75E-06,6.51E-06,-3.73E-07,2.14E-07,-0.001594258,0.00158945,-0.001589871,0.001593815,-0.001594124,0.001589617,-0.001589658,0.001594068,-0.001363236,0.00135007,-0.001350133,0.001363165,5.14E-07,-7.02E-08,4.09E-07,1.23E-07,-0.001521379,0.001521864,-0.0015915,0.001592261,-0.00159156,0.001592159,-0.001591635,0.001592042,-0.001591769,0.001591926,-0.001356297,0.001356927,-0.001356627,0.001356677,-0.001522739,0.001523683,-0.001523343,0.001522994,7.09E-06,-6.20E-06,-0.001008753,0.001009635,3.07E-07,5.93E-07,-0.001063,0.001068196,-0.001062856,0.001068293,-0.001067416,0.00106377,-0.001067338,0.001063844,-0.00112966,0.00111754,-0.001116519,0.001130599,0.737514132,1473840,32975,0.006319503,0.006319532,0.004198371,37.28133398,0.000213451,0.000213451,0.000213451,1506704.792,0.016980159
36633600,0.999999256,0.016737699,0.005911281,0.005911307,0.004915112,-0.001520953,0.001520727,-6.75E-06,6.50E-06,-3.73E-07,2.04E-07,-0.001593792,0.001588979,-0.001589406,0.001593343,-0.001593658,0.001589144,-0.001589199,0.001593591,-0.001362199,0.001349033,-0.00134911,0.001362116,5.10E-07,-6.42E-08,4.01E-07,1.32E-07,-0.001520603,0.00152109,-0.001591035,0.00159179,-0.001591091,0.001591692,-0.001591168,0.001591574,-0.001591295,0.001591463,-0.001355267,0.001355886,-0.001355575,0.001355649,-0.001521686,0.001522624,-0.001522276,0.001521947,7.10E-06,-6.19E-06,-0.001008369,0.001009265,3.23E-07,5.94E-07,-0.001062324,0.001067537,-0.001062188,0.001067629,-0.001066739,0.001063113,-0.001066664,0.001063181,-0.001129267,0.001117164,-0.001116134,0.001130216,0.733611414,1473840,32975,0.006316297,0.006316325,0.0041968,37.13502367,0.00021228,0.00021228,0.00021228,1514297.941,0.016972036
36720000,0.999999297,0.0167377,0.005911281,0.005911307,0.004915112,-0.001520527,0.001520326,-6.74E-06,6.52E-06,-3.55E-07,2.13E-07,-0.001593498,0.001588716,-0.001589115,0.001593077,-0.00159337,0.001588877,-0.001588909,0.001593324,-0.001361596,0.001348452,-0.001348506,0.001361534,5.07E-07,-5.74E-08,3.98E-07,1.40E-07,-0.001520188,0.001520679,-0.001590758,0.001591509,-0.001590809,0.001591417,-0.001590886,0.001591297,-0.001591012,0.00159119,-0.001354675,0.001355291,-0.001354978,0.001355068,-0.001521215,0.001522155,-0.0015218,0.001521485,7.08E-06,-6.20E-06,-0.001008077,0.00100895,3.16E-07,5.75E-07,-0.001061849,0.001067042,-0.001061714,0.001067129,-0.001066261,0.001062619,-0.001066193,0.001062684,-0.001129061,0.001116934,-0.001115932,0.001129981,0.737807724,1473840,32975,0.006314587,0.006314616,0.004195537,36.98871281,0.00021111,0.00021111,0.00021111,1515976.663,0.016967275
36806400,0.999999336,0.016737701,0.005911281,0.005911307,0.004915112,-0.001520525,0.001520331,-6.73E-06,6.52E-06,-3.54E-07,2.17E-07,-0.001593323,0.001588547,-0.001588941,0.001592908,-0.001593194,0.001588709,-0.001588734,0.001593155,-0.001361739,0.001348606,-0.001348652,0.001361686,5.08E-07,-5.94E-08,4.01E-07,1.36E-07,-0.00152019,0.00152068,-0.001590585,0.001591338,-0.001590638,0.001591244,-0.001590715,0.001591126,-0.001590842,0.001591016,-0.001354822,0.001355442,-0.001355131,0.001355213,-0.001521373,0.001522313,-0.00152196,0.00152164,7.08E-06,-6.20E-06,-0.001007833,0.001008705,3.13E-07,5.78E-07,-0.001061766,0.001066955,-0.001061629,0.001067044,-0.001066177,0.001062533,-0.001066106,0.0010626,-0.001128831,0.001116709,-0.001115706,0.001129753,0.727645338,1473840,32975,0.006314591,0.00631462,0.004194529,36.8424023,0.000209939,0.000209939,0.000209939,1510557.986,0.016966258
36892800,0.999999373,0.016737701,0.005911281,0.005911307,0.004915113,-0.001520029,0.001519797,-6.75E-06,6.50E-06,-3.65E-07,1.90E-07,-0.001593147,0.001588339,-0.001588767,0.001592698,-0.001593023,0.001588496,-0.001588565,0.00159294,-0.001360921,0.001347748,-0.001347838,0.001360823,5.03E-07,-4.91E-08,3.94E-07,1.48E-07,-0.001519673,0.001520168,-0.001590396,0.001591143,-0.001590443,0.001591055,-0.00159052,0.001590936,-0.001590642,0.001590832,-0.001353987,0.0013546,-0.001354278,0.001354388,-0.001520611,0.001521547,-0.001521183,0.001520889,7.08E-06,-6.20E-06,-0.001007673,0.001008542,3.20E-07,5.67E-07,-0.001061263,0.001066453,-0.001061132,0.001066536,-0.001065673,0.001062033,-0.001065608,0.001062094,-0.001128729,0.001116602,-0.001115608,0.001129641,0.731998809,1473840,32975,0.006312462,0.006312491,0.004193851,36.81452077,0.000209716,0.000209716,0.000209716,1518242.615,0.016961236
36979200,0.999999408,0.016737702,0.005911281,0.005911308,0.004915113,-0.001520588,0.001520385,-6.73E-06,6.51E-06,-3.55E-07,2.11E-07,-0.001593541,0.001588761,-0.001589161,0.001593118,-0.001593416,0.00158892,-0.001588954,0.001593364,-0.001361593,0.001348449,-0.001348505,0.001361528,5.06E-07,-5.70E-08,3.96E-07,1.41E-07,-0.001520248,0.001520739,-0.001590802,0.001591551,-0.001590852,0.001591461,-0.001590929,0.00159134,-0.001591055,0.001591233,-0.001354672,0.001355285,-0.001354976,0.001355068,-0.001521364,0.001522304,-0.00152195,0.001521635,7.08E-06,-6.20E-06,-0.001007884,0.001008753,3.16E-07,5.71E-07,-0.001061621,0.00106681,-0.001061486,0.001066896,-0.00106603,0.00106239,-0.001065964,0.001062454,-0.001129,0.001116874,-0.001115876,0.001129915,0.736677334,1473840,32975,0.006314834,0.006314864,0.004194732,36.94633234,0.000210771,0.000210771,0.000210771,1513407.865,0.01696696
37065600,0.999999441,0.016737702,0.005911282,0.005911308,0.004915113,-0.001521154,0.001520973,-6.72E-06,6.52E-06,-3.47E-07,2.24E-07,-0.001593942,0.001589181,-0.00158956,0.001593539,-0.001593816,0.001589342,-0.001589352,0.001593788,-0.001362282,0.001349157,-0.001349188,0.00136224,5.12E-07,-5.53E-08,4.05E-07,1.42E-07,-0.001520821,0.00152132,-0.001591205,0.001591967,-0.001591258,0.001591875,-0.001591333,0.001591754,-0.001591462,0.001591645,-0.001355361,0.001355991,-0.001355675,0.001355766,-0.001522103,0.001523053,-0.001522694,0.001522378,7.08E-06,-6.20E-06,-0.00100811,0.001008975,3.09E-07,5.72E-07,-0.001062018,0.001067201,-0.00106188,0.001067289,-0.001066429,0.00106278,-0.00106636,0.001062846,-0.001129269,0.001117137,-0.001116142,0.001130183,0.741791408,1473840,32975,0.006317222,0.006317251,0.004195666,37.08794833,0.000211904,0.000211904,0.000211904,1508877.252,0.016972766
37152000,0.999999473,0.016737703,0.005911282,0.005911308,0.004915113,-0.001521714,0.001521538,-6.73E-06,6.53E-06,-3.46E-07,2.29E-07,-0.001594342,0.001589582,-0.001589958,0.001593944,-0.001594215,0.001589744,-0.001589748,0.001594195,-0.001362966,0.001349837,-0.001349863,0.001362932,5.10E-07,-6.15E-08,4.05E-07,1.33E-07,-0.001521388,0.001521879,-0.00159161,0.001592367,-0.001591664,0.001592272,-0.001591739,0.001592154,-0.00159187,0.001592041,-0.001356046,0.001356675,-0.001356366,0.001356439,-0.001522826,0.00152377,-0.001523422,0.00152309,7.08E-06,-6.21E-06,-0.001008331,0.001009193,3.04E-07,5.76E-07,-0.001062413,0.001067594,-0.001062272,0.001067685,-0.001066827,0.001063169,-0.001066755,0.001063238,-0.001129527,0.001117385,-0.00111639,0.001130441,0.748061399,1473840,32975,0.006319551,0.006319582,0.004196583,37.23048697,0.000213044,0.000213044,0.000213044,1504513.483,0.01697844
37238400,0.999999503,0.016737703,0.005911282,0.005911308,0.004915113,-0.001522267,0.001522098,-6.73E-06,6.54E-06,-3.45E-07,2.34E-07,-0.001594718,0.001589959,-0.00159033,0.001594325,-0.001594587,0.001590123,-0.00159012,0.001594575,-0.001363676,0.001350552,-0.001350571,0.001363651,5.11E-07,-6.47E-08,4.07E-07,1.28E-07,-0.001521946,0.001522433,-0.001591986,0.001592744,-0.001592043,0.001592645,-0.001592118,0.001592529,-0.00159225,0.001592414,-0.001356759,0.001357389,-0.001357082,0.001357145,-0.001523524,0.001524465,-0.00152412,0.001523784,7.09E-06,-6.21E-06,-0.001008521,0.001009396,3.07E-07,5.86E-07,-0.001062832,0.001068025,-0.001062691,0.001068119,-0.001067249,0.001063597,-0.001067174,0.001063669,-0.001129716,0.001117583,-0.001116572,0.001130646,0.756191734,1473840,32975,0.006321852,0.006321881,0.004197403,37.373121,0.000214185,0.000214185,0.000214185,1500008.357,0.016983952
37324800,0.999999531,0.016737704,0.005911282,0.005911308,0.004915113,-0.00152282,0.001522648,-6.73E-06,6.54E-06,-3.49E-07,2.35E-07,-0.001595115,0.00159035,-0.001590726,0.001594717,-0.001594983,0.001590516,-0.001590514,0.00159497,-0.001364349,0.001351218,-0.001351238,0.001364322,5.18E-07,-6.26E-08,4.18E-07,1.25E-07,-0.001522493,0.00152299,-0.001592373,0.001593146,-0.001592434,0.001593043,-0.001592506,0.00159293,-0.001592643,0.00159281,-0.001357417,0.001358068,-0.001357756,0.001357811,-0.001524217,0.001525169,-0.001524821,0.001524481,7.09E-06,-6.21E-06,-0.00100868,0.001009555,3.00E-07,5.93E-07,-0.001063205,0.001068395,-0.001063058,0.001068493,-0.001067623,0.001063966,-0.001067544,0.001064042,-0.001129886,0.001117753,-0.001116738,0.00113082,0.751458036,1473840,32975,0.006324133,0.006324165,0.004198071,37.51575526,0.000215326,0.000215326,0.000215326,1495137.81,0.016989277
37411200,0.999999559,0.016737704,0.005911282,0.005911308,0.004915113,-0.001522872,0.001522684,-6.74E-06,6.53E-06,-3.53E-07,2.24E-07,-0.001595324,0.001590545,-0.001590935,0.001594913,-0.001595193,0.001590709,-0.001590725,0.001595163,-0.001364252,0.001351105,-0.001351142,0.001364207,5.11E-07,-6.31E-08,4.11E-07,1.25E-07,-0.001522541,0.00152303,-0.00159258,0.001593342,-0.00159264,0.00159324,-0.001592712,0.001593127,-0.001592846,0.00159301,-0.001357318,0.001357957,-0.001357649,0.001357706,-0.00152413,0.001525068,-0.001524724,0.001524389,7.10E-06,-6.21E-06,-0.001008727,0.001009605,3.05E-07,5.92E-07,-0.001063166,0.001068361,-0.001063022,0.001068458,-0.001067585,0.001063932,-0.001067507,0.001064006,-0.001129927,0.001117795,-0.001116778,0.001130862,0.743046228,1473840,32975,0.006324316,0.006324345,0.004198268,37.65839117,0.000216467,0.000216467,0.000216467,1498870.121,0.016989845
37497600,0.999999584,0.016737705,0.005911282,0.005911309,0.004915114,-0.001522808,0.001522618,-6.74E-06,6.53E-06,-3.51E-07,2.18E-07,-0.001595487,0.001590708,-0.001591097,0.001595076,-0.001595358,0.001590869,-0.00159089,0.001595322,-0.001363984,0.001350832,-0.001350875,0.001363932,5.12E-07,-5.37E-08,4.12E-07,1.34E-07,-0.001522471,0.00152297,-0.001592742,0.001593508,-0.001592801,0.001593409,-0.001592871,0.001593295,-0.001593003,0.001593182,-0.001357044,0.001357688,-0.001357366,0.001357446,-0.001523864,0.001524805,-0.001524449,0.001524136,7.10E-06,-6.21E-06,-0.001008813,0.001009694,3.10E-07,5.89E-07,-0.00106307,0.001068271,-0.001062929,0.001068364,-0.001067489,0.001063841,-0.001067413,0.001063912,-0.001130021,0.001117889,-0.001116871,0.001130957,0.738706387,1473840,32975,0.006324048,0.006324079,0.004198627,37.80102945,0.000217608,0.000217608,0.000217608,1504907.772,0.016989666
37584000,0.999999609,0.016737705,0.005911283,0.005911309,0.004915114,-0.001522938,0.001522755,-6.74E-06,6.54E-06,-3.45E-07,2.20E-07,-0.001595749,0.001590978,-0.001591359,0.001595347,-0.001595622,0.001591139,-0.001591153,0.001595592,-0.001363961,0.001350812,-0.001350849,0.001363916,5.09E-07,-5.29E-08,4.09E-07,1.36E-07,-0.001522606,0.001523103,-0.001593011,0.001593773,-0.001593068,0.001593676,-0.001593138,0.001593561,-0.001593269,0.001593449,-0.001357025,0.001357663,-0.001357342,0.001357427,-0.00152392,0.001524857,-0.001524502,0.001524191,7.10E-06,-6.21E-06,-0.001008961,0.001009841,3.12E-07,5.85E-07,-0.001063089,0.001068291,-0.00106295,0.001068383,-0.001067509,0.00106386,-0.001067435,0.001063929,-0.001130228,0.00111809,-0.001117076,0.00113116,0.734748829,1473840,32975,0.006324601,0.006324634,0.004199237,37.94366811,0.000218749,0.000218749,0.000218749,1507881.839,0.016991411
37670400,0.999999632,0.016737705,0.005911283,0.005911309,0.004915114,-0.001522883,0.001522692,-6.74E-06,6.53E-06,-3.48E-07,2.14E-07,-0.001595808,0.001591029,-0.001591416,0.001595398,-0.001595681,0.001591188,-0.001591213,0.001595641,-0.001363779,0.00135062,-0.001350667,0.001363723,5.08E-07,-5.05E-08,4.07E-07,1.39E-07,-0.001522546,0.001523044,-0.001593065,0.001593825,-0.00159312,0.001593729,-0.001593192,0.001593615,-0.00159332,0.001593504,-0.001356839,0.001357475,-0.001357151,0.001357242,-0.001523787,0.001524723,-0.001524365,0.001524062,7.10E-06,-6.21E-06,-0.001008945,0.001009822,3.13E-07,5.82E-07,-0.001062965,0.001068166,-0.001062828,0.001068257,-0.001067385,0.001063736,-0.001067312,0.001063803,-0.001130256,0.001118115,-0.001117104,0.001131185,0.730673269,1473840,32975,0.00632436,0.006324389,0.004199162,37.97934012,0.000219035,0.000219035,0.000219035,1510228.838,0.01699084
37756800,0.999999653,0.016737706,0.005911283,0.005911309,0.004915114,-0.001522555,0.001522361,-6.74E-06,6.53E-06,-3.48E-07,2.11E-07,-0.001595594,0.001590815,-0.001591205,0.001595182,-0.001595467,0.001590973,-0.001591003,0.001595424,-0.00136332,0.001350166,-0.001350217,0.001363262,5.04E-07,-5.11E-08,4.01E-07,1.39E-07,-0.001522218,0.001522712,-0.001592855,0.001593607,-0.001592907,0.001593513,-0.001592981,0.001593399,-0.001593107,0.00159329,-0.00135639,0.001357015,-0.001356694,0.001356787,-0.001523379,0.001524311,-0.001523954,0.001523652,7.09E-06,-6.21E-06,-0.001008714,0.001009591,3.16E-07,5.79E-07,-0.001062614,0.001067813,-0.00106248,0.001067902,-0.001067031,0.001063385,-0.00106696,0.001063452,-0.001130058,0.001117922,-0.001116915,0.001130984,0.726510219,1473840,32975,0.006322995,0.006323024,0.004198202,37.88229497,0.000218258,0.000218258,0.000218258,1512287.667,0.016987086
37843200,0.999999674,0.016737706,0.005911283,0.005911309,0.004915114,-0.001522201,0.001522007,-6.74E-06,6.52E-06,-3.45E-07,2.08E-07,-0.001595358,0.001590583,-0.001590972,0.001594949,-0.001595234,0.001590739,-0.001590771,0.001595189,-0.001362832,0.00134968,-0.001349734,0.001362773,5.01E-07,-4.92E-08,3.98E-07,1.41E-07,-0.001521865,0.001522357,-0.001592624,0.001593371,-0.001592675,0.001593279,-0.001592748,0.001593165,-0.001592873,0.001593057,-0.001355906,0.001356527,-0.001356206,0.001356303,-0.001522947,0.001523874,-0.001523517,0.001523219,7.09E-06,-6.21E-06,-0.001008476,0.00100935,3.17E-07,5.76E-07,-0.001062239,0.001067436,-0.001062105,0.001067523,-0.001066655,0.001063009,-0.001066585,0.001063074,-0.00112986,0.001117724,-0.001116721,0.001130782,0.72344189,1473840,32975,0.00632153,0.006321559,0.004197208,37.77705701,0.000217416,0.000217416,0.000217416,1514419.968,0.016983094
37929600,0.999999693,0.016737706,0.005911283,0.005911309,0.004915114,-0.001521904,0.001521704,-6.74E-06,6.52E-06,-3.46E-07,2.03E-07,-0.001595153,0.001590376,-0.001590768,0.001594739,-0.001595032,0.00159053,-0.001590569,0.001594979,-0.001362411,0.001349255,-0.001349315,0.001362344,5.03E-07,-4.26E-08,4.02E-07,1.46E-07,-0.001521561,0.001522062,-0.001592414,0.001593168,-0.001592464,0.001593077,-0.001592536,0.001592963,-0.00159266,0.001592856,-0.001355477,0.001356108,-0.001355778,0.001355887,-0.001522601,0.001523533,-0.001523166,0.001522882,7.09E-06,-6.20E-06,-0.001008247,0.001009118,3.16E-07,5.73E-07,-0.001061889,0.001067083,-0.001061755,0.001067169,-0.001066303,0.001062658,-0.001066235,0.001062722,-0.00112969,0.001117554,-0.001116555,0.001130607,0.728230844,1473840,32975,0.00632029,0.006320319,0.004196248,37.67104682,0.000216568,0.000216568,0.000216568,1515652.385,0.016979597
38016000,0.99999971,0.016737707,0.005911283,0.005911309,0.004915114,-0.001522019,0.001521824,-6.73E-06,6.52E-06,-3.46E-07,2.10E-07,-0.00159509,0.001590317,-0.001590706,0.001594679,-0.001594968,0.001590473,-0.001590504,0.001594922,-0.001362657,0.001349509,-0.001349561,0.001362598,5.03E-07,-4.92E-08,4.03E-07,1.38E-07,-0.00152168,0.001522175,-0.001592353,0.001593105,-0.001592405,0.001593012,-0.001592477,0.001592899,-0.001592604,0.001592788,-0.001355728,0.001356358,-0.001356038,0.001356128,-0.001522904,0.001523835,-0.001523477,0.001523176,7.09E-06,-6.20E-06,-0.001008068,0.001008947,3.16E-07,5.81E-07,-0.001061861,0.00106706,-0.001061724,0.001067149,-0.001066274,0.001062637,-0.001066204,0.001062704,-0.001129548,0.001117425,-0.001116415,0.001130476,0.729793815,1473840,32975,0.006320773,0.006320801,0.004195527,37.56495854,0.00021572,0.00021572,0.00021572,1509770.563,0.016979845
38102400,0.999999727,0.016737707,0.005911283,0.005911309,0.004915114,-0.001521938,0.001521739,-6.73E-06,6.52E-06,-3.49E-07,2.09E-07,-0.001594922,0.001590145,-0.001590539,0.001594506,-0.001594798,0.001590303,-0.001590336,0.00159475,-0.001362658,0.001349513,-0.001349568,0.001362596,5.04E-07,-5.06E-08,4.05E-07,1.36E-07,-0.001521598,0.001522093,-0.001592183,0.001592938,-0.001592237,0.001592842,-0.001592308,0.001592729,-0.001592437,0.001592618,-0.001355728,0.001356362,-0.001356042,0.001356128,-0.001522884,0.001523814,-0.001523459,0.001523154,7.08E-06,-6.20E-06,-0.00100786,0.001008734,3.11E-07,5.80E-07,-0.001061755,0.001066944,-0.001061617,0.001067035,-0.001066167,0.001062522,-0.001066095,0.00106259,-0.001129329,0.001117206,-0.0011162,0.001130253,0.730199382,1473840,32975,0.00632043,0.006320459,0.004194656,37.45886225,0.000214871,0.000214871,0.000214871,1507098.984,0.016978264
38188800,0.999999742,0.016737707,0.005911283,0.005911309,0.004915114,-0.001521788,0.001521588,-6.73E-06,6.51E-06,-3.51E-07,2.08E-07,-0.001594748,0.00158997,-0.001590367,0.00159433,-0.001594623,0.001590128,-0.001590164,0.001594573,-0.001362517,0.001349376,-0.001349433,0.001362453,5.04E-07,-5.14E-08,4.05E-07,1.34E-07,-0.001521449,0.001521942,-0.001592008,0.001592763,-0.001592063,0.001592666,-0.001592133,0.001592554,-0.001592263,0.001592442,-0.001355589,0.001356223,-0.001355904,0.001355987,-0.001522767,0.001523695,-0.001523342,0.001523035,7.08E-06,-6.20E-06,-0.001007639,0.001008505,3.07E-07,5.78E-07,-0.001061555,0.001066735,-0.001061416,0.001066827,-0.001065965,0.001062315,-0.001065892,0.001062384,-0.001129119,0.001116995,-0.001115995,0.001130037,0.730551886,1473840,32975,0.006319807,0.006319836,0.004193724,37.35276514,0.000214022,0.000214022,0.000214022,1505563.644,0.016976048
38275200,0.999999757,0.016737707,0.005911283,0.00591131,0.004915114,-0.001521631,0.001521431,-6.73E-06,6.51E-06,-3.50E-07,2.08E-07,-0.001594569,0.001589794,-0.001590189,0.001594152,-0.001594444,0.001589952,-0.001589986,0.001594395,-0.001362366,0.001349229,-0.001349286,0.001362303,5.03E-07,-5.20E-08,4.06E-07,1.33E-07,-0.001521292,0.001521784,-0.001591831,0.001592585,-0.001591886,0.001592488,-0.001591956,0.001592376,-0.001592086,0.001592264,-0.00135544,0.001356074,-0.001355757,0.001355837,-0.001522639,0.001523566,-0.001523214,0.001522905,7.08E-06,-6.20E-06,-0.001007411,0.001008279,3.06E-07,5.79E-07,-0.001061347,0.001066526,-0.001061207,0.001066618,-0.001065756,0.001062107,-0.001065682,0.001062176,-0.001128902,0.001116784,-0.001115782,0.001129822,0.730970983,1473840,32975,0.006319157,0.006319186,0.004192781,37.24666792,0.000213173,0.000213173,0.000213173,1504117.34,0.016973769
38361600,0.999999771,0.016737708,0.005911283,0.00591131,0.004915114,-0.001521586,0.001521389,-6.73E-06,6.51E-06,-3.49E-07,2.10E-07,-0.001594503,0.001589731,-0.001590124,0.001594088,-0.001594378,0.001589889,-0.001589921,0.001594332,-0.001362325,0.001349193,-0.001349246,0.001362264,5.03E-07,-5.30E-08,4.06E-07,1.31E-07,-0.001521249,0.00152174,-0.001591767,0.00159252,-0.001591822,0.001592422,-0.001591892,0.001592311,-0.001592022,0.001592198,-0.001355401,0.001356035,-0.00135572,0.001355796,-0.001522626,0.001523552,-0.001523202,0.00152289,7.07E-06,-6.20E-06,-0.001007275,0.001008143,3.05E-07,5.81E-07,-0.00106123,0.001066408,-0.00106109,0.001066501,-0.001065638,0.00106199,-0.001065564,0.00106206,-0.001128783,0.001116668,-0.001115666,0.001129703,0.735755879,1473840,32975,0.006318975,0.006319003,0.00419222,37.19714176,0.000212777,0.000212777,0.000212777,1502831.356,0.016972826
38448000,0.999999784,0.016737708,0.005911284,0.00591131,0.004915115,-0.001521845,0.001521637,-6.73E-06,6.51E-06,-3.56E-07,2.06E-07,-0.001594607,0.001589822,-0.001590227,0.00159418,-0.001594481,0.001589982,-0.001590023,0.001594425,-0.00136271,0.001349567,-0.001349629,0.001362639,5.06E-07,-5.35E-08,4.11E-07,1.29E-07,-0.001521501,0.001521994,-0.001591861,0.001592621,-0.00159192,0.001592521,-0.001591988,0.001592411,-0.001592121,0.001592295,-0.001355775,0.001356419,-0.001356102,0.001356173,-0.001523021,0.00152395,-0.0015236,0.001523285,7.08E-06,-6.19E-06,-0.001007252,0.001008128,3.06E-07,5.89E-07,-0.001061367,0.001066552,-0.001061224,0.001066647,-0.001065776,0.001062133,-0.001065699,0.001062206,-0.001128776,0.001116672,-0.001115658,0.001129709,0.74362259,1473840,32975,0.006320023,0.006320052,0.004192146,37.19394595,0.000212752,0.000212752,0.000212752,1498274.811,0.016974884
38534400,0.999999796,0.016737708,0.005911284,0.00591131,0.004915115,-0.001522155,0.00152199,-6.71E-06,6.53E-06,-3.41E-07,2.34E-07,-0.001594712,0.001589966,-0.001590331,0.001594325,-0.001594582,0.001590129,-0.001590123,0.001594573,-0.001363199,0.001350098,-0.001350114,0.001363175,5.10E-07,-6.11E-08,4.14E-07,1.23E-07,-0.001521835,0.001522324,-0.001591984,0.001592747,-0.001592045,0.001592644,-0.001592115,0.001592533,-0.001592251,0.001592415,-0.001356285,0.00135693,-0.00135662,0.001356675,-0.001523528,0.001524463,-0.001524119,0.001523786,7.08E-06,-6.19E-06,-0.001007231,0.001008111,3.03E-07,5.95E-07,-0.001061578,0.001066764,-0.001061432,0.001066862,-0.001065988,0.001062344,-0.001065908,0.001062419,-0.001128757,0.001116653,-0.001115633,0.001129695,0.745870148,1473840,32975,0.006321394,0.006321423,0.004192072,37.19364255,0.000212749,0.000212749,0.000212749,1492228.159,0.016977601
38620800,0.999999807,0.016737708,0.005911284,0.00591131,0.004915115,-0.001522201,0.001522018,-6.72E-06,6.52E-06,-3.50E-07,2.25E-07,-0.001594738,0.001589974,-0.001590358,0.001594332,-0.001594608,0.001590137,-0.001590149,0.001594581,-0.001363256,0.00135014,-0.001350173,0.001363214,5.10E-07,-6.13E-08,4.11E-07,1.26E-07,-0.001521871,0.001522361,-0.001592002,0.001592763,-0.001592061,0.001592662,-0.001592132,0.001592549,-0.001592267,0.001592432,-0.001356337,0.001356977,-0.001356667,0.001356727,-0.001523579,0.001524515,-0.00152417,0.001523839,7.08E-06,-6.19E-06,-0.001007113,0.001007991,3.05E-07,5.91E-07,-0.001061532,0.001066718,-0.001061388,0.001066814,-0.001065941,0.001062298,-0.001065864,0.001062372,-0.001128626,0.001116521,-0.001115505,0.001129561,0.747804146,1473840,32975,0.006321546,0.006321575,0.004191581,37.1936119,0.000212749,0.000212749,0.000212749,1490794.307,0.016977411
38707200,0.999999818,0.016737708,0.005911284,0.00591131,0.004915115,-0.001522234,0.00152205,-6.72E-06,6.52E-06,-3.50E-07,2.25E-07,-0.001594758,0.001589993,-0.001590378,0.001594352,-0.001594628,0.001590157,-0.001590169,0.001594601,-0.00136329,0.001350173,-0.001350207,0.001363248,5.11E-07,-6.13E-08,4.12E-07,1.25E-07,-0.001521904,0.001522394,-0.001592021,0.001592784,-0.001592081,0.001592682,-0.001592152,0.00159257,-0.001592287,0.001592452,-0.00135637,0.001357012,-0.001356702,0.00135676,-0.001523625,0.001524562,-0.001524217,0.001523885,7.08E-06,-6.20E-06,-0.001007003,0.001007878,3.02E-07,5.91E-07,-0.001061481,0.001066664,-0.001061337,0.001066761,-0.001065891,0.001062244,-0.001065812,0.001062318,-0.001128513,0.001116406,-0.001115391,0.001129445,0.749484504,1473840,32975,0.006321681,0.00632171,0.00419112,37.19360876,0.000212749,0.000212749,0.000212749,1489493.521,0.016977217
38793600,0.999999829,0.016737708,0.005911284,0.00591131,0.004915115,-0.001522265,0.00152208,-6.72E-06,6.52E-06,-3.51E-07,2.25E-07,-0.001594777,0.001590011,-0.001590397,0.001594369,-0.001594647,0.001590175,-0.001590188,0.001594619,-0.001363325,0.001350207,-0.001350242,0.001363282,5.11E-07,-6.16E-08,4.13E-07,1.24E-07,-0.001521935,0.001522425,-0.001592039,0.001592802,-0.0015921,0.0015927,-0.00159217,0.001592588,-0.001592305,0.00159247,-0.001356404,0.001357047,-0.001356737,0.001356793,-0.001523667,0.001524604,-0.001524259,0.001523926,7.08E-06,-6.20E-06,-0.001006895,0.00100777,3.01E-07,5.92E-07,-0.001061432,0.001066613,-0.001061286,0.001066711,-0.001065841,0.001062193,-0.001065762,0.001062269,-0.0011284,0.001116294,-0.001115279,0.001129333,0.750956871,1473840,32975,0.006321807,0.006321836,0.004190673,37.19360844,0.000212749,0.000212749,0.000212749,1488302.327,0.016977019
38880000,0.999999838,0.016737709,0.005911284,0.00591131,0.004915115,-0.001522293,0.001522109,-6.72E-06,6.52E-06,-3.51E-07,2.25E-07,-0.001594796,0.00159003,-0.001590416,0.001594388,-0.001594665,0.001590193,-0.001590207,0.001594637,-0.001363355,0.001350238,-0.001350272,0.001363312,5.11E-07,-6.18E-08,4.14E-07,1.23E-07,-0.001521963,0.001522453,-0.001592057,0.001592821,-0.001592118,0.001592718,-0.001592188,0.001592607,-0.001592324,0.001592488,-0.001356433,0.001357078,-0.001356768,0.001356822,-0.001523705,0.001524642,-0.001524297,0.001523963,7.09E-06,-6.19E-06,-0.001006784,0.001007672,3.07E-07,5.98E-07,-0.001061375,0.001066568,-0.00106123,0.001066666,-0.001065785,0.001062149,-0.001065705,0.001062224,-0.001128287,0.001116194,-0.001115166,0.001129232,0.752257681,1473840,32975,0.006321923,0.006321953,0.004190241,37.1936084,0.000212749,0.000212749,0.000212749,1487195.252,0.016976816