time,stress_xx,stress_xy,stress_xz,stress_yy,stress_yz,stress_zz
0,0,0,0,0,0,0
1,-3.4106051316485e-13,-7.6102652491771e-14,-7.6102652491771e-14,-7.105427357601e-14,-1.1988774022676e-13,-1000
