time,stress_xx,stress_xy,stress_xz,stress_yy,stress_yz,stress_zz
0,0,0,0,0,0,0
1,1.477928890381e-12,-2.0850041778567e-15,-2.0850041778567e-15,1.2505552149378e-12,3.7530075201421e-14,10000
