time,axial_stress,deformation_x,deformation_y,node1_dx,node1_dy,node1_fx,node1_fx2,node1_fy,react_x,react_x2,react_y,react_y2,strain_xx,stress_xx
0,0,0,0,0,0,0,0,0,0,0,0,0,0,0
1,47450.38093279,0.00080004745038093,-4.9527997390471e-10,4.6524399000211e-08,-5.7441994171806e-11,0.43338321376041,13028.059546252,4.2789048601961e-09,-10422.804881813,10422.804881553,4.242795205144e-07,4.242795205144e-07,0.0009994988237708,521173.25776804
