time,ASR_ext,ASR_strain,ASR_strain_xx,ASR_strain_yy,ASR_strain_zz,disp_x_101,disp_x_102,disp_x_103,disp_x_104,disp_x_105,disp_x_106,disp_x_p1_neg,disp_x_p1_pos,disp_x_p2_neg,disp_x_p2_pos,disp_x_p3_neg,disp_x_p3_pos,disp_x_p4_neg,disp_x_p4_pos,disp_x_p5_neg,disp_x_p5_pos,disp_x_p6_neg,disp_x_p6_pos,disp_y_101,disp_y_102,disp_y_103,disp_y_104,disp_y_105,disp_y_106,disp_y_p1_neg,disp_y_p1_pos,disp_y_p2_neg,disp_y_p2_pos,disp_y_p3_neg,disp_y_p3_pos,disp_y_p4_neg,disp_y_p4_pos,disp_y_p5_neg,disp_y_p5_pos,disp_y_p6_neg,disp_y_p6_pos,disp_y_p7_neg,disp_y_p7_pos,disp_y_p8_neg,disp_y_p8_pos,disp_z_101,disp_z_102,disp_z_103,disp_z_104,disp_z_105,disp_z_106,disp_z_p1_neg,disp_z_p1_pos,disp_z_p2_neg,disp_z_p2_pos,disp_z_p3_neg,disp_z_p3_pos,disp_z_p4_neg,disp_z_p4_pos,disp_z_p5_neg,disp_z_p5_pos,disp_z_p6_neg,disp_z_p6_pos,humidity,ndof,nelem,strain_xx,strain_yy,strain_zz,temp,thermal_strain_xx,thermal_strain_yy,thermal_strain_zz,vonmises,vstrain
2419200,0,0,0,0,0,0,0,0,0,0,0,0,0,0,0,0,0,0,0,0,0,0,0,0,0,0,0,0,0,0,0,0,0,0,0,0,0,0,0,0,0,0,0,0,0,0,0,0,0,0,0,0,0,0,0,0,0,0,0,0,0,0,0,0,0,0,0,0,0,0,0,0,0,0,0
2919200,0.076550566963269,0.0015624721553631,0.00052082405178769,0.00052082405178769,0.00052082405178769,-0.00015657739950483,0.00015655520715806,-8.4839170893822e-09,-8.4839169690018e-09,-6.8978656540858e-09,-1.0006366356987e-08,-0.00015830290545448,0.00015828514080414,-0.00015830467039263,0.00015828690574161,-0.00015830395360391,0.00015828408766754,-0.00015830568772919,0.0001582858217927,-0.00015926819647532,0.000159249315691,-0.00015926903015619,0.00015925014937366,-9.4209755501491e-10,1.9705796973488e-09,-1.1006625761168e-09,2.0874145383305e-09,-0.00017282689337273,0.00017282788393673,-0.00017277585625498,0.00017277463031143,-0.00017277654857279,0.00017277762282307,-0.0001727766411101,0.00017277752688178,-0.00017277733342764,0.00017278051939337,-0.00017166321997506,0.00017166211924509,-0.00017166127175671,0.00017166634798153,-0.00017166303367107,0.00017166230911487,-0.00017166133695527,0.00017166628049658,-8.5050772840169e-09,-8.5050773288858e-09,-0.00015657742076016,0.00015655518590278,-6.7998776967349e-09,-1.0150951007823e-08,-0.000158302868281,0.00015828515619901,-0.00015830403181782,0.00015828403078173,-0.00015830463616753,0.0001582869240857,-0.00015830576344439,0.00015828576240884,-0.00015926909574078,0.00015925008736592,-0.00015926826800621,0.00015924925963255,0.8161771008302,122718,2924,0.00065214706416046,0.00071985332078069,0.00065214706416058,32.427600930116,0.00017462080744093,0.00017462080744093,0.00017462080744093,1574118.8066657,0.0020261994901738
3419200,0.15557639117989,0.0030866946721138,0.0010016159491796,0.0010834627737549,0.0010016159491794,-0.00025958912884544,0.0002595698848362,-7.6501294387611e-09,-7.6501821063026e-09,-7.0937043641642e-09,-8.4451100317149e-09,-0.00026865796937701,0.00026864142013874,-0.00026866011227418,0.00026864356283842,-0.00026865842725109,0.00026864097009663,-0.00026866054911879,0.00026864309176523,-0.00026320065353334,0.00026318422371585,-0.00026320196810677,0.00026318553809449,-4.3590153724255e-10,7.1118499872764e-10,-4.4762881201176e-10,6.9289037611581e-10,-0.00031353090766014,0.0003135311577268,-0.00031750670504218,0.00031750614647219,-0.00031750929681715,0.00031750953880844,-0.00031750930120632,0.0003175095383936,-0.00031751189325479,0.00031751293098213,-0.00030597320366574,0.00030597276800561,-0.00030597501595206,0.00030597677096191,-0.00030597319632742,0.00030597277326459,-0.00030597499933858,0.00030597678885261,-7.6407473491238e-09,-7.6408001638902e-09,-0.00025958911917436,0.00025956989450725,-7.0981108239911e-09,-8.4210030632708e-09,-0.00026865795482855,0.00026864142331489,-0.00026865842262374,0.000268640986521,-0.00026866009785524,0.00026864356614473,-0.00026866054393585,0.00026864310763526,-0.00026320195436975,0.00026318555227022,-0.00026320064124567,0.00026318423934217,0.78776539485346,122718,2924,0.0010810051991516,0.001305516261785,0.0010810051991515,31.91087842127,0.00017048702737016,0.00017048702737016,0.00017048702737016,2704165.5145511,0.0034735531476594
3919200,0.24220639405861,0.0046949202334393,0.0014691927918555,0.0017565346497283,0.0014691927918556,-0.00036133454904374,0.00036132708125286,-2.701284131181e-09,-2.7012203429536e-09,-5.0337054144874e-09,7.543462465635e-11,-0.00038051793546731,0.00038051021298532,-0.00038051907152686,0.00038051134882162,-0.0003805163017559,0.00038051192923076,-0.00038051742440388,0.0003805130516525,-0.00036456349155629,0.00036455912713161,-0.00036456422272741,0.00036455985819003,1.5046579593204e-09,-3.6773477546827e-09,2.4698802958377e-09,-4.5658021364818e-09,-0.00048289710700857,0.00048289500278359,-0.00049959190787113,0.00049959384956857,-0.0004995955060524,0.00049959280585008,-0.00049959490395069,0.00049959343514344,-0.00049959850240712,0.00049959239168721,-0.00045879742134722,0.00045880054404189,-0.00045880480047818,0.00045879408052154,-0.00045879864302774,0.00045879929081381,-0.00045880425257137,0.00045879464979065,-2.5517163387237e-09,-2.5516528065485e-09,-0.00036133439834541,0.00036132723195131,-5.7577300140798e-09,1.1336496665283e-09,-0.00038051811729404,0.00038051007422085,-0.00038051583087354,0.00038051236179815,-0.00038051924399952,0.00038051120070296,-0.0003805169581278,0.00038051348882771,-0.00036456376846351,0.00036456030610923,-0.0003645630244429,0.00036455956220329,0.77553103466242,122718,2924,0.0015044537873582,0.002010009564318,0.0015044537873585,32.496913947645,0.00017517531158116,0.00017517531158116,0.00017517531158116,3737161.6584451,0.0050315516620219
4419200,0.33708647389805,0.0064273534094957,0.0019457097149717,0.002535933979552,0.001945709714972,-0.00046505014244991,0.00046504731599424,-6.037298530005e-10,-6.0366707434088e-10,-3.6004290455378e-09,2.0721686921983e-09,-0.00049608725065,0.00049608406858076,-0.00049608765062131,0.00049608446835091,-0.00049608539892824,0.00049608597954364,-0.0004960857952948,0.00049608637570546,-0.00046742416958316,0.00046742456945154,-0.00046742442018351,0.00046742481998482,1.0253587708169e-09,-4.6214351307114e-09,2.1103529785769e-09,-5.579431489639e-09,-0.00067971403388056,0.00067971054673622,-0.00071678298913481,0.00071678393783832,-0.00071678611917623,0.00071678198096252,-0.00071678542804039,0.00071678267776063,-0.00071678855835323,0.00071678072113707,-0.00063110052262769,0.00063110275286536,-0.00063110943116994,0.00063109653584698,-0.00063110191673551,0.0006311013326835,-0.00063110884160088,0.00063109714370428,-4.8844919884829e-10,-4.8838695901944e-10,-0.00046505002678431,0.00046504743166007,-4.425657012275e-09,3.168889213766e-09,-0.00049608747736774,0.00049608387313334,-0.00049608495604334,0.00049608639789204,-0.00049608786845772,0.00049608426402208,-0.00049608535455757,0.00049608679620301,-0.00046742397775397,0.00046742525525813,-0.00046742371193451,0.00046742498950796,0.77667599478971,122718,2924,0.001935951116175,0.0028280445270781,0.0019359511161755,33.599134641743,0.00018399307713394,0.00018399307713394,0.00018399307713394,4594471.7621696,0.0067224827409097
4919200,0.44024422022074,0.0082903592862819,0.0024319358508762,0.0034264875845289,0.0024319358508767,-0.0005702081545757,0.00057020747944237,2.6951003369759e-10,2.6956531195493e-10,-2.7411143435617e-09,3.0075625281175e-09,-0.0006160145617293,0.00061601356660875,-0.00061601464587981,0.00061601365051676,-0.00061601266316879,0.00061601550030675,-0.00061601274832458,0.00061601558521815,-0.00057032888797607,0.00057033115807263,-0.00057032918828606,0.000570331458313,1.1827364704774e-09,-4.5001966484638e-09,2.4320501522432e-09,-5.6160188978012e-09,-0.00090610894429201,0.00090610574688274,-0.00097044894461167,0.00097045032200586,-0.00097045167274009,0.00097044773280609,-0.0009704508794618,0.00097044853438768,-0.00097045360781752,0.00097044594539848,-0.00082552109175324,0.00082552395168174,-0.00082553011272224,0.00082551713065531,-0.00082552271299546,0.00082552231019401,-0.00082552941846036,0.00082551783916731,3.7088962501588e-10,3.7094434491868e-10,-0.0005702080546632,0.00057020757935527,-3.7380085548751e-09,4.2463966022271e-09,-0.00061601484797376,0.00061601330092017,-0.00061601219334553,0.00061601595379766,-0.0006160149254274,0.00061601337813157,-0.00061601228097524,0.0006160160411841,-0.00057032870992896,0.00057033193198939,-0.00057032839341442,0.00057033161554697,0.77771912672621,122718,2924,0.0023733346320449,0.0037681684911219,0.0023733346320458,35.344330600128,0.00019795464480103,0.00019795464480103,0.00019795464480103,5195103.7329002,0.008551276109278
5419200,0.54095946115114,0.010073504690391,0.0028755230779402,0.0043224585345097,0.0028755230779411,-0.00066173055532974,0.00066173232767104,1.2925218049564e-09,1.2925720114919e-09,-2.1357775814628e-09,4.153057812964e-09,-0.00072380852174484,0.00072380971916261,-0.00072380836300822,0.00072380956023868,-0.00072380643087017,0.00072381183190454,-0.00072380627450292,0.00072381167534727,-0.00065793874031945,0.00065794331024797,-0.00065793920020426,0.00065794377005464,1.0519598933768e-09,-5.1411150662579e-09,2.3948024795163e-09,-6.3427949728792e-09,-0.001133434322413,0.0011334303617426,-0.0012289925318634,0.0012289935511434,-0.0012289953188756,0.0012289905587,-0.0012289944614457,0.0012289914214045,-0.0012289972486838,0.0012289884291699,-0.0010168423006484,0.0010168449038274,-0.001016852359258,0.0010168377664381,-0.0010168440480034,0.0010168431329061,-0.001016851611464,0.0010168385304806,1.3984091714972e-09,1.3984590874388e-09,-0.00066173045036125,0.00066173243264008,-3.2079574371612e-09,5.4829720518094e-09,-0.00072380882534969,0.00072380942929977,-0.0007238059366625,0.00072381231927497,-0.00072380865866579,0.00072380926242915,-0.00072380578133847,0.0007238121637622,-0.00065793868839756,0.00065794427575788,-0.00065793821199111,0.00065794379943119,0.76998245962453,122718,2924,0.0027539582891879,0.0047112431166591,0.0027539582891891,36.273327672686,0.00020538662138149,0.00020538662138149,0.00020538662138149,5560108.2435002,0.010271699790591
5919200,0.6323500788963,0.011578955570814,0.0032334568974012,0.0051120417760105,0.0032334568974023,-0.00073063107686671,0.00073063519655999,2.1968030170177e-09,2.1968390736153e-09,-1.3958982676926e-09,5.3711753792497e-09,-0.00080956407542335,0.0008095673401972,-0.00080956376166199,0.00080956702621073,-0.00080956181738383,0.000809569612086,-0.00080956150906931,0.00080956930354452,-0.00071990499504974,0.00071991165151851,-0.00071990559027787,0.00071991224666791,1.2459084931155e-09,-5.3887751227367e-09,2.6975342028876e-09,-6.689327686925e-09,-0.0013348029052495,0.0013347989021327,-0.0014652637997786,0.0014652651615725,-0.001465266409986,0.0014652615438398,-0.0014652654816965,0.0014652624756663,-0.0014652680921156,0.0014652588581284,-0.0011785616986678,0.001178564743788,-0.0011785719978122,0.0011785565750609,-0.0011785635890136,0.0011785628316099,-0.0011785711871642,0.0011785574006393,2.29893744094e-09,2.2989733961044e-09,-0.00073063097654827,0.00073063529687908,-2.5706045804417e-09,6.7967868822877e-09,-0.00080956441481615,0.00080956701081861,-0.000809561297448,0.00080957012774154,-0.00080956409422693,0.00080956669000497,-0.0008095609902284,0.0008095698202962,-0.00071990505013342,0.00071991278245937,-0.00071990443739884,0.00071991216980509,0.72322607321219,122718,2924,0.0030405389863923,0.0055458898416606,0.0030405389863937,36.77929656352,0.00020943437250816,0.00020943437250816,0.00020943437250816,5713698.6098914,0.011695035277107
6419200,0.70978908221871,0.012820401073523,0.0035246727772783,0.0057710555189647,0.0035246727772796,-0.00078193572150452,0.00078194191659361,3.0099086545993e-09,3.0099430358854e-09,-8.8561119745972e-10,6.4480574651823e-09,-0.00087482218629663,0.00087482728186641,-0.00087482170061792,0.00087482679596633,-0.00087481973537024,0.00087482974398201,-0.00087481925742047,0.00087482926580896,-0.0007651610493572,0.00076516965405336,-0.00076516175096912,0.00076517035558314,1.3066249255054e-09,-5.8587859685809e-09,2.8621527150227e-09,-7.2538094075136e-09,-0.0015020800932998,0.0015020756905182,-0.0016667852367271,0.0016667866336448,-0.0016667877909696,0.0016667824632577,-0.001666786796452,0.0016667834631029,-0.0016667893509056,0.0016667792929103,-0.0013082991677006,0.0013083023500429,-0.0013083102314256,0.0013082935145178,-0.0013083011933176,0.0013083002994802,-0.0013083093621492,0.0013082944007567,3.1228304379403e-09,3.1228645298528e-09,-0.00078193561042397,0.00078194202767486,-2.1408717121035e-09,7.9807674752221e-09,-0.00087482254690856,0.00087482693100139,-0.00087481917514693,0.00087483030113508,-0.00087482205380645,0.00087482643767853,-0.00087481869794518,0.00087482982371113,-0.0007651611683698,0.00076517093353494,-0.00076516044836341,0.0007651702136125,0.70960752451304,122718,2924,0.0032539840607688,0.0062387166728463,0.0032539840607703,36.741504284239,0.00020913203427391,0.00020913203427391,0.00020913203427391,5801367.312203,0.012828545940994
6919200,0.77957835444376,0.013977345318161,0.0038005462461579,0.0063762528258436,0.0038005462461593,-0.00083115251470021,0.00083115635536248,2.1136173736846e-09,2.1136482856212e-09,-1.6290559253071e-09,5.380822753382e-09,-0.00093745875847529,0.00093746205160121,-0.00093745845805744,0.00093746175095896,-0.00093745641259728,0.00093746440334458,-0.0009374561164223,0.00093746410694335,-0.00081063621805318,0.00081064285897868,-0.00081063707575901,0.00081064371660085,1.1564006161079e-09,-5.6980514195581e-09,2.7658887145866e-09,-7.1496245797591e-09,-0.0016633968235063,0.0016633924296625,-0.0018580605264639,0.0018580617377352,-0.0018580630982949,0.0018580577440367,-0.0018580620665143,0.0018580587808052,-0.0018580646385526,0.0018580547872974,-0.0014370125466645,0.0014370156551052,-0.0014370235667932,0.0014370071545466,-0.0014370146473973,0.0014370135280057,-0.0014370226601621,0.001437008079052,2.2286765895446e-09,2.2287083832194e-09,-0.00083115240161883,0.0008311564684446,-2.9357957691898e-09,6.9721904820588e-09,-0.00093745913170146,0.0009374616826336,-0.00093745583727677,0.00093746498153507,-0.00093745882431166,0.00093746137502079,-0.0009374555409459,0.00093746468497977,-0.00081063647354741,0.00081064431502887,-0.00081063559836753,0.00081064343993219,0.73388447168252,122718,2924,0.003458752501202,0.0069063682597946,0.0034587525012036,38.625168652859,0.00022420134922287,0.00022420134922287,0.00022420134922287,5691283.3441354,0.013920219472402
7419200,0.83974364260236,0.014911178104634,0.0040211974885788,0.0068687831274751,0.0040211974885803,-0.00086563898229775,0.00086564202189768,1.7754174781688e-09,1.7754469165215e-09,-1.8048928778626e-09,4.8490898275755e-09,-0.00098722485425619,0.00098722754453457,-0.00098722462536998,0.00098722731542198,-0.00098722262274173,0.00098722977578536,-0.0009872223967533,0.00098722954956875,-0.00083980899669986,0.00083981483770925,-0.00083980992399699,0.00083981576492311,1.0460995415535e-09,-5.4599126797684e-09,2.660045946187e-09,-6.920678160621e-09,-0.001800835542406,0.0018008312729825,-0.0020220057755373,0.0020220068807916,-0.0020220083645168,0.0020220031300695,-0.0020220073271863,0.0020220041708651,-0.0020220099163693,0.0020220004203298,-0.0015446184307012,0.0015446214529128,-0.0015446292595371,0.0015446134139279,-0.0015446205409941,0.0015446193166971,-0.0015446283455289,0.0015446143454637,1.8865283842352e-09,1.8865587399452e-09,-0.0008656388733146,0.0008656421308816,-3.1235913236645e-09,6.4450028634606e-09,-0.00098722523125282,0.00098722716727947,-0.00098722205227122,0.00098723035368714,-0.00098722499604486,0.00098722693184656,-0.00098722182543252,0.00098723012662207,-0.00083980932369818,0.00083981636215729,-0.00083980837993614,0.00083981541847801,0.68603447332084,122718,2924,0.0036023532592998,0.0074747877983407,0.0036023532593015,40.76400974298,0.00024131207794384,0.00024131207794384,0.00024131207794384,5370613.1572513,0.014788217910722
7919200,0.88494757724809,0.015594421564009,0.0041849630021245,0.0072244955597587,0.004184963002126,-0.00088421290251666,0.00088421969549466,3.1869443353985e-09,3.1869729576137e-09,-6.7819728903468e-10,6.5700481425391e-09,-0.0010155592878612,0.0010155650537475,-0.0010155587865301,0.0010155645521885,-0.0010155568556452,0.001015567485715,-0.0010155563612852,0.0010155669911253,-0.00085439028835428,0.00085439934907837,-0.00085439127907969,0.00085440033972013,1.2238768942245e-09,-5.836882998231e-09,2.8789302290694e-09,-7.330749071295e-09,-0.001895758025188,0.001895753564604,-0.0021400740511499,0.0021400753953227,-0.0021400765580389,0.0021400711099865,-0.0021400754953267,0.0021400721764085,-0.0021400780024169,0.0021400678912568,-0.0016144780877471,0.0016144813408852,-0.0016144894412176,0.0016144726030385,-0.001614480248705,0.0016144791532447,-0.0016144885077395,0.00161447355447,3.3009527213146e-09,3.3009814103969e-09,-0.00088421279078139,0.00088421980723071,-2.0267921463618e-09,8.2032923185295e-09,-0.0010155596760116,0.0010155646677243,-0.0010155562694038,0.0010155680770982,-0.0010155591680734,0.0010155641595591,-0.0010155557743834,0.0010155675818493,-0.00085439066420355,0.00085440095132501,-0.00085438965599369,0.00085439994319995,0.66517729787509,122718,2924,0.0036798104851732,0.0078672135178744,0.0036798104851749,40.956193966614,0.00024284955173291,0.00024284955173291,0.00024284955173291,5160311.1186314,0.015343866236446
8419200,0.91861043442746,0.016096605228001,0.0043081642800704,0.0074802766678589,0.0043081642800719,-0.00089570953835142,0.00089571613535546,3.1117765070145e-09,3.1118048387467e-09,-8.6014405804423e-10,6.617973356045e-09,-0.0010357495152582,0.0010357550833747,-0.0010357490428527,0.0010357546107403,-0.0010357470091457,0.0010357575914059,-0.001035746542582,0.0010357571246116,-0.000862790517601,0.00086279950171172,-0.00086279156572734,0.00086280054975474,1.2893323237825e-09,-5.9985499373582e-09,3.0127765356861e-09,-7.5571361087381e-09,-0.0019679731563485,0.0019679686033211,-0.0022292332317065,0.0022292346743389,-0.0022292358409122,0.002229230257866,-0.0022292347348246,0.0022292313693645,-0.0022292373442298,0.0022292269530744,-0.0016681912702899,0.0016681947117214,-0.0016682029836466,0.0016681856229253,-0.001668193519123,0.0016681924337871,-0.0016682020097624,0.0016681866164149,3.2320245156417e-09,3.2320521499964e-09,-0.00089570942045251,0.00089571625325516,-2.2655267551833e-09,8.323529554007e-09,-0.0010357499200549,0.0010357546814587,-0.0010357463953297,0.0010357582099975,-0.0010357494407518,0.001035754201927,-0.0010357459280094,0.0010357577424472,-0.000862790923005,0.00086280118929021,-0.00086278985695262,0.0008628001233238,0.65392243653906,122718,2924,0.0037278291895753,0.0081656265669071,0.0037278291895771,41.432570266943,0.00024666056213554,0.00024666056213554,0.00024666056213554,4882491.9659999,0.015744508620365
8919200,0.94315426001309,0.016449454732491,0.0043961906357372,0.0076570734610156,0.0043961906357387,-0.00090149079364902,0.00090149763053172,3.1999790547225e-09,3.200006947796e-09,-8.3890032058465e-10,6.7858591844246e-09,-0.0010488484604036,0.0010488542132851,-0.0010488479806194,0.0010488537332711,-0.0010488459059906,0.0010488567701675,-0.0010488454317666,0.0010488562957119,-0.00086596734924297,0.00086597657586934,-0.00086596843822459,0.00086597766476723,1.3307155803172e-09,-6.098438019787e-09,3.114223133621e-09,-7.7149329185657e-09,-0.0020202752807961,0.0020202706715524,-0.0022940219190289,0.0022940234399534,-0.0022940245773335,0.0022940189001356,-0.0022940234330672,0.0022940200514428,-0.00229402609157,0.0022940155118068,-0.0017067913841298,0.001706794977096,-0.0017068033414088,0.0017067856224473,-0.001706793710319,0.0017067926195197,-0.001706802331119,0.0017067866539383,3.3255962011938e-09,3.3256235927716e-09,-0.0009014906704386,0.00090149775374293,-2.2951504435529e-09,8.5557627967184e-09,-0.0010488488798992,0.0010488537969848,-0.0010488452681001,0.0010488574128947,-0.0010488483929853,0.0010488533098415,-0.0010488447929757,0.0010488569375396,-0.00086596777092899,0.00086597832897451,-0.00086596666378387,0.00086597722191536,0.62734198052454,122718,2924,0.0037520672394774,0.0083816755972322,0.0037520672394791,41.891585234247,0.00025033268187398,0.00025033268187398,0.00025033268187398,4604018.3404696,0.016013287407306
9419200,0.95995523714508,0.016687717952668,0.0044569111340371,0.0077738956845922,0.0044569111340386,-0.00090165673257166,0.00090166645244303,4.2937047896355e-09,4.2937316742447e-09,-5.018146795935e-11,8.226973139559e-09,-0.0010532875739091,0.0010532956783723,-0.0010532868853799,0.0010532949896124,-0.001053284802209,0.0010532984556455,-0.0010532841220179,0.001053297775222,-0.00086445157943838,0.00086446335409002,-0.0008644527447099,0.0008644645192758,1.5095710078772e-09,-6.5367980885407e-09,3.3816655804378e-09,-8.2328740422316e-09,-0.0020525491109033,0.0020525442507943,-0.0023359829876466,0.0023359847503459,-0.002335985622649,0.0023359796415299,-0.0023359844237135,0.0023359808501613,-0.0023359870589134,0.0023359757415262,-0.0017287517629613,0.0017287556632474,-0.0017287643737016,0.0017287454284904,-0.0017287542004054,0.0017287531911472,-0.0017287633148295,0.0017287465108253,4.4285482425308e-09,4.4285759441703e-09,-0.00090165660021223,0.00090166658480325,-1.5749734715827e-09,1.0087734123505e-08,-0.0010532880144981,0.0010532952445693,-0.0010532841266868,0.0010532991329402,-0.0010532873180959,0.0010532945479378,-0.0010532834458113,0.001053298451834,-0.00086445204108668,0.00086446521950161,-0.00086445085640028,0.0008644640349006,0.61541999989934,122718,2924,0.0037529308611569,0.0085149853131894,0.0037529308611587,41.150847613325,0.0002444067809066,0.0002444067809066,0.0002444067809066,4414933.1886212,0.016150527602685
9919200,0.97125655815362,0.016847775740591,0.0044984767839871,0.0078508221726158,0.0044984767839886,-0.00089921448287935,0.00089922579908599,4.9052182821636e-09,4.9052456782153e-09,2.4858376981698e-10,9.1871566593174e-09,-0.0010544339361632,0.0010544432599107,-0.0010544331389604,0.0010544424624773,-0.0010544309484813,0.0010544462591078,-0.0010544301601388,0.001054445470533,-0.00086077757849645,0.00086079087228499,-0.00086077880370597,0.00086079209740993,1.6995228747428e-09,-6.9879022739116e-09,3.6982515448951e-09,-8.8014965072645e-09,-0.002073920396068,0.0020739152834543,-0.0023634917097823,0.0023634937372455,-0.0023634944658866,0.0023634881542607,-0.0023634931880946,0.0023634894457438,-0.0023634959443957,0.0023634838629393,-0.001743495281106,0.0017434995823316,-0.001743508685783,0.0017434884066133,-0.0017434978789057,0.0017434969450719,-0.00174350755437,0.0017434895648609,5.0527242341456e-09,5.052751152212e-09,-0.00089921433790839,0.00089922594405774,-1.3783596197068e-09,1.1180762158565e-08,-0.0010544344075272,0.0010544427994491,-0.0010544302193139,0.0010544469867268,-0.0010544336014729,0.0010544419931647,-0.0010544294304708,0.0010544461976522,-0.00086077804773259,0.0008607928497369,-0.00086077680182875,0.00086079160391988,0.61191532179739,122718,2924,0.0037429241882527,0.0086032292088906,0.0037429241882545,39.827521762635,0.00023382017410108,0.00023382017410108,0.00023382017410108,4247798.09548,0.016219890562282
10419200,0.97885103751917,0.016957310545534,0.0045274168865888,0.0079024767723552,0.0045274168865903,-0.00089532439962063,0.00089533683235749,5.3314747617969e-09,5.3315021176221e-09,5.03855553737e-10,9.8116741037382e-09,-0.0010534703108184,0.0010534805139812,-0.0010534694387348,0.001053479641664,-0.0010534672016899,0.0010534836372952,-0.0010534663389678,0.0010534827743376,-0.0008560828744275,0.00085609719725748,-0.00085608414895927,0.00085609847170849,1.8080092287356e-09,-7.2348563381639e-09,3.88996581045e-09,-9.1269498229479e-09,-0.0020877713534019,0.0020877661068408,-0.0023811449134513,0.0023811471045581,-0.0023811477183892,0.00238114122085,-0.0023811463883802,0.0023811425670414,-0.0023811491935146,0.002381136683513,-0.0017531541386269,0.0017531586932753,-0.0017531679976921,0.0017531469592383,-0.0017531568423267,0.0017531559470492,-0.0017531668174595,0.0017531481684776,5.486434636289e-09,5.4864615929108e-09,-0.00089532424722873,0.00089533698475114,-1.1923770444057e-09,1.1892877452228e-08,-0.0010534708031469,0.0010534800346241,-0.0010534664381943,0.0010534843976885,-0.0010534699216623,0.0010534791529107,-0.0010534655750055,0.0010534835342691,-0.00085608335915946,0.00085609925779639,-0.0008560820633002,0.00085609796202536,0.62047456213406,122718,2924,0.0037268749619813,0.008660397768429,0.0037268749619851,38.099198332262,0.00021999358665809,0.00021999358665809,0.00021999358665809,4109725.889493,0.01624539079798
10919200,0.98442026036901,0.017034917867987,0.0045480162180315,0.0079388854319225,0.0045480162180331,-0.0008943235389939,0.00089433247466636,4.0101237500879e-09,4.0101512186787e-09,-7.439115181259e-10,8.3843286470445e-09,-0.0010554110760578,0.0010554182526675,-0.0010554104732898,0.0010554176496679,-0.0010554080345795,0.0010554213116752,-0.001055407435929,0.0010554207127916,-0.00085436254549438,0.00085437399223286,-0.00085436375393973,0.00085437520059511,1.7748674114307e-09,-7.1273074019454e-09,3.9218602372148e-09,-9.0866846239633e-09,-0.0021007184244218,0.0021007132501319,-0.0023962730177288,0.0023962751916597,-0.00239627614314,0.0023962696740472,-0.0023962747709521,0.0023962710644168,-0.0023962778965594,0.0023962655469842,-0.0017635244251487,0.001763529103846,-0.0017635383968103,0.0017635174837895,-0.0017635272141685,0.0017635262697593,-0.0017635371733938,0.0017635187380563,4.1700567046154e-09,4.1700836192569e-09,-0.00089432338162338,0.00089433263203757,-2.500701548696e-09,1.0538693286628e-08,-0.0010554115853511,0.0010554177555829,-0.0010554072452594,0.0010554220990949,-0.0010554109730184,0.0010554171430199,-0.0010554066458668,0.0010554214994705,-0.00085436293715164,0.00085437601401978,-0.00085436170768405,0.00085437478463896,0.59839955032364,122718,2924,0.0037227913530839,0.0087138175737787,0.0037227913530856,37.946160434702,0.00021876928347761,0.00021876928347761,0.00021876928347761,3968336.3820331,0.016291402905743
11419200,0.98847816847919,0.017091339258912,0.0045631419026178,0.0079650554536751,0.0045631419026194,-0.00089264642131873,0.00089265574131386,4.1510383300163e-09,4.1510655410828e-09,-5.3873983432375e-10,8.4626337874056e-09,-0.0010541250975586,0.0010541326634245,-0.0010541244652387,0.0010541320308735,-0.0010541220949814,0.0010541356810127,-0.0010541214673116,0.00105413505311,-0.00085248345138693,0.00085249516165198,-0.00085248467379499,0.00085249638397551,1.7209998571651e-09,-7.0488606532044e-09,3.9435865422558e-09,-9.0854203849378e-09,-0.0021074169676366,0.0021074118165769,-0.002406193634575,0.0024061958002649,-0.0024061967243535,0.0024061902287311,-0.0024061953041761,0.0024061916701676,-0.0024061983941506,0.0024061860988132,-0.0017669596019581,0.0017669643660782,-0.0017669735771332,0.0017669527106884,-0.0017669624895311,0.0017669614297139,-0.0017669723040828,0.0017669540172512,4.3208147425241e-09,4.3208415832216e-09,-0.00089264625416675,0.00089265590846664,-2.3596472843952e-09,1.0704823641524e-08,-0.0010541256221208,0.0010541321503684,-0.0010541212727061,0.0010541365027181,-0.0010541249799002,0.0010541315079173,-0.0010541206440026,0.0010541358737828,-0.000852483822167,0.00085249723245742,-0.00085248257881318,0.00085249598919026,0.5952960997629,122718,2924,0.0037158738501572,0.0087414961824768,0.003715873850159,37.628393467585,0.00021622714774068,0.00021622714774068,0.00021622714774068,3909283.7739614,0.016305473772798
11919200,0.99141908698565,0.017133121858205,0.0045744621673719,0.0079841975234594,0.0045744621673734,-0.00089078302555402,0.00089079287154353,4.3498377165943e-09,4.3498649425448e-09,-3.4683620881469e-10,8.6772227463308e-09,-0.0010535535135487,0.0010535615392635,-0.0010535528446917,0.0010535608701753,-0.0010535505018523,0.0010535645650493,-0.0010535498382594,0.0010535639012232,-0.00085026955880922,0.00085028170035628,-0.00085027080288395,0.00085028294434663,1.7273507675609e-09,-7.0592474603652e-09,3.979613888351e-09,-9.1255276408652e-09,-0.0021134129057499,0.0021134077506748,-0.0024136851894377,0.002413687387528,-0.0024136882513965,0.0024136817323555,-0.0024136868121903,0.0024136831936476,-0.002413689874344,0.0024136775386531,-0.0017712946053403,0.0017712994327574,-0.001771308633391,0.0017712876826985,-0.0017712975313908,0.0017712964568353,-0.0017713073413373,0.0017712890090599,4.5218337588749e-09,4.5218606117264e-09,-0.00089078285620291,0.00089079304089599,-2.1944652123e-09,1.0951738680474e-08,-0.0010535540458429,0.0010535610184057,-0.0010535496679672,0.001053565398625,-0.0010535533669899,0.0010535603393219,-0.0010535490032468,0.001053564733673,-0.00085026993927022,0.00085028380489095,-0.00085026867426058,0.00085028253996725,0.60696177519136,122718,2924,0.0037081824481043,0.0087662374980726,0.0037081824481073,37.104865423206,0.00021203892338564,0.00021203892338564,0.00021203892338564,3832834.6858394,0.016314995939913
12419200,0.99358424782786,0.017164210241695,0.0045829440327784,0.0079983221761364,0.00458294403278,-0.00088940451760302,0.00088941388834199,4.1701471396413e-09,4.1701743925251e-09,-5.0317647064061e-10,8.4727456148492e-09,-0.0010540750934281,0.0010540827091789,-0.0010540744640708,0.0010540820795923,-0.0010540720983973,0.0010540857182083,-0.0010540714735823,0.0010540850931601,-0.00084856334403921,0.00084857508586589,-0.0008485645841804,0.00084857632592287,1.7238212833254e-09,-7.0204083876957e-09,4.0003876534326e-09,-9.1120273091734e-09,-0.0021192259224322,0.0021192208016957,-0.0024198267671579,0.0024198289822957,-0.0024198298756597,0.0024198233743352,-0.0024198284203756,0.0024198248520888,-0.0024198315290742,0.0024198192443078,-0.0017765187625615,0.001776523647306,-0.0017765328106683,0.0017765119010075,-0.001776521720584,0.0017765206388334,-0.0017765315021836,0.0017765132442504,4.3422633770624e-09,4.3422904157263e-09,-0.00088940434811078,0.0008894140578358,-2.3756987128586e-09,1.0772956192762e-08,-0.0010540756337549,0.0010540821799009,-0.001054071256351,0.0010540865604417,-0.0010540749944052,0.0010540815403202,-0.0010540706302979,0.0010540859341555,-0.00084856371211124,0.00084857719503329,-0.00084856245124187,0.00084857593424918,0.61229629812265,122718,2924,0.0037025005085038,0.0087901980270584,0.0037025005085073,36.802336001331,0.00020961868801065,0.00020961868801065,0.00020961868801065,3743083.1895294,0.016327813952224
12919200,0.99515944538748,0.017186134521975,0.0045889301933637,0.0080082741352462,0.0045889301933653,-0.00088702056037875,0.00088703079790165,4.4976224128899e-09,4.4976496901738e-09,-2.0597098152385e-10,8.8463890379461e-09,-0.0010529417510137,0.0010529501015872,-0.0010529410607536,0.0010529494110952,-0.001052938728894,0.0010529531370571,-0.0010529380441652,0.0010529524520952,-0.00084606885415553,0.00084608131984793,-0.00084607012207999,0.00084608258768799,1.747581422293e-09,-7.0638668391287e-09,4.0462888074779e-09,-9.1769689504861e-09,-0.002122251075765,0.002122245935978,-0.0024233718461082,0.0024233741099193,-0.0024233749071848,0.0024233683726037,-0.0024233734377645,0.0024233698649865,-0.0024233764990368,0.0024233641278499,-0.0017788230034419,0.0017788279526635,-0.0017788371226563,0.0017788160631854,-0.0017788259898299,0.0017788249151365,-0.001778835800578,0.0017788174205248,4.6708133704386e-09,4.670840461798e-09,-0.00088702038981172,0.00088703096846998,-2.0984874924123e-09,1.1169474091717e-08,-0.0010529422977285,0.001052949566174,-0.0010529378785866,0.0010529539874118,-0.0010529415973866,0.001052948865602,-0.0010529371925936,0.0010529533011869,-0.00084606924177145,0.00084608346503331,-0.00084606795306895,0.00084608217641667,0.5929858698869,122718,2924,0.0036926377025843,0.008802660584576,0.0036926377025872,36.13661112652,0.00020429288901216,0.00020429288901216,0.00020429288901216,3678042.8549286,0.016320441467725
13419200,0.99628171815024,0.017201581638521,0.0045931625465064,0.008015256545507,0.004593162546508,-0.00088307813545367,0.0008830899905531,5.1111854857514e-09,5.111212597349e-09,2.8504846680692e-10,9.6057137228629e-09,-0.0010486231123178,0.001048632813962,-0.0010486223037103,0.0010486320051227,-0.0010486199995127,0.0010486359407972,-0.0010486191981783,0.0010486351392294,-0.0008422584291032,0.00084227229219152,-0.00084225973957689,0.000842273602581,1.8122761525017e-09,-7.2482520562869e-09,4.14069072727e-09,-9.3874064895873e-09,-0.0021212193071571,0.0021212140511773,-0.0024239906197619,0.0024239929672625,-0.0024239936242196,0.0024239869561239,-0.0024239921369378,0.0024239884676276,-0.0024239951415909,0.0024239824566672,-0.0017761424457756,0.001776147490299,-0.0017761568010603,0.0017761352439403,-0.0017761454690106,0.0017761444144125,-0.0017761554633114,0.001776136617997,5.2891989684404e-09,5.2892259147372e-09,-0.00088307796012539,0.00088309016588243,-1.6277021468167e-09,1.1960400458412e-08,-0.0010486236644167,0.0010486322746571,-0.001048619135164,0.0010486368039453,-0.0010486228453869,0.0010486314553968,-0.0010486183326615,0.0010486360012102,-0.00084225884561638,0.00084227449346117,-0.00084225751378698,0.00084227316171807,0.58571222465791,122718,2924,0.0036762895661965,0.0087984173166354,0.0036762895661988,34.795555486939,0.00019356444389551,0.00019356444389551,0.00019356444389551,3666371.0826977,0.016282895057724
13919200,0.99710814182124,0.017212815359989,0.0045962458562308,0.0080203236475255,0.0045962458562324,-0.00088019797440631,0.0008802090094013,4.8035182651194e-09,4.8035453645947e-09,-6.4648406851724e-11,9.3325471252091e-09,-0.0010460204305118,0.0010460293900122,-0.0010460196851291,0.0010460286443982,-0.00104601729571,0.0010460325411722,-0.0010460165561353,0.0010460318013645,-0.0008392880320987,0.00083930126339085,-0.00083928932476634,0.00083930255597401,1.8367236510003e-09,-7.3088733714061e-09,4.1954900699524e-09,-9.4772163704277e-09,-0.0021214268082454,0.0021214215171758,-0.0024249686444516,0.0024249710225901,-0.0024249717727624,0.0024249650503191,-0.0024249702663674,0.0024249665819441,-0.0024249733948734,0.002424960609852,-0.0017755073422052,0.0017755124690955,-0.0017755218686428,0.0017755001057272,-0.0017755104043203,0.0017755093531191,-0.0017755205126877,0.0017755014988567,4.9846934357486e-09,4.984720349732e-09,-0.00088019779594061,0.00088020918786777,-2.0027181034543e-09,1.1720187467708e-08,-0.0010460209898809,0.001046028844058,-0.0010460164184194,0.0010460334168489,-0.0010460202338741,0.0010460280878207,-0.0010460156776696,0.0010460326758672,-0.00083928841789718,0.00083930345980827,-0.00083928710366617,0.00083930214566342,0.57829084416283,122718,2924,0.0036643475720785,0.0087992713818891,0.0036643475720803,33.828787356124,0.00018583029884899,0.00018583029884899,0.00018583029884899,3638645.6557164,0.016259493359588
14419200,0.99771762902747,0.01722091992649,0.0045984712242424,0.0080239774780033,0.004598471224244,-0.00087686095611652,0.00087687251820074,5.0039922979095e-09,5.0040192938719e-09,7.8383348106123e-11,9.5997712641069e-09,-0.0010428815296049,0.0010428909178249,-0.0010428807471196,0.0010428901351077,-0.0010428783534841,0.0010428941109729,-0.0010428775772092,0.001042893334465,-0.00083588733195884,0.00083590103109292,-0.00083588864151505,0.00083590234056405,1.8702197798342e-09,-7.3934267572406e-09,4.2609936775092e-09,-9.592241576016e-09,-0.0021207470074251,0.0021207416667659,-0.0024249762978225,0.0024249787299771,-0.0024249794333211,0.0024249726411901,-0.0024249779068821,0.0024249741939219,-0.0024249810425754,0.0024249681053135,-0.0017740816313158,0.0017740868452415,-0.0017740963135828,0.0017740742847928,-0.0017740847342237,0.0017740836871996,-0.0017740949385993,0.0017740756978648,5.1885513660637e-09,5.1885783131481e-09,-0.00087686077429072,0.00087687270002749,-1.8859658104508e-09,1.2021838063837e-08,-0.0010428820965202,0.0010428903650654,-0.0010428774625605,0.0010428949997621,-0.0010428813031839,0.0010428895714986,-0.0010428766851168,0.0010428942220863,-0.00083588772108531,0.00083590325794409,-0.0008358863897247,0.00083590192667004,0.56553166555705,122718,2924,0.0036505088293702,0.0087964623658723,0.0036505088293724,32.642599125086,0.00017634079300069,0.00017634079300069,0.00017634079300069,3617212.6402141,0.016228513899154
14919200,0.99815479786461,0.01722678779417,0.0046000893771024,0.0080266090399632,0.004600089377104,-0.00087164742345916,0.00087166104869686,5.7882709347594e-09,5.788297862912e-09,7.0038888805612e-10,1.0576432936234e-08,-0.0010375120318541,0.0010375231376134,-0.0010375110991777,0.0010375222047059,-0.0010375087361756,0.0010375264514101,-0.0010375078119048,0.0010375255269051,-0.00083067991186554,0.00083069539776191,-0.00083068127789305,0.0008306967637041,1.96353032132e-09,-7.6309325395431e-09,4.3967560041221e-09,-9.8676943940038e-09,-0.0021177403967246,0.0021177349161529,-0.0024228967926779,0.002422899351136,-0.0024228998644608,0.0024228929070769,-0.00242289831203,0.0024228944872404,-0.0024229013840088,0.0024228880433597,-0.0017701281936134,0.0017701335550656,-0.0017701432011322,0.0017701205197356,-0.0017701313495355,0.00177013034232,-0.0017701418030641,0.0017701219570798,5.9779001783927e-09,5.9779271220167e-09,-0.00087164723660727,0.00087166123554923,-1.2958938490972e-09,1.3042455867491e-08,-0.0010375126083467,0.0010375225772844,-0.0010375078265123,0.0010375273572143,-0.0010375116643961,0.0010375216331031,-0.0010375069012104,0.0010375264316802,-0.00083068033947726,0.00083069769889958,-0.00083067895098483,0.00083069631049325,0.57027523253607,122718,2924,0.0036288792377543,0.008784053789245,0.0036288792377555,30.579151370203,0.00015983321096163,0.00015983321096163,0.00015983321096163,3613569.8832813,0.016171943754653
15419200,0.99845266856326,0.017231072406447,0.0046012831387477,0.0080285061289503,0.0046012831387493,-0.000863421715466,0.00086343868046379,7.0608526222606e-09,7.0608795918017e-09,1.6806417812972e-09,1.219846744884e-08,-0.001030278639345,0.0010302924822212,-0.0010302774691056,0.001030291311751,-0.0010302751290358,0.0010302960134048,-0.0010302739704427,0.0010302948545787,-0.00082232332767393,0.00082234173248211,-0.00082232478811937,0.00082234319284238,2.1549517123515e-09,-8.0454499614381e-09,4.6539255475338e-09,-1.0340293213552e-08,-0.0021132671320013,0.002113261435528,-0.0024183805742474,0.0024183833899132,-0.0024183835679327,0.0024183763553146,-0.0024183819748333,0.0024183779777171,-0.0024183849687131,0.0024183709432975,-0.0017655201046698,0.0017655257555514,-0.0017655356971794,0.0017655118840833,-0.0017655233424004,0.0017655224591637,-0.0017655342639311,0.0017655133579151,7.2549407017511e-09,7.2549676850509e-09,-0.00086342152414918,0.0008634388717808,-3.6879176689996e-10,1.47285773748e-08,-0.001030279234251,0.0010302919070377,-0.0010302741928191,0.0010302969425183,-0.0010302780521296,0.0010302907246855,-0.0010302730334893,0.0010302957829568,-0.0008223238251405,0.00082234415224798,-0.00082232234127553,0.00082234266846874,0.60998274312948,122718,2924,0.0035947576951936,0.0087655502532069,0.0035947576951942,27.070436375622,0.00013176349100498,0.00013176349100498,0.00013176349100498,3589109.1647195,0.016083807816553
15919200,0.99868156959924,0.017234618289167,0.0046022797112371,0.0080300588666911,0.0046022797112387,-0.00085916507760898,0.00085917797639259,5.5237071311013e-09,5.5237344026698e-09,1.6453391874511e-10,1.0602420194929e-08,-0.0010287569538034,0.001028767206383,-0.001028756093531,0.0010287663458792,-0.0010287534815233,0.0010287707052418,-0.0010287526266127,0.001028769850098,-0.00081777427420382,0.00081778937343337,-0.00081777563988026,0.00081779073902606,2.183109725967e-09,-7.9844731050627e-09,4.8038063920122e-09,-1.0402688699177e-08,-0.0021139976988559,0.0021139920897571,-0.0024173028463075,0.0024173057601936,-0.0024173062962661,0.0024172990897622,-0.0024173046241951,0.0024173007940061,-0.0024173080743485,0.0024172941237531,-0.0017676508963614,0.0017676568702,-0.0017676668372202,0.0017676429120584,-0.001767654292583,0.0017676534118603,-0.0017676653250291,0.0017676444673709,5.7232907216361e-09,5.7233179493484e-09,-0.00085916488067394,0.00085917817332839,-2.0009887486967e-09,1.3263093594467e-08,-0.0010287575846189,0.0010287665955006,-0.0010287524992874,0.0010287716807799,-0.0010287567120748,0.0010287657227259,-0.0010287516434147,0.0010287708246753,-0.00081777463042096,0.00081779174518127,-0.00081777324167763,0.00081779035652313,0.65577891831088,122718,2924,0.0035771104219205,0.008768481824088,0.0035771104219223,25.353837376254,0.00011803069901003,0.00011803069901003,0.00011803069901003,3505744.2277095,0.016050949391614
16419200,0.99886730603858,0.017237250758156,0.0046030125520636,0.0080312256540268,0.0046030125520652,-0.00085626255064463,0.00085627363417605,4.8299872898214e-09,4.830014550258e-09,-3.9024753349985e-10,9.7493693477528e-09,-0.0010284739347475,0.001028482659665,-0.001028473210307,0.001028481934993,-0.0010284705627274,0.0010284860569114,-0.0010284698416197,0.0010284853355704,-0.00081486899987392,0.00081488252513066,-0.00081487032158678,0.00081488384675997,2.1235463429404e-09,-7.7665569811919e-09,4.7897424255979e-09,-1.023488457936e-08,-0.0021154771105679,0.0021154716554227,-0.0024169922102186,0.002416995107486,-0.0024169957719218,0.0024169886867472,-0.0024169940690159,0.0024169904222675,-0.0024169976309139,0.0024169840017069,-0.0017704790193697,0.0017704850668073,-0.001770494838326,0.0017704713367383,-0.0017704824766374,0.0017704815467135,-0.0017704932928013,0.0017704729259607,5.0281620760192e-09,5.0281899611383e-09,-0.00085626235500316,0.00085627382981829,-2.6068146405433e-09,1.2458872475261e-08,-0.0010284745819276,0.0010284820306634,-0.001028469566623,0.0010284870481989,-0.0010284738453647,0.0010284812938704,-0.0010284688442771,0.0010284863256214,-0.00081486929720515,0.00081488486807262,-0.00081486795321878,0.00081488352416992,0.6006069442983,122718,2924,0.0035650889034028,0.0087745062778322,0.0035650889034047,24.412012881531,0.00011049610305225,0.00011049610305225,0.00011049610305225,3419757.0037508,0.016032662384119
16919200,0.99902166841078,0.017239698085267,0.0046037066401863,0.008032284804893,0.0046037066401879,-0.00085355826349418,0.00085356863267913,4.5550101754151e-09,4.5550369628532e-09,-5.4765807717902e-10,9.3349020009751e-09,-0.0010232633086806,0.0010232715115099,-0.001023262629273,0.0010232708318697,-0.0010232600210716,0.0010232748230356,-0.0010232593443592,0.0010232741460894,-0.00081293417299577,0.0008129470358352,-0.00081293546328308,0.00081294832603811,1.9990125751262e-09,-7.6383948077524e-09,4.6758878868347e-09,-1.0118799341802e-08,-0.0021111327835175,0.0021111273308176,-0.0024153854345285,0.0024153881699534,-0.0024153889838208,0.0024153818946329,-0.0024153872757803,0.0024153836379362,-0.0024153908252663,0.0024153773627921,-0.0017636460677551,0.0017636519774287,-0.0017636616894189,0.0017636384989068,-0.0017636495389946,0.0017636484400327,-0.0017636601362404,0.0017636400980512,4.7642801516294e-09,4.7643075353718e-09,-0.00085355805689436,0.00085356883927932,-2.762004015438e-09,1.206795723571e-08,-0.0010232639480607,0.0010232708895482,-0.0010232590127928,0.0010232758277764,-0.0010232632562266,0.0010232701974849,-0.0010232583346245,0.0010232751493752,-0.00081293442458559,0.00081294936183462,-0.00081293311182616,0.00081294804915994,0.66895809298379,122718,2924,0.0035538489890827,0.0087566413803353,0.0035538489890838,23.779753021793,0.00010543802417434,0.00010543802417434,0.00010543802417434,3468480.1558197,0.015991641478335
17419200,0.99914275882908,0.017241506612615,0.0046042148488164,0.0080330769149803,0.004604214848818,-0.00084954335319675,0.00084955630476298,5.5354711162582e-09,5.5354965718556e-09,3.5706738988597e-10,1.0445421992411e-08,-0.0010231635877048,0.00102317394617,-0.0010231627325772,0.0010231730908095,-0.0010231602270134,0.0010231773285472,-0.0010231593775421,0.0010231764788414,-0.00080821459359892,0.00080822960740347,-0.00080821596984931,0.00080823098356696,2.1073890772985e-09,-7.7141271080062e-09,4.8090040412276e-09,-1.0219197874696e-08,-0.0021131639648777,0.0021131585448239,-0.0024144496798191,0.002414452609742,-0.002414453069179,0.0024144459952196,-0.0024144513431908,0.002414447754586,-0.0024144547327454,0.0024144411402418,-0.001768044989672,0.0017680510910971,-0.0017680607338119,0.0017680372875337,-0.0017680484934036,0.001768047523538,-0.0017680591642201,0.0017680389015714,5.734803023445e-09,5.7348323620257e-09,-0.00084954315636768,0.0008495565015928,-1.8943304883863e-09,1.3193108192971e-08,-0.0010231642454022,0.0010231733060721,-0.0010231592183482,0.0010231783331458,-0.0010231633781204,0.001023172438561,-0.0010231583674971,0.001023177482064,-0.00080821493227457,0.00080823201809565,-0.00080821353400616,0.00080823061990787,0.63180124501626,122718,2924,0.0035372278597058,0.0087649092672424,0.0035372278597076,21.982853068957,9.1062824551658e-05,9.1062824551658e-05,9.1062824551658e-05,3361200.0986217,0.015966309399269
17919200,0.99923527083265,0.0172427879442,0.004604572669787,0.0080336426046242,0.0046045726697886,-0.00084275055517351,0.00084276507603205,6.1306827375823e-09,6.1307077627788e-09,8.1917290119966e-10,1.1194244408929e-08,-0.0010150456293901,0.001015057282385,-0.0010150446605665,0.0010150563133286,-0.0010150421726714,0.0010150607623553,-0.001015041211096,0.0010150598005463,-0.00080213967345941,0.00080215605667784,-0.00080214107349307,0.00080215745662206,2.1594274717966e-09,-7.9286652126026e-09,4.8865027396367e-09,-1.0454185169407e-08,-0.0021065387688258,0.0021065331910272,-0.0024097080703303,0.0024097110504535,-0.0024097114136003,0.002409704168543,-0.0024097096738185,0.0024097059440487,-0.0024097130172829,0.0024096990623168,-0.0017596167620876,0.0017596229192159,-0.0017596327409132,0.0017596087418613,-0.0017596202960379,0.0017596193184734,-0.0017596311599159,0.0017596103692902,6.3392579730277e-09,6.3392872700555e-09,-0.00084275034918804,0.00084276528202045,-1.4412846567431e-09,1.3972713967311e-08,-0.0010150462866906,0.0010150566447446,-0.0010150411476939,0.0010150617816544,-0.0010150453051466,0.0010150556629715,-0.0010150401848623,0.0010150608185903,-0.00080214001977237,0.00080215850710554,-0.00080213859684441,0.00080215708425631,0.58584132616481,122718,2924,0.0035090298330227,0.0087375850161875,0.003509029833029,19.502646290845,7.1221170326758e-05,7.1221170326758e-05,7.1221170326758e-05,3390004.4618982,0.015881234564069
18419200,0.99930881049909,0.017243835146671,0.0046048667025681,0.0080341017415332,0.0046048667025697,-0.00083757293515943,0.0008375865108084,5.7742817252249e-09,5.7743061972422e-09,4.0576813054008e-10,1.0872584544358e-08,-0.0010077566977462,0.0010077675326584,-0.0010077557918147,0.0010077666264946,-0.0010077532142601,0.0010077710424594,-0.0010077523141654,0.0010077701421311,-0.00079728610845877,0.00079730176310939,-0.00079728747887951,0.00079730313344008,2.1545459835697e-09,-8.030704706072e-09,4.9067109477604e-09,-1.0578634333453e-08,-0.0021004932495742,0.0021004875674404,-0.0024060693166073,0.0024060722633225,-0.0024060727894661,0.0024060654258443,-0.0024060710355589,0.0024060672178583,-0.0024060745086126,0.0024060603805578,-0.0017513297100445,0.0017513358767409,-0.0017513458746185,0.0017513215959094,-0.0017513332751721,0.0017513322420351,-0.0017513442804165,0.0017513232384432,5.9928975326566e-09,5.9929271008636e-09,-0.00083757271927199,0.00083758672669606,-1.8647825741136e-09,1.3684331056651e-08,-0.0010077573537506,0.001007766897519,-0.0010077521724988,0.0010077720777839,-0.0010077564346269,0.0010077659781646,-0.0010077512711669,0.0010077711762215,-0.0007972864078631,0.00079730420124838,-0.0007972850138418,0.00079730280730747,0.60198894282835,122718,2924,0.0034875226801489,0.0087126858456569,0.0034875226801497,17.47938796863,5.5035103749037e-05,5.5035103749037e-05,5.5035103749037e-05,3444341.1432597,0.015812225614481
18919200,0.99937299116065,0.017244800166956,0.0046051392283892,0.0080345217101763,0.0046051392283908,-0.00083596668735251,0.00083597707340942,4.5639224145457e-09,4.5639469985648e-09,-6.489148460785e-10,9.4638035691501e-09,-0.001007523256127,0.0010075313993909,-0.0010075225823089,0.0010075307253406,-0.0010075198949699,0.0010075347872725,-0.0010075192231322,0.0010075341151991,-0.00079530351161305,0.0007953164682084,-0.00079530481388962,0.00079531777039563,2.0773616184403e-09,-7.7895532304958e-09,4.8395782783233e-09,-1.0352616912836e-08,-0.0021015724632896,0.0021015669402786,-0.0024062736527051,0.0024062765226413,-0.002406277327743,0.0024062701136418,-0.0024062755656112,0.0024062719134555,-0.002406279240844,0.0024062655046351,-0.0017530869285806,0.0017530930834098,-0.0017531029345003,0.0017530792069955,-0.0017530905092832,0.0017530894337064,-0.001753101329298,0.0017530808602104,4.7790358800027e-09,4.7790655003276e-09,-0.0008359664748973,0.00083597728586598,-2.9385336981656e-09,1.2286868889225e-08,-0.001007523918819,0.0010075307556178,-0.0010075188528905,0.0010075358247981,-0.00100752323211,0.0010075300686794,-0.0010075181795788,0.0010075351512564,-0.00079530374166381,0.00079531883971014,-0.00079530241658061,0.00079531751470753,0.63537815114884,122718,2924,0.0034808637202124,0.0087171033358307,0.0034808637202155,16.875005757204,5.0200046057633e-05,5.0200046057633e-05,5.0200046057633e-05,3398168.2802269,0.015803199907649
19419200,0.99943352452787,0.017245754252758,0.0046054102517601,0.0080349337492357,0.0046054102517617,-0.00083696493957268,0.00083697242371518,3.456319366031e-09,3.4563441892541e-09,-1.4750702094926e-09,8.0270926168306e-09,-0.0010104485963984,0.0010104543864122,-0.00101044812859,0.0010104539183716,-0.001010445437954,0.0010104575678293,-0.0010104449696057,0.0010104570992467,-0.00079604079050912,0.00079605118668141,-0.00079604202593528,0.00079605242202051,1.9169571557453e-09,-7.3715546623004e-09,4.6574573621687e-09,-9.9213899569942e-09,-0.0021053827533212,0.0021053774799273,-0.0024085926541159,0.0024085953531076,-0.0024085963985506,0.0024085894435591,-0.002408594647619,0.002408591230534,-0.0024085983922483,0.0024085853211634,-0.0017581246894551,0.0017581306923616,-0.0017581402094176,0.0017581175241129,-0.0017581282461315,0.0017581270685601,-0.0017581386101941,0.0017581191701125,3.6638852636033e-09,3.663915175223e-09,-0.0008369647345701,0.00083697262871797,-3.759772677202e-09,1.0827964876544e-08,-0.0010104492584943,0.0010104537395259,-0.0010104444101904,0.0010104585944475,-0.001010448778455,0.0010104532592575,-0.001010443940007,0.0010104581240336,-0.00079604096636235,0.00079605347905083,-0.00079603970942323,0.00079605222219127,0.66499875838294,122718,2924,0.0034850219482784,0.0087327809507727,0.0034850219482791,17.545804765616,5.5566438124927e-05,5.5566438124927e-05,5.5566438124927e-05,3328308.1697275,0.015827591490649
19919200,0.99949189560873,0.017246659297144,0.0046056672276944,0.0080353248417536,0.004605667227696,-0.0008386647993667,0.00083867114721113,3.0132712841785e-09,3.0132957852111e-09,-1.4471716680956e-09,7.0803495287703e-09,-0.0010136503289106,0.0010136554364367,-0.0010136499336746,0.0010136550409673,-0.0010136474845989,0.0010136582928192,-0.001013647089674,0.0010136578976592,-0.00079777986095428,0.00079778899618717,-0.00079778107220053,0.00079779020734463,1.6133164451136e-09,-6.7111542503738e-09,4.2276046056989e-09,-9.1476494136484e-09,-0.0021091958693292,0.0021091909407713,-0.0024112672908402,0.0024112696143859,-0.0024112707475933,0.002411264213642,-0.0024112690742751,0.0024112659187707,-0.0024112725312229,0.0024112605182047,-0.0017628391061943,0.0017628445918716,-0.0017628534992012,0.0017628326599842,-0.0017628425052597,0.0017628411304913,-0.0017628519685308,0.00176283423408,3.206917649891e-09,3.2069490706453e-09,-0.00083866460824346,0.00083867133833515,-3.6346926155179e-09,9.7509146164319e-09,-0.001013650960917,0.0010136548133636,-0.0010136465123487,0.0010136592693844,-0.0010136505547382,0.0010136544069571,-0.0010136461151152,0.0010136588719217,-0.00079778006538557,0.00079779121202979,-0.00079777883446244,0.0007977899811832,0.65387748679574,122718,2924,0.0034920943497831,0.0087484806489925,0.0034920943497849,18.681890281013,6.4655122248102e-05,6.4655122248102e-05,6.4655122248102e-05,3264783.6940686,0.015857919273101
20419200,0.99954401653014,0.017247499669351,0.0046059074331674,0.0080356848030142,0.0046059074331689,-0.00083750031655467,0.00083750933012987,4.0216300107431e-09,4.0216538702761e-09,-4.437931582435e-10,8.1345085761409e-09,-0.001012203329034,0.0010122107382414,-0.0010122027433209,0.0010122101522946,-0.001012200461144,0.0010122136146468,-0.0010121998792593,0.0010122130325271,-0.00079696670469052,0.00079697801045558,-0.00079696798066061,0.00079697928633547,1.6146484936557e-09,-6.7358454930145e-09,4.1595576202523e-09,-9.1024663620185e-09,-0.0021084810213066,0.002108476069934,-0.0024111839060642,0.0024111862061806,-0.0024111870805445,0.0024111805696761,-0.0024111854520922,0.002411182228276,-0.0024111886267669,0.0024111765919495,-0.001761467159087,0.0017614724915817,-0.0017614813332468,0.0017614605752525,-0.0017614704676377,0.0017614691225942,-0.001761479847315,0.0017614621032265,4.2112714544669e-09,4.2113022230201e-09,-0.00083750012948354,0.00083750951720174,-2.5663409914267e-09,1.0730135251874e-08,-0.0010122039414299,0.001012210134468,-0.0010121995158967,0.0010122145641664,-0.0010122033450371,0.0010122095378472,-0.0010121989317938,0.0010122139798335,-0.00079696700110221,0.00079698026364982,-0.00079696570542023,0.00079697896804524,0.67876341363846,122718,2924,0.003487270257028,0.0087455354655343,0.0034872702570297,18.601902922293,6.4015223378347e-05,6.4015223378347e-05,6.4015223378347e-05,3255223.0176207,0.01584511783585
20919200,0.99958736616807,0.017248173698349,0.0046060993711619,0.008035974956024,0.0046060993711634,-0.00083400007683114,0.0008340118880497,5.084896866075e-09,5.0849209970779e-09,4.7004463550499e-10,9.4002327932819e-09,-0.0010101493575001,0.0010101590751109,-0.0010101485787462,0.0010101582961249,-0.0010101463696587,0.0010101620714461,-0.0010101455977974,0.0010101612993505,-0.00079339740813428,0.00079341109537688,-0.00079339875654759,0.00079341244370488,1.725883850786e-09,-6.9490292474559e-09,4.2345136586321e-09,-9.2755140257664e-09,-0.0021077593017933,0.0021077542520812,-0.0024096331101175,0.0024096355276738,-0.0024096361102578,0.0024096295263687,-0.002409634505206,0.0024096311596656,-0.002409637505541,0.0024096251585371,-0.0017613012850057,0.0017613066454494,-0.0017613155824334,0.0017612943768499,-0.0017613045448941,0.0017613033274094,-0.0017613141229042,0.0017612958767884,5.2683552423453e-09,5.2683859785787e-09,-0.00083399989593116,0.00083401206895095,-1.6206935291899e-09,1.1949331950367e-08,-0.0010101499641472,0.0010101584784783,-0.0010101454414107,0.0010101630021766,-0.001010149174832,0.0010101576889344,-0.0010101446676128,0.0010101622281446,-0.0007933977958254,0.00079341340191107,-0.00079339642734709,0.00079341203351339,0.6551000035036,122718,2924,0.0034727642835937,0.0087425084431947,0.0034727642835965,17.27741938063,5.3419355045043e-05,5.3419355045043e-05,5.3419355045043e-05,3210608.4713093,0.015812584422099
21419200,0.99962215621429,0.017248715817478,0.0046062540560912,0.0080362077052943,0.0046062540560928,-0.00082862949161254,0.00082864297825534,5.723356998672e-09,5.7233809594521e-09,8.5765930910418e-10,1.031993783713e-08,-0.0010040402657034,0.0010040512793152,-0.0010040393698881,0.0010040503832663,-0.0010040371030326,0.0010040544543906,-0.0010040362154774,0.0010040535666003,-0.00078836463376805,0.00078837985961923,-0.0007883660161352,0.00078838124189686,1.8797683925424e-09,-7.3076604058143e-09,4.3843887400512e-09,-9.6228879628487e-09,-0.0021029176656356,0.002102912417942,-0.0024060292374059,0.0024060318060328,-0.0024060322445445,0.0024060254690667,-0.0024060306440117,0.0024060270981762,-0.0024060336513451,0.0024060207613883,-0.0017552308552306,0.0017552363315491,-0.0017552455659272,0.0017552235047065,-0.0017552341064088,0.0017552330218556,-0.0017552441157134,0.0017552249955008,5.9090928896011e-09,5.909123436309e-09,-0.00082862930849305,0.00082864316137555,-1.219803219996e-09,1.2860859493561e-08,-0.0010040408693635,0.0010040506886381,-0.0010040361736895,0.0010040553832741,-0.0010040399626128,0.0010040497816591,-0.0010040352845432,0.0010040544938982,-0.00078836505613811,0.00078838219907223,-0.00078836365268941,0.00078838079570188,0.65600720930975,122718,2924,0.003450472872868,0.0087225349114373,0.0034504728728697,15.231437031222,3.7051496249776e-05,3.7051496249776e-05,3.7051496249776e-05,3226957.7884979,0.015746998085112
21919200,0.99965174093469,0.017249170988748,0.0046063837643555,0.0080364034600354,0.0046063837643571,-0.00082537967968275,0.00082539141188156,5.0615143945442e-09,5.0615383462538e-09,1.2243758765802e-10,9.709594382086e-09,-0.0010011492517896,0.0010011587032631,-0.0010011484830637,0.0010011579343038,-0.0010011460541465,0.0010011619175955,-0.0010011452910607,0.0010011611542745,-0.00078508906158991,0.00078510291501194,-0.00078509040584293,0.00078510425917525,1.9278796384827e-09,-7.4014593664969e-09,4.4491876971934e-09,-9.731421923446e-09,-0.0021011860273264,0.0021011807356995,-0.0024044064431836,0.0024044090521833,-0.0024044096676769,0.0024044028381854,-0.002404408056785,0.0024044044780986,-0.0024044112814729,0.0024043982642788,-0.0017532741086378,0.0017532796716916,-0.0017532890621035,0.0017532667389002,-0.0017532773806774,0.0017532763406618,-0.0017532876031855,0.0017532682387189,5.2483293162192e-09,5.248359860231e-09,-0.00082537949548453,0.00082539159608056,-1.9687133146302e-09,1.2266903557007e-08,-0.0010011498603661,0.0010011581086676,-0.0010011451179436,0.0010011628524146,-0.0010011490805473,0.0010011573286206,-0.0010011443533509,0.0010011620875921,-0.00078508943959214,0.00078510522260277,-0.00078508807397505,0.00078510385706388,0.64802895645029,122718,2924,0.0034369864195983,0.0087153730253456,0.0034369864196002,13.996066867721,2.7168534941771e-05,2.7168534941771e-05,2.7168534941771e-05,3211905.2940263,0.015712329652055
22419200,0.99968044455177,0.017249622527682,0.0046065128765413,0.0080365967745974,0.0046065128765429,-0.00082665364523122,0.00082666070668702,3.2887476212272e-09,3.2887715486995e-09,-1.4110940483763e-09,7.619342541139e-09,-0.0010021942535661,0.0010021998270409,-0.0010021938131422,0.0010021993863836,-0.0010021912466667,0.001002202850916,-0.0010021908067115,0.0010022024107255,-0.00078639284515947,0.00078640273527505,-0.00078639407956183,0.00078640396958772,1.7638471037406e-09,-7.056450163056e-09,4.2754440137672e-09,-9.3831464728455e-09,-0.0021026584146413,0.0021026532979367,-0.002406276775979,0.0024062791730989,-0.0024062802593397,0.002406273608065,-0.0024062786535555,0.0024062752430572,-0.0024062821371109,0.0024062696782014,-0.0017543458115679,0.0017543512218816,-0.0017543604527312,0.001754338983475,-0.0017543490740245,0.0017543479001917,-0.0017543589944594,0.0017543404828348,3.4758571938862e-09,3.4758877122787e-09,-0.00082665346074417,0.00082666089117489,-3.4978781031662e-09,1.0173041475946e-08,-0.0010021948581211,0.0010021992337699,-0.0010021903140334,0.0010022037849029,-0.0010021944068922,0.0010021987823127,-0.001002189872243,0.0010022033428828,-0.00078639311489777,0.00078640493184095,-0.00078639185987925,0.00078640367690087,0.6620970178512,122718,2924,0.0034422680986296,0.0087214639247672,0.0034422680986316,14.849967289804,3.3999738318435e-05,3.3999738318435e-05,3.3999738318435e-05,3199713.1658309,0.015729242747472
22919200,0.99970759115966,0.01725002797875,0.0046066282884869,0.0080367714017747,0.0046066282884885,-0.00082729821319069,0.00082730598020207,3.5502038041979e-09,3.5502278349948e-09,-1.0059936382062e-09,7.7430118278625e-09,-0.0010036906770578,0.001003696947821,-0.0010036901839498,0.0010036964544796,-0.001003687757903,0.0010036998790964,-0.0010036872669047,0.0010036993878628,-0.00078688682913706,0.0007868971865652,-0.00078688808212767,0.00078689843946614,1.6761354084491e-09,-6.8559076989024e-09,4.1529991563736e-09,-9.1520320684084e-09,-0.0021047969244163,0.0021047919167184,-0.0024078745521747,0.002407876856177,-0.0024078778546857,0.0024078713330368,-0.0024078762699877,0.0024078729455853,-0.0024078795726934,0.0024078674226232,-0.0017568985033666,0.0017569037670358,-0.0017569127690749,0.0017568918519524,-0.0017569017227496,0.0017569004900119,-0.0017569113289759,0.0017568933320539,3.7325121339359e-09,3.7325427561723e-09,-0.00082729803348668,0.00082730615990703,-3.0677403312857e-09,1.0260310854376e-08,-0.0010036912742016,0.0010036963599437,-0.001003686841458,0.0010037007986505,-0.0010036907707089,0.0010036958562227,-0.0010036863484663,0.0010037003054292,-0.00078688713280677,0.0007868993864869,-0.00078688585983467,0.00078689811359278,0.62916624691559,122718,2924,0.0034449563920071,0.0087302713855208,0.0034449563920092,15.357426019424,3.8059408155392e-05,3.8059408155392e-05,3.8059408155392e-05,3162321.7876787,0.015743658307146
23419200,0.9997329500403,0.017250413946822,0.0046067386304585,0.0080369366859037,0.00460673863046,-0.00082738355073885,0.00082739165256741,3.6751553303785e-09,3.6751790691819e-09,-8.1371024801011e-10,7.8003684006586e-09,-0.0010023579039971,0.0010023645152249,-0.0010023573840871,0.0010023639950812,-0.0010023550269446,0.001002367402146,-0.0010023545098842,0.0010023668848507,-0.0007872070980768,0.00078721768078355,-0.00078720835704741,0.0007872189396639,1.6213023520908e-09,-6.7726840970322e-09,4.0585333635328e-09,-9.0306248001995e-09,-0.002103862938947,0.0021038579583512,-0.0024084434931808,0.0024084457122635,-0.00240844669439,0.002408440225442,-0.0024084451353341,0.0024084418118956,-0.0024084483367386,0.0024084363252523,-0.0017546130936466,0.0017546182162152,-0.0017546271393764,0.0017546065071399,-0.0017546162620994,0.0017546149906658,-0.0017546257233763,0.0017546079627172,3.8573410528042e-09,3.8573716173787e-09,-0.00082738337122356,0.00082739183208289,-2.837260677928e-09,1.0278687443993e-08,-0.0010023584876376,0.0010023639399068,-0.0010023541243544,0.001002368308679,-0.0010023579575083,0.0010023634095492,-0.0010023536052446,0.0010023677893395,-0.0007872074208658,0.00078721987361799,-0.0007872061420076,0.00078721859483848,0.64041033693191,122718,2924,0.0034453031339987,0.0087264612532031,0.0034453031339993,15.705736583403,4.0845892667225e-05,4.0845892667225e-05,4.0845892667225e-05,3185624.5694297,0.015740477283168
23919200,0.99975794239885,0.017250823234711,0.0046068565291493,0.0080371101764107,0.0046068565291508,-0.00082990291628875,0.00082990889899247,2.8707593419142e-09,2.8707831709895e-09,-1.4550298783544e-09,6.796791743913e-09,-0.00100559986444,0.0010056047465724,-0.0010055994941295,0.0010056043760287,-0.0010055971088383,0.0010056075105458,-0.0010055967394285,0.0010056071409002,-0.0007894892605043,0.00078949800720597,-0.00078949047144747,0.00078949921805912,1.5184979606943e-09,-6.5351663636241e-09,3.9064967293241e-09,-8.7485839778824e-09,-0.0021074612244377,0.0021074563741445,-0.0024114871930919,0.0024114892666294,-0.0024114904496698,0.0024114841407233,-0.0024114889207161,0.0024114856952385,-0.0024114921774886,0.0024114805695102,-0.001758685307481,0.0017586902536636,-0.0017586990186638,0.001758679054948,-0.0017586884144768,0.0017586870917527,-0.0017586976298087,0.0017586804818735,3.0467847228108e-09,3.0468153851089e-09,-0.00082990274292199,0.00082990907236018,-3.4414490137126e-09,9.2232617497784e-09,-0.0010056004372695,0.0010056041798685,-0.0010055962283148,0.0010056083968542,-0.001005600057247,0.0010056037996178,-0.0010055958567038,0.0010056080250135,-0.00078948955657598,0.0007895001309211,-0.00078948832641285,0.00078949890083597,0.68827842413418,122718,2924,0.0034557663916096,0.008741302617391,0.0034557663916117,17.004492317766,5.123593854213e-05,5.123593854213e-05,5.123593854213e-05,3148237.7114699,0.015776817167088
24419200,0.99978177484007,0.017251202117732,0.0046069654012918,0.0080372713151464,0.0046069654012934,-0.00083151730576066,0.00083152420403651,3.2136745278039e-09,3.2136987722635e-09,-1.0119279686959e-09,7.051893524964e-09,-0.0010094424290437,0.0010094481620116,-0.0010094419926438,0.0010094477253783,-0.0010094397307558,0.0010094508645966,-0.0010094392972328,0.0010094504308384,-0.00079075224922537,0.00079076166420796,-0.00079075348675702,0.00079076290165074,1.4621825237982e-09,-6.3946114654798e-09,3.7713054207964e-09,-8.5321909277768e-09,-0.0021119172451291,0.0021119124762827,-0.0024140734205875,0.0024140754063886,-0.0024140764781496,0.0024140703004236,-0.0024140749981623,0.0024140718025891,-0.0024140780559189,0.0024140666968019,-0.0017647310723509,0.001764735815329,-0.0017647443996552,0.001764724928747,-0.0017647340787976,0.0017647327579277,-0.0017647430580456,0.0017647263056731,3.3786697408971e-09,3.3787004550819e-09,-0.00083151714339444,0.00083152436640353,-2.9361555268465e-09,9.3898317984939e-09,-0.0010094429859252,0.0010094476095566,-0.0010094388862572,0.0010094517159225,-0.0010094425404746,0.0010094471638777,-0.0010094384505285,0.0010094512799641,-0.00079075260815937,0.00079076377824496,-0.00079075135197975,0.00079076252214293,0.66831885476871,122718,2924,0.0034624911793631,0.0087596369014748,0.0034624911793649,17.88179751471,5.8254380117681e-05,5.8254380117681e-05,5.8254380117681e-05,3074262.6604773,0.015809125624845
24919200,0.99980384793332,0.017251535738304,0.0046070609989173,0.0080374137404681,0.0046070609989188,-0.00083163441154457,0.00083164219708093,3.5486955479928e-09,3.5487196319346e-09,-6.8614407223466e-10,7.4099232554603e-09,-0.0010088329177997,0.0010088394119566,-0.0010088324175425,0.0010088389114659,-0.0010088302066917,0.0010088421262259,-0.0010088297104868,0.0010088416297855,-0.00079126180183125,0.00079127194549135,-0.00079126306008055,0.0007912732036515,1.4651976068659e-09,-6.41533842805e-09,3.7301394738584e-09,-8.5082720770107e-09,-0.0021116846536751,0.0021116798675829,-0.0024147323229173,0.0024147342872384,-0.0024147352777981,0.0024147291121367,-0.0024147338264731,0.0024147305846874,-0.0024147367815483,0.0024147254097632,-0.0017636783077135,0.0017636829581828,-0.0017636915365911,0.001763672104914,-0.001763681256464,0.0017636799595738,-0.0017636902236882,0.0017636734523124,3.7117253075658e-09,3.7117558886646e-09,-0.00083163425118644,0.00083164235743995,-2.5682447121223e-09,9.7006879650202e-09,-0.0010088334616614,0.0010088388723808,-0.0010088293788642,0.0010088429608119,-0.0010088329524999,0.0010088383629911,-0.0010088288805167,0.0010088424622346,-0.00079126219828923,0.00079127406340448,-0.00079126092131486,0.00079127278650793,0.63528368720883,122718,2924,0.0034629775622752,0.0087586973085601,0.0034629775622772,18.35196417757,6.201571342056e-05,6.201571342056e-05,6.201571342056e-05,3075838.2595103,0.015809145898796
25419200,0.99982552764935,0.017251894871626,0.0046071650673474,0.0080375647369297,0.004607165067349,-0.00083448325839869,0.00083448858934758,2.618922475637e-09,2.6189465453531e-09,-1.4955179921412e-09,6.317503191467e-09,-0.0010102079303314,0.0010102123867028,-0.001010207602267,0.001010212058405,-0.0010102053162789,0.0010102150039333,-0.0010102049895924,0.0010102146770121,-0.00079430374283256,0.00079431181096176,-0.0007943049421663,0.00079431301020523,1.3796064328528e-09,-6.2432852225691e-09,3.5981497078786e-09,-8.2929991709796e-09,-0.0021129845877505,0.0021129798851402,-0.0024174330474067,0.0024174348710713,-0.0024174361168357,0.0024174300635902,-0.0024174346948076,0.0024174315059413,-0.0024174377644297,0.0024174266986386,-0.0017637372866985,0.001763741773485,-0.001763750285581,0.0017637313625879,-0.0017637401767141,0.0017637388347087,-0.0017637489996606,0.0017637326822011,2.7800645754962e-09,2.7800948654376e-09,-0.00083448309997801,0.0008344887477694,-3.3366082974069e-09,8.5623382941245e-09,-0.0010102084601711,0.0010102118595329,-0.0010102045060187,0.001010215822377,-0.0010102081235065,0.0010102115226404,-0.0010102041770782,0.0010102154932064,-0.0007943040970132,0.00079431385354362,-0.00079430287927946,0.00079431263588782,0.69486038082041,122718,2924,0.0034747909278574,0.0087641152131354,0.0034747909278599,19.920128268157,7.4561026145255e-05,7.4561026145255e-05,7.4561026145255e-05,3093667.2294811,0.015838634899677
25919200,0.99984570488668,0.01725222599705,0.0046072608140474,0.0080377043689533,0.004607260814049,-0.0008362775072563,0.00083628451445866,3.2517299867725e-09,3.2517545267114e-09,-8.5570007756765e-10,6.9703879416389e-09,-0.0010147946570056,0.0010148005594087,-0.0010147942109852,0.001014800113155,-0.0010147920341498,0.0010148031829814,-0.0010147915920486,0.0010148027406451,-0.00079546129699881,0.00079547071629392,-0.00079546253988076,0.00079547195908758,1.3835347087291e-09,-6.2351721959459e-09,3.5446423573738e-09,-8.2278782506732e-09,-0.0021182345256096,0.002118229834677,-0.002420273198148,0.0024202750115549,-0.0024202760740598,0.002420270069513,-0.0024202746878398,0.002420271473284,-0.002420277563946,0.0024202665314199,-0.0017710554882287,0.0017710598647525,-0.0017710682950275,0.0017710495028841,-0.0017710583042855,0.0017710570031867,-0.0017710670450509,0.0017710507843026,3.4037158882076e-09,3.4037464235693e-09,-0.00083627735795986,0.00083628466375592,-2.651392452957e-09,9.1479824561654e-09,-0.0010147951765986,0.0010148000420908,-0.0010147912507726,0.0010148039744052,-0.00101479472241,0.0010147995876736,-0.0010147908065156,0.0010148035299184,-0.00079546172257119,0.00079547277446368,-0.00079546046151759,0.00079547151348799,0.68893727387477,122718,2924,0.0034822678059237,0.0087857120413519,0.0034822678059256,20.734466269521,8.1075730156172e-05,8.1075730156172e-05,8.1075730156172e-05,3008430.5267691,0.015875796942464
26419200,0.99986322015149,0.01725252762559,0.0046073486007707,0.0080378304240467,0.0046073486007722,-0.00083464141478808,0.00083465097753129,4.2200960386981e-09,4.2201204384927e-09,-3.8155052953661e-11,8.1367898139212e-09,-0.0010130834581271,0.0010130914602844,-0.0010130828334992,0.0010130908354233,-0.001013080716914,0.0010130942025605,-0.0010130800988772,0.0010130935842886,-0.00079419622264035,0.00079420782575558,-0.00079419752693689,0.00079420912996366,1.4870370586857e-09,-6.4547873794998e-09,3.6276524601781e-09,-8.4227957301956e-09,-0.0021171899159671,0.0021171851128649,-0.0024196063106921,0.0024196082349518,-0.0024196090422334,0.0024196029410077,-0.0024196076700557,0.0024196043301071,-0.0024196104017914,0.0024195990363409,-0.0017696129093845,0.0017696173308701,-0.0017696258778628,0.0017696065948391,-0.0017696156967903,0.0017696144987067,-0.0017696246447409,0.001769607858826,4.370843752231e-09,4.3708741621784e-09,-0.00083464126675681,0.00083465112556338,-1.8112636089342e-09,1.0288625346167e-08,-0.001013083972353,0.0010130909499062,-0.0010130799411759,0.0010130949846242,-0.0010130833394694,0.0010130903167941,-0.0010130793212192,0.0010130943644376,-0.00079419671856572,0.00079420993617563,-0.00079419539558355,0.00079420861327162,0.72144035869821,122718,2924,0.0034754849478855,0.0087813967408071,0.0034754849478874,20.398880749483,7.8391045995862e-05,7.8391045995862e-05,7.8391045995862e-05,2998215.8507618,0.015857624501881
26919200,0.99987952767562,0.017252799759754,0.0046074275480476,0.0080379446636575,0.0046074275480492,-0.00083604020073582,0.00083604709142139,3.2100022749244e-09,3.2100269248532e-09,-9.9186217210031e-10,7.0278561773473e-09,-0.0010158213072007,0.0010158270489763,-0.001015820871898,0.0010158266134405,-0.0010158186226554,0.0010158297365576,-0.0010158181909301,0.0010158293045974,-0.00079553921443644,0.00079554860758874,-0.00079554045848992,0.00079554985155436,1.4496430683993e-09,-6.362987721387e-09,3.5725864052906e-09,-8.3150504035649e-09,-0.0021203603321526,0.0021203555817889,-0.0024217086250094,0.0024217104788791,-0.0024217115491445,0.0024217055111856,-0.0024217101876526,0.0024217068888748,-0.002421713111982,0.0024217019213591,-0.0017736365660297,0.0017736409329818,-0.0017736494888779,0.0017736304601405,-0.0017736393314405,0.0017736381236325,-0.001773648265637,0.0017736317136783,3.3582056558136e-09,3.3582360503827e-09,-0.00083604005523709,0.00083604723692094,-2.7520806936474e-09,9.160792489256e-09,-0.0010158218180151,0.0010158265413283,-0.0010158178549637,0.0010158305111173,-0.0010158213746431,0.0010158260977278,-0.0010158174212711,0.0010158300771949,-0.00079553965806271,0.0007955506499634,-0.00079553839556375,0.00079554938754246,0.69956234681406,122718,2924,0.0034813021764216,0.0087944466094633,0.0034813021764235,21.287118395086,8.5496947160687e-05,8.5496947160687e-05,8.5496947160687e-05,2945794.7331673,0.01588271184995
27419200,0.99989466567542,0.017253050435681,0.0046075003583227,0.0080380497190345,0.0046075003583243,-0.00083733400430496,0.00083734067600858,3.124761688565e-09,3.124786225694e-09,-1.0290209561106e-09,6.8887201153291e-09,-0.0010163071341516,0.001016312719409,-0.0010163067124516,0.0010163122974759,-0.0010163044826999,0.0010163153728397,-0.0010163040644969,0.0010163149544019,-0.00079713926895171,0.00079714845027552,-0.00079714050622788,0.00079714968746367,1.4132672404794e-09,-6.2998359689826e-09,3.5165939799384e-09,-8.2334234158604e-09,-0.0021210010496405,0.0021209963250112,-0.0024232851914159,0.0024232869911633,-0.0024232880904828,0.002423282090685,-0.0024232867415301,0.0024232834555432,-0.0024232896407914,0.0024232785552427,-0.001773409214971,0.0017734135059537,-0.0017734220146869,0.0017734031795853,-0.0017734119554363,0.0017734107219065,-0.0017734208029612,0.0017734044213355,3.2724997783799e-09,3.2725299683414e-09,-0.00083733385929531,0.00083734082101898,-2.7712191324813e-09,9.0023571055633e-09,-0.0010163076386022,0.0010163122174324,-0.0010163037222708,0.0010163161407564,-0.0010163072089521,0.0010163117875537,-0.0010163033020542,0.0010163157203099,-0.00079713971259786,0.00079715047913594,-0.00079713845698852,0.00079714922360523,0.69373345666921,122718,2924,0.0034866715888723,0.0087971178716896,0.003486671588874,22.251088030472,9.3208704243774e-05,9.3208704243774e-05,9.3208704243774e-05,2947156.1656697,0.015896321961904
27919200,0.99990838605023,0.017253284645367,0.0046075686231365,0.0080381473990922,0.0046075686231381,-0.00083829675947826,0.00083830407963896,3.3693979012676e-09,3.3694223537527e-09,-7.8734141327498e-10,7.1462525261848e-09,-0.0010171280445724,0.0010171341851181,-0.0010171275769268,0.0010171337172386,-0.0010171253862589,0.0010171368445447,-0.0010171249229568,0.0010171363810074,-0.00079812074470349,0.00079813045463751,-0.00079812199671611,0.00079813170655999,1.4152615522605e-09,-6.3073544154169e-09,3.5035082352871e-09,-8.2257397158275e-09,-0.0021221431523656,0.0021221384223499,-0.0024247572751237,0.0024247590726224,-0.0024247601080733,0.0024247541128533,-0.0024247587688145,0.0024247554675803,-0.0024247616019585,0.0024247505079895,-0.0017741983870226,0.0017742026465388,-0.0017742111390689,0.0017741923161226,-0.0017742011078733,0.0017741998826431,-0.0017742099370387,0.0017741935477911,3.5159983341111e-09,3.5160285463595e-09,-0.0008382966156192,0.00083830422349918,-2.5157962803564e-09,9.2433225372035e-09,-0.0010171285450231,0.001017133687052,-0.0010171246319294,0.0010171376063551,-0.0010171280694995,0.0010171332113002,-0.0010171241666355,0.0010171371408311,-0.00079812120925732,0.00079813249203512,-0.00079811993890444,0.00079813122175954,0.71478776276074,122718,2924,0.0034906733873054,0.0088018407994684,0.003490673387308,22.918635393714,9.8549083149715e-05,9.8549083149715e-05,9.8549083149715e-05,2935805.1032554,0.015909248814519
28419200,0.99992065710055,0.017253502966769,0.0046076324941108,0.0080382379785463,0.0046076324941124,-0.00083906221742614,0.00083906987454102,3.4974347309333e-09,3.4974592793841e-09,-6.8363980873451e-10,7.3066305675693e-09,-0.0010188587679297,0.0010188651793918,-0.0010188582780288,0.0010188646892577,-0.0010188560906671,0.0010188678579816,-0.0010188556054766,0.0010188673725562,-0.00079872718852977,0.00079873718905791,-0.00079872845078028,0.00079873845122047,1.4351364436844e-09,-6.3409430437191e-09,3.5118686256477e-09,-8.2472240189673e-09,-0.0021243778864872,0.002124373143305,-0.0024262987579384,0.0024263005728811,-0.0024263015697306,0.002426295569066,-0.0024263002377796,0.0024262969159185,-0.002426303049766,0.0024262919122812,-0.0017769785964388,0.0017769828532181,-0.0017769913610351,0.0017769724782299,-0.001776981302114,0.0017769801051598,-0.0017769901668706,0.0017769737015689,3.6421940883255e-09,3.6422244246487e-09,-0.00083906207540471,0.00083907001656326,-2.4024141563672e-09,9.3896226641181e-09,-0.0010188592664455,0.001018864683496,-0.0010188553416258,0.0010188686141592,-0.0010188587687242,0.0010188641855462,-0.0010188548544975,0.001018868126801,-0.00079872766904473,0.00079873923093289,-0.0007987263884173,0.00079873795038374,0.74447174682128,122718,2924,0.0034938633692999,0.0088110406192959,0.0034938633693018,23.441509087623,0.00010273207270098,0.00010273207270098,0.00010273207270098,2897792.3407812,0.015925086430902
28919200,0.99993159418433,0.017253689486676,0.0046076868903383,0.0080383157059973,0.0046076868903399,-0.00083969503184214,0.00083970265560124,3.4850382748259e-09,3.4850628017413e-09,-7.1504326327207e-10,7.3160673058128e-09,-0.0010206739062801,0.0010206802727663,-0.0010206734203412,0.0010206797865941,-0.0010206712161064,0.0010206829648311,-0.0010206707347847,0.0010206824832744,-0.00079931476959897,0.00079932475605977,-0.0007993160336678,0.00079932602004058,1.4517326649165e-09,-6.3655691772311e-09,3.5214260380282e-09,-8.2643860967365e-09,-0.0021267159570614,0.0021267112062329,-0.0024277458992947,0.0024277477282985,-0.0024277487225467,0.00242774271894,-0.0024277473950276,0.0024277440609638,-0.0024277502184739,0.0024277390517831,-0.0017800290702894,0.0017800333322497,-0.0017800418592394,0.0017800229290387,-0.001780031766639,0.0017800305939609,-0.0017800406699751,0.0017800241471683,3.628433200781e-09,3.6284636950273e-09,-0.00083969489117832,0.00083970279626587,-2.4281341539036e-09,9.3901605683684e-09,-0.0010206744038949,0.001020679777971,-0.0010206704704431,0.0010206837173532,-0.0010206739101752,0.0010206792840228,-0.0010206699872216,0.0010206832339019,-0.00079931525566739,0.00079932679600368,-0.00079931397320704,0.00079932551362104,0.71381039274248,122718,2924,0.0034965038609573,0.0088206582675193,0.0034965038609591,23.983785188379,0.00010707028150703,0.00010707028150703,0.00010707028150703,2852787.2571647,0.015940232030728
29419200,0.99994142483028,0.017253841858457,0.004607731018201,0.0080383798220537,0.0046077310182026,-0.00084066523629279,0.00084067227867681,3.2647045705697e-09,3.2647288865317e-09,-9.163247777085e-10,7.0646231657587e-09,-0.0010205067460063,0.0010205126313979,-0.0010205062994006,0.0010205121845589,-0.0010205040732612,0.0010205153061194,-0.0010205036306371,0.0010205148632607,-0.00080057915527465,0.0008005886573215,-0.00080058040383751,0.00080058990579698,1.4328822397253e-09,-6.3396977093514e-09,3.4974440901897e-09,-8.2337458231876e-09,-0.0021267154559303,0.0021267107117917,-0.0024289922916237,0.0024289940890129,-0.0024289951505162,0.0024289891569131,-0.002428993826422,0.0024289904956409,-0.0024289966855087,0.0024289855637192,-0.0017789012070723,0.0017789054390244,-0.001778913971707,0.0017788951161518,-0.0017789038969561,0.0017789027070857,-0.0017789127854315,0.0017788963313485,3.4088280100155e-09,3.4088583677954e-09,-0.00084066509492125,0.00084067242004869,-2.6236863075666e-09,9.1346170344074e-09,-0.001020507241031,0.0010205121388962,-0.0010205033289039,0.0010205160576387,-0.001020506786663,0.0010205116842996,-0.0010205028843552,0.0010205156128598,-0.00080057962680444,0.00080059068083577,-0.0008005783598446,0.00080058941395427,0.64935525705022,122718,2924,0.0035005256499222,0.0088206928676238,0.0035005256499231,24.778612463784,0.00011342889971028,0.00011342889971028,0.00011342889971028,2864561.128354,0.015948423243009
29919200,0.99995014765264,0.017253985071577,0.0046077727996975,0.0080384394721806,0.004607772799699,-0.00084168251274791,0.00084168976163806,3.3417998364394e-09,3.3418240015316e-09,-8.3290908524697e-10,7.1335118666091e-09,-0.001018723165574,0.0010187292397553,-0.0010187227015784,0.0010187287755266,-0.0010187204966646,0.0010187319098624,-0.0010187200369494,0.0010187314499123,-0.00080186241195626,0.00080187207789112,-0.00080186366036622,0.00080187332621182,1.4196878235703e-09,-6.3360546559383e-09,3.4729428204514e-09,-8.2187272405832e-09,-0.00212491533636,0.0021249105827743,-0.002429883454324,0.0024298852263033,-0.002429886282049,0.0024298802866771,-0.002429884965533,0.0024298816178868,-0.0024298877934527,0.0024298766784388,-0.001774701260757,0.0017747054492003,-0.001774713984789,0.0017746951638854,-0.0017747039360064,0.0017747027319376,-0.0017747128057643,0.0017746963717668,3.4869739794451e-09,3.4870039439764e-09,-0.00084168237037665,0.00084168990401015,-2.5276581411318e-09,9.1930764271748e-09,-0.001018723655539,0.0010187287520429,-0.0010187197555433,0.0010187326584003,-0.0010187231837979,0.0010187282800733,-0.0010187192939022,0.0010187321965293,-0.00080186288615803,0.00080187409843619,-0.00080186161924414,0.00080187283160158,0.68704429775266,122718,2924,0.0035047298677869,0.0088133528458329,0.0035047298677887,25.465227226906,0.00011892181781525,0.00011892181781525,0.00011892181781525,2924595.6816885,0.015949482436682
30419200,0.99995782914119,0.01725409895323,0.0046078057030709,0.0080384875470862,0.0046078057030725,-0.00084318849850462,0.00084319582430688,3.3719048802675e-09,3.3719292553427e-09,-8.0234976810725e-10,7.1667290141716e-09,-0.0010222216210244,0.0010222277572253,-0.0010222211539758,0.0010222272899437,-0.0010222189512052,0.0010222304283086,-0.001022218488574,0.0010222299654414,-0.00080278010630276,0.00080278983335097,-0.00080278136095649,0.00080279108791845,1.4266354001502e-09,-6.3312571593809e-09,3.4747944054749e-09,-8.209091848526e-09,-0.0021289976157602,0.0021289928736661,-0.0024322674237018,0.0024322692059412,-0.002432270241964,0.0024322642610945,-0.0024322689283255,0.0024322655888907,-0.0024322717467826,0.0024322606442228,-0.0017802833569804,0.0017802875481716,-0.0017802960666245,0.0017802772645291,-0.0017802860257486,0.0017802848379663,-0.0017802948906192,0.0017802784690191,3.5148028424027e-09,3.5148331489296e-09,-0.00084318835837953,0.00084319596443184,-2.4950964867797e-09,9.2190233405438e-09,-0.001022222111685,0.0010222272688529,-0.0010222182135003,0.0010222311733086,-0.001022221636967,0.0010222267939071,-0.0010222177489505,0.0010222307085282,-0.00080278059054068,0.0008027918563356,-0.00080277931749749,0.000802790583373,0.62192907239106,122718,2924,0.0035109987289684,0.008830152417928,0.0035109987289683,26.130535781399,0.00012424428625119,0.00012424428625119,0.00012424428625119,2862751.4916735,0.015979312102912
30919200,0.99996466054128,0.017254209806149,0.0046078380932761,0.0080385336195952,0.0046078380932777,-0.00084487021616321,0.00084487676541464,3.0772262372993e-09,3.0772503426994e-09,-1.0255072782286e-09,6.7823177974351e-09,-0.0010209623774037,0.0010209678955182,-0.0010209619626138,0.0010209674804952,-0.0010209597609494,0.0010209705120454,-0.0010209593498382,0.0010209701006994,-0.00080480832634187,0.0008048173751946,-0.00080480955848188,0.00080481860724515,1.3714984828981e-09,-6.2333595686145e-09,3.3989766707135e-09,-8.0923288996128e-09,-0.0021276219561163,0.0021276172551163,-0.0024335597586234,0.0024335614606501,-0.0024335625877139,0.0024335566607838,-0.0024335612872132,0.002433557975227,-0.0024335641164983,0.0024335531755388,-0.0017765921000625,0.0017765961964027,-0.0017766046624205,0.0017765861405665,-0.0017765947429087,0.0017765935124694,-0.0017766034979833,0.0017765873332111,3.2203101745803e-09,3.2203401464771e-09,-0.00084487007590267,0.00084487690567601,-2.6990661940275e-09,8.8155220051757e-09,-0.0010209628605482,0.001020967413553,-0.0010209590305178,0.001020971250817,-0.001020962438236,0.0010209669910123,-0.0010209586174074,0.0010209708374768,-0.00080480879444338,0.00080481936940448,-0.00080480754405301,0.00080481811909348,0.67884300681449,122718,2924,0.0035179545045399,0.0088245683396457,0.0035179545045418,27.119724616397,0.00013215779693117,0.00013215779693117,0.00013215779693117,2926698.5496607,0.01598774428133
31419200,0.99997077222143,0.017254309951089,0.0046078673240329,0.008038575303022,0.0046078673240345,-0.00084791141101102,0.00084791723731315,2.8031017950375e-09,2.8031267507212e-09,-1.1977121676456e-09,6.3933285547306e-09,-0.0010267970090214,0.0010268019662925,-0.0010267966466877,0.0010268016037259,-0.0010267944638331,0.0010268045100719,-0.001026794104849,0.0010268041508532,-0.00080710681113959,0.00080711519877093,-0.00080710802905013,0.00080711641659406,1.3089081173437e-09,-6.0861693024114e-09,3.303440719036e-09,-7.9152251859509e-09,-0.0021338708331762,0.0021338662139446,-0.0024372916587628,0.0024372932774329,-0.0024372944661733,0.0024372886408697,-0.0024372931857119,0.0024372899338623,-0.0024372959933168,0.002437285297477,-0.0017851082961721,0.0017851122778221,-0.0017851206170699,0.0017851025143357,-0.0017851108977143,0.0017851096367294,-0.0017851194709257,0.0017851036876533,2.9412221812953e-09,2.9412520659756e-09,-0.0008479112756798,0.0008479173726452,-2.847297218495e-09,8.390813935587e-09,-0.0010267974859252,0.0010268014893468,-0.0010267937486488,0.0010268052345767,-0.0010267971164034,0.0010268011195963,-0.0010267933875725,0.0010268048732703,-0.0008071072800972,0.00080711716376213,-0.00080710604443179,0.00080711592817587,0.68615601456194,122718,2924,0.0035305989053959,0.0088502903185519,0.0035305989053978,28.436971265413,0.0001426957701233,0.0001426957701233,0.0001426957701233,2841219.9490234,0.016039603930485
31919200,0.99997603628515,0.017254397451056,0.004607892946072,0.0080386115589108,0.0046078929460736,-0.00084917286056486,0.00084917976214326,3.2079902359459e-09,3.2080151351976e-09,-8.1269401258482e-10,6.8371459851775e-09,-0.0010283719768471,0.0010283778460925,-0.0010283715378739,0.0010283774068864,-0.001028369409961,0.0010283804106286,-0.0010283689756618,0.0010283799760947,-0.00080851292900749,0.00080852220186664,-0.00080851417551106,0.00080852344828278,1.3240677793441e-09,-6.1192298910802e-09,3.3030061558998e-09,-7.9321246260375e-09,-0.0021356778406822,0.0021356732041013,-0.0024388894518575,0.0024388910856195,-0.00243889216388,0.0024388863317105,-0.0024388908934723,0.0024388876141057,-0.0024388936056893,0.0024388828603745,-0.001787105867208,0.0017871098276663,-0.0017871181581622,0.0017871000065257,-0.0017871084482439,0.0017871072077105,-0.0017871170224203,0.0017871011689907,3.344671945669e-09,3.344701779089e-09,-0.00084917272668039,0.00084917989602854,-2.4480060747124e-09,8.8168245819821e-09,-0.0010283724499277,0.0010283773730898,-0.001028368701225,0.0010283811284544,-0.0010283720038291,0.0010283769267624,-0.0010283682648821,0.0010283806918812,-0.00080851343328991,0.0008085241886665,-0.00080851216898679,0.00080852292444262,0.69501902185868,122718,2924,0.0035358412708166,0.0088577406131052,0.0035358412708185,29.269218326094,0.00014935374660875,0.00014935374660875,0.00014935374660875,2818107.2759406,0.016057826172052
32419200,0.9999803585356,0.017254472851363,0.0046079151282733,0.0080386425948151,0.0046079151282748,-0.00084877068781902,0.00084877942196755,3.901369947328e-09,3.901394863151e-09,-2.4898535040191e-10,7.6960103057562e-09,-0.0010284035799806,0.001028410939274,-0.001028403012874,0.0010284103719345,-0.0010284009139702,0.0010284136038866,-0.0010284003533414,0.0010284130430231,-0.00080818442922697,0.00080819528005628,-0.00080818572212999,0.00080819657287194,1.4146732144103e-09,-6.3054558676515e-09,3.3937232606133e-09,-8.114871068965e-09,-0.0021361753641647,0.0021361706353168,-0.0024391592466706,0.0024391609871807,-0.0024391618772348,0.0024391559544357,-0.0024391606074244,0.0024391572360616,-0.0024391632381829,0.0024391522034944,-0.0017877655423649,0.0017877695813199,-0.0017877780197986,0.0017877594165826,-0.0017877681218563,0.0017877669631269,-0.0017877768871838,0.0017877605757487,4.037747717134e-09,4.0377776031378e-09,-0.0008487705542458,0.00084877955554159,-1.8816471373833e-09,9.6722549665093e-09,-0.0010284040537309,0.0010284104671032,-0.0010284002051054,0.001028414320295,-0.0010284034793587,0.0010284098925023,-0.0010283996426176,0.001028413757577,-0.00080818498092156,0.00080819731205544,-0.00080818366978739,0.00080819600100024,0.72871757249586,122718,2924,0.0035341817990454,0.0088597797570074,0.0035341817990473,29.299117504349,0.00014959294003479,0.00014959294003479,0.00014959294003479,2797214.3063973,0.016056527788057
32919200,0.99998387990549,0.017254529940596,0.0046079318231452,0.0080386662943039,0.0046079318231468,-0.00084808381814169,0.00084809293685507,4.0493517850789e-09,4.0493767300911e-09,-2.17813774867e-10,7.9759476995962e-09,-0.001029053996181,0.0010290616014454,-0.001029053406305,0.0010290610113365,-0.0010290512499269,0.0010290643489988,-0.0010290506664281,0.0010290637652652,-0.00080744666099535,0.00080745790758393,-0.00080744796638654,0.00080745921288796,1.5000640928952e-09,-6.4656781572058e-09,3.4989765859024e-09,-8.2918659614219e-09,-0.0021374307740008,0.0021374259731594,-0.0024393803820174,0.0024393822264783,-0.0024393830690186,0.0024393770625875,-0.0024393817870136,0.0024393783568141,-0.0024393844742091,0.002439373193101,-0.0017898573714639,0.0017898615337224,-0.0017898701023253,0.0017898510689495,-0.001789859975207,0.0017898588907841,-0.0017898689599195,0.0017898522382509,4.1867126931504e-09,4.1867425673627e-09,-0.00084808368357254,0.00084809307142499,-1.8663053468292e-09,9.9705185000655e-09,-0.0010290544760677,0.0010290611246537,-0.001029050533101,0.0010290650719294,-0.001029053878712,0.0010290605270692,-0.0010290499478808,0.0010290644864788,-0.00080744721823403,0.00080745995890443,-0.00080744589425024,0.00080745863499963,0.67786409206329,122718,2924,0.0035313454613521,0.0088649197518479,0.0035313454613539,29.174608900793,0.00014859687120635,0.00014859687120635,0.00014859687120635,2754102.3272119,0.016055998230754
33419200,0.9999867898318,0.017254580222606,0.0046079466411574,0.0080386869402895,0.004607946641159,-0.00084773422815947,0.00084774275698696,3.8276187935754e-09,3.8276434888767e-09,-5.1480220378392e-10,7.8176902824576e-09,-0.0010268026013691,0.0010268096633485,-0.0010268020518458,0.0010268091135922,-0.001026799812151,0.0010268124563832,-0.0010267992679666,0.0010268119119642,-0.00080750999270767,0.00080752081424836,-0.00080751127793303,0.0008075220993859,1.5382627087184e-09,-6.5701545591117e-09,3.5812402925673e-09,-8.4380200301037e-09,-0.0021353405056083,0.0021353356407037,-0.0024392011566128,0.0024392030531713,-0.0024392039716739,0.0024391978736944,-0.0024392026622787,0.0024391991969494,-0.0024392054775343,0.0024391940176505,-0.0017860607777125,0.0017860650559853,-0.0017860737600973,0.0017860543902092,-0.0017860634376336,0.0017860623550256,-0.0017860725917383,0.0017860555867305,3.9700372628074e-09,3.9700670602592e-09,-0.00084773408854397,0.00084774289660327,-2.1987773908894e-09,9.8599376104407e-09,-0.0010268030911498,0.0010268091777248,-0.0010267990762373,0.0010268131976307,-0.0010268025338101,0.0010268086201563,-0.0010267985303769,0.0010268126515401,-0.00080751051073968,0.00080752286438625,-0.00080750920651244,0.00080752156023824,0.72119043301589,122718,2924,0.0035298816206424,0.0088563475965503,0.0035298816206443,29.316106518596,0.00014972885214877,0.00014972885214877,0.00014972885214877,2791870.7302335,0.016044291003813
33919200,0.99998926242153,0.017254622497799,0.0046079590702665,0.0080387043572646,0.0046079590702681,-0.0008493158368389,0.0008493229802477,3.303610819584e-09,3.303635674159e-09,-9.2038430153291e-10,7.1517569219411e-09,-0.0010301784009146,0.0010301843436562,-0.0010301779506012,0.0010301838931098,-0.0010301756986851,0.0010301870486796,-0.0010301752523123,0.0010301866020721,-0.00080869536490716,0.00080870497824486,-0.0008086966218245,0.00080870623507488,1.4657175504526e-09,-6.3965360134508e-09,3.5326078003742e-09,-8.2919363749767e-09,-0.0021390994809856,0.0021390947137627,-0.0024413938545244,0.0024413956896599,-0.0024413967341873,0.0024413907163559,-0.0024413954086218,0.0024413920564173,-0.002441398288479,0.002441387083291,-0.0017911575214612,0.0017911617922299,-0.001791170370877,0.0017911513710113,-0.0017911602139599,0.0017911590578558,-0.0017911691840351,0.0017911525866584,3.4468845267607e-09,3.4469146170491e-09,-0.00084931569632318,0.00084932312076423,-2.6302391976156e-09,9.2223393737744e-09,-0.0010301788977314,0.0010301838497498,-0.0010301749541518,0.0010301877999443,-0.001030178439664,0.0010301833914537,-0.0010301745058895,0.0010301873514519,-0.0008086958450328,0.00080870700985661,-0.00080869456963516,0.00080870573453745,0.71426719697839,122718,2924,0.0035364606776348,0.0088718158582502,0.0035364606776366,30.069777612708,0.00015575822090166,0.00015575822090166,0.00015575822090166,2734814.210096,0.01607339789888
34419200,0.99999141031144,0.017254658485568,0.0046079696491917,0.0080387191871827,0.0046079696491932,-0.0008518018653688,0.00085180748379486,2.7259203254776e-09,2.7259451029968e-09,-1.3844934292864e-09,6.4313119278352e-09,-0.0010323780558642,0.0010323827653906,-0.0010323777115856,0.001032382420879,-0.0010323754394703,0.0010323853835638,-0.0010323750976892,0.0010323850415481,-0.00081137930961071,0.00081138760599232,-0.00081138052985354,0.00081138882614773,1.3847168067932e-09,-6.2364326451459e-09,3.4401180745189e-09,-8.1234154690571e-09,-0.0021412501510956,0.0021412454601175,-0.0024438430455962,0.0024438447770057,-0.0024438459812194,0.0024438400457321,-0.0024438446624832,0.0024438413788292,-0.0024438475983008,0.0024438366477333,-0.0017930393583082,0.0017930435338533,-0.0017930520210305,0.0017930334327893,-0.0017930420373545,0.001793040813071,-0.0017930508387887,0.0017930346437416,2.8688051621094e-09,2.8688351792811e-09,-0.00085180172524678,0.00085180762391765,-3.0860821264859e-09,8.4926764013404e-09,-0.0010323785488794,0.0010323822738902,-0.0010323746994778,0.0010323861316559,-0.0010323781970227,0.0010323819218048,-0.0010323743556588,0.0010323857876069,-0.0008113797566364,0.0008113895975256,-0.00081137851827909,0.00081138835924682,0.69956539597858,122718,2924,0.0035467778218991,0.0088807050992621,0.0035467778219009,31.479390712148,0.00016703512569718,0.00016703512569718,0.00016703512569718,2723297.8612338,0.016103389662146
34919200,0.99999330088646,0.017254690961022,0.0046079792253505,0.0080387325103194,0.0046079792253521,-0.00085593905498701,0.00085594305087206,2.1114780703329e-09,2.1115027901828e-09,-1.8447955666588e-09,5.630796342331e-09,-0.0010358869183503,0.0010358903344751,-0.0010358866869643,0.0010358901028565,-0.0010358844148912,0.0010358928377599,-0.0010358841845621,0.0010358926071968,-0.00081560670541566,0.0008156135784676,-0.0008156078870178,0.00081561475998228,1.2780361106976e-09,-6.0198420950738e-09,3.3063569011251e-09,-7.8840076975649e-09,-0.0021444396167231,0.0021444350316954,-0.0024475654812722,0.0024475670736333,-0.0024475684466264,0.0024475626327977,-0.002447567144416,0.0024475639487714,-0.0024475701099652,0.0024475595081138,-0.0017957694691724,0.0017957734963149,-0.001795781841685,0.0017957638321899,-0.001795772115097,0.0017957708093512,-0.0017957806729158,0.001795765029186,2.2526972096649e-09,2.2527271517608e-09,-0.00085593891654298,0.00085594318931633,-3.5252328751143e-09,7.6669007787335e-09,-0.0010358874034623,0.0010358898488928,-0.0010358836858832,0.0010358935767359,-0.001035887164801,0.0010358896100015,-0.0010358834533303,0.0010358933439528,-0.00081560712355557,0.00081561552181922,-0.00081560592436257,0.00081561432270581,0.71680104395683,122718,2924,0.0035639458626944,0.0088938971129657,0.003563945862695,33.572768336218,0.00018378214668974,0.00018378214668974,0.00018378214668974,2717832.1858402,0.016151676702906
35419200,0.99999493544276,0.017254717387504,0.0046079869840608,0.0080387434193812,0.0046079869840623,-0.00086082450309028,0.00086082784155574,1.8600594727871e-09,1.8600842968236e-09,-1.936918018826e-09,5.2021651407788e-09,-0.0010413714094627,0.0010413743677389,-0.0010413712217378,0.0010413741797809,-0.0010413690150291,0.0010413767586305,-0.0010413688283781,0.0010413765717448,-0.00082033172532897,0.00082033795061612,-0.00082033289067445,0.0008203391158745,1.1683305655385e-09,-5.7992586369235e-09,3.1508915564846e-09,-7.6220855154019e-09,-0.0021496632796829,0.0021496588014547,-0.0024521590035623,0.0024521604519662,-0.0024521618938619,0.0024521562146336,-0.0024521606199057,0.0024521575009355,-0.0024521635103997,0.0024521532637809,-0.0018015591983851,0.0018015630329473,-0.0018015711925102,0.0018015538089211,-0.001801561787073,0.0018015604048379,-0.0018015700488846,0.0018015549796585,1.9970844664808e-09,1.9971144671825e-09,-0.00086082436884622,0.00086082797580059,-3.5808527168193e-09,7.1915759364856e-09,-0.0010413718828889,0.0010413738917493,-0.0010413683053769,0.0010413774800844,-0.0010413716883111,0.0010413736969428,-0.0010413681163387,0.0010413772908158,-0.00082033214560818,0.00082033985948027,-0.00082033096326994,0.00082033867722089,0.67521871271548,122718,2924,0.0035842304854959,0.0089154506682277,0.0035842304854976,35.928733082383,0.00020262986465907,0.00020262986465907,0.00020262986465907,2680665.6329125,0.016214811355642
35919200,0.99999625754726,0.01725473965072,0.0046079935566359,0.0080387525374467,0.0046079935566374,-0.00086387471852971,0.0008638796979961,2.4762846824031e-09,2.476309017493e-09,-1.2738344152054e-09,5.7962511020958e-09,-0.0010427567188314,0.0010427611093854,-0.001042756412856,0.0010427608031769,-0.0010427543417799,0.0010427634789978,-0.0010427540392546,0.0010427631762376,-0.00082360017381714,0.00082360769780525,-0.00082360137766532,0.00082360890156488,1.1431444636037e-09,-5.7409911828366e-09,3.0449137356814e-09,-7.4844335359283e-09,-0.0021507487139719,0.0021507442675711,-0.0024547617599785,0.0024547631499269,-0.0024547644212599,0.0024547588260321,-0.0024547631985738,0.0024547600585244,-0.0024547658600497,0.0024547557348075,-0.0018013326758311,0.0018013363237589,-0.0018013443657142,0.0018013272816812,-0.0018013351603924,0.0018013338028307,-0.0018013432722345,0.0018013284000968,2.6067348944207e-09,2.6067650329885e-09,-0.00086387459091342,0.00086387982561322,-2.8467795502506e-09,7.698349096975e-09,-0.0010427571712302,0.0010427606531976,-0.0010427536652035,0.0010427641680949,-0.0010427568588698,0.0010427603406087,-0.0010427533603294,0.001042763862991,-0.00082360066562452,0.00082360961215385,-0.00082359944499242,0.00082360839160035,0.70236607264369,122718,2924,0.0035968836925087,0.0089199876355176,0.0035968836925106,37.535857582129,0.00021548686065703,0.00021548686065703,0.00021548686065703,2705954.3389781,0.016245121329317
36419200,0.99999723260482,0.017254755836273,0.004607998327902,0.0080387591804678,0.0046079983279036,-0.00086368101577129,0.00086368986769696,3.9393550879043e-09,3.9393795718564e-09,-2.6214806602344e-11,7.5455646325329e-09,-0.0010438191974339,0.0010438267753344,-0.0010438186190022,0.0010438261966695,-0.0010438166499789,0.0010438293160522,-0.0010438160791643,0.0010438287450027,-0.00082309662363484,0.00082310743690345,-0.00082309792236316,0.00082310873554363,1.2904028852541e-09,-6.0557367163413e-09,3.1751914750212e-09,-7.7759955226744e-09,-0.0021523736433721,0.0021523690353034,-0.0024553973596777,0.0024553989178893,-0.0024553997974448,0.0024553940546504,-0.0024553985867333,0.0024553952742759,-0.0024554010246948,0.0024553904112147,-0.0018037973895866,0.0018038011236434,-0.0018038093190239,0.0018037915080954,-0.0018037998492623,0.0018037986286433,-0.0018038082418435,0.0018037926094534,4.0676240325066e-09,4.0676543223828e-09,-0.00086368089035012,0.00086368999311896,-1.5795295932787e-09,9.4226173322364e-09,-0.0010438196468613,0.0010438263246722,-0.0010438159803177,0.0010438299955011,-0.0010438190618813,0.0010438257394637,-0.0010438154074964,0.0010438294224499,-0.00082309721939139,0.00082310943667625,-0.00082309590314619,0.0008231081205092,0.69281234671732,122718,2924,0.0035960990513182,0.0089266597766251,0.00359609905132,37.488415198529,0.00021510732158824,0.00021510732158824,0.00021510732158824,2668637.2024973,0.016250321814525
36919200,0.9999979350478,0.017254767051974,0.0046080016275348,0.0080387637969028,0.0046080016275364,-0.0008619101559285,0.00086192040613529,4.4711848650094e-09,4.4712092897921e-09,2.793779618568e-10,8.3336837294473e-09,-0.0010418070758407,0.0010418157129476,-0.0010418064008712,0.0010418150377449,-0.0010418043704753,0.0010418184154487,-0.0010418037040426,0.0010418177487811,-0.00082143051126881,0.00082144261876208,-0.00082143184334759,0.00082144395075247,1.4432318538458e-09,-6.3710268139159e-09,3.3479682771026e-09,-8.1049331721492e-09,-0.0021509243611532,0.0021509195964642,-0.0024543824801762,0.002454384213912,-0.0024543849511954,0.002454379041726,-0.0024543837289402,0.0024543802732844,-0.0024543862001538,0.0024543751012763,-0.0018019290355867,0.0018019329470502,-0.0018019413936763,0.001801922778879,-0.0018019315182891,0.0018019304286402,-0.001801940309472,0.0018019238874941,4.6008706211949e-09,4.6009008545534e-09,-0.00086191002910115,0.00086192053296353,-1.2864776519908e-09,1.0226636774304e-08,-0.0010418075311461,0.00104181525914,-0.0010418036923341,0.0010418191006964,-0.0010418068492774,0.0010418145770428,-0.0010418030241944,0.0010418184323268,-0.00082143113369716,0.00082144465829079,-0.00082142978328476,0.00082144330795665,0.66632587864443,122718,2924,0.0035887513329158,0.0089206826158317,0.0035887513329177,36.861827617531,0.00021009462094024,0.00021009462094024,0.00021009462094024,2671231.0847219,0.016229309615326
37419200,0.99999847718296,0.017254775801097,0.0046080042056408,0.0080387673898141,0.0046080042056423,-0.00086336662586314,0.00086337358074236,3.2318531302671e-09,3.2318776104963e-09,-9.5297800287653e-10,7.0339972073313e-09,-0.0010422322742893,0.001042238087104,-0.0010422318351962,0.0010422376477756,-0.0010422295993396,0.0010422407633181,-0.0010422291645368,0.0010422403282762,-0.00082298959300949,0.0008229990286971,-0.0008229908440787,0.00082300027968194,1.4310842622993e-09,-6.3482262244582e-09,3.3590742666457e-09,-8.1055544671102e-09,-0.0021513634803552,0.0021513587260852,-0.0024557852025142,0.0024557869040878,-0.0024557879853187,0.0024557820709338,-0.002455786748181,0.0024557833182084,-0.0024557895311795,0.0024557784852301,-0.0018015258369049,0.0018015297946925,-0.0018015383512654,0.001801519745239,-0.0018015283500452,0.0018015272449128,-0.0018015372522774,0.0018015208692819,3.3638922705785e-09,3.3639222155957e-09,-0.00086336649668123,0.00086337370992483,-2.5393874389863e-09,8.9532416546408e-09,-0.0010422327351959,0.0010422376277723,-0.0010422289113239,0.0010422414585179,-0.0010422322890876,0.001042237181434,-0.0010422284747744,0.0010422410217374,-0.00082299012430116,0.00082300099746255,-0.0008229888548331,0.00082299972807636,0.67334139448533,122718,2924,0.0035947833218004,0.0089225300922579,0.0035947833218017,37.673746613431,0.00021658997290745,0.00021658997290745,0.00021658997290745,2686300.2243816,0.016243436804519
37919200,0.99999887703099,0.017254782042184,0.0046080060403221,0.0080387699615379,0.0046080060403236,-0.00086322971639176,0.00086323852530655,3.9297315672584e-09,3.9297561187946e-09,-3.3368126243192e-10,7.8424693536504e-09,-0.0010425421523911,0.0010425495079413,-0.0010425415814696,0.0010425489367867,-0.0010425394120255,0.0010425522492411,-0.001042538847396,0.0010425516843767,-0.00082268609985253,0.00082269708952995,-0.00082268739666263,0.0008226983862521,1.4870035652971e-09,-6.4632062232511e-09,3.4427040325785e-09,-8.2460805604875e-09,-0.0021521006344479,0.0021520958231602,-0.0024562370242185,0.0024562388177825,-0.0024562397051959,0.0024562337167609,-0.002456238450855,0.0024562349820605,-0.0024562411320268,0.0024562298812168,-0.0018025025283043,0.0018025065860742,-0.0018025151793571,0.0018024962404186,-0.001802505076246,0.0018025040005122,-0.0018025140645691,0.0018024973809553,4.0639905157617e-09,4.0640205290985e-09,-0.0008632295849788,0.00086323865672034,-1.9428581094302e-09,9.7899571451543e-09,-0.0010425426205755,0.001042549042377,-0.0010425387126696,0.0010425529548911,-0.0010425420424167,0.0010425484639897,-0.0010425381463611,0.0010425523883526,-0.00082268666600531,0.00082269911478417,-0.00082268535054809,0.00082269779940582,0.65161956753199,122718,2924,0.0035942233181702,0.0089255617948621,0.0035942233181721,37.676472217861,0.00021661177774289,0.00021661177774289,0.00021661177774289,2669602.1499667,0.016245385477684
38419200,0.99999916610549,0.017254786843553,0.0046080074604047,0.0080387719227421,0.0046080074604063,-0.00086192190036906,0.00086193185375868,4.363209561158e-09,4.3632339210953e-09,-1.9245633799907e-11,8.4142785462721e-09,-0.0010404861086643,0.0010404943824294,-0.0010404854558445,0.0010404937293763,-0.0010404832829041,0.0010404972106283,-0.0010404826373785,0.001040496564867,-0.00082145602743821,0.00082146802799913,-0.00082145735103152,0.0008214693515053,1.5615443995375e-09,-6.6326103290131e-09,3.5517575650679e-09,-8.4465520273982e-09,-0.0021504774865812,0.0021504725836561,-0.0024554381058038,0.0024554400014961,-0.0024554407795064,0.0024554346786387,-0.0024554395039287,0.002455435966261,-0.0024554421778254,0.0024554306435803,-0.0018001395010985,0.0018001436869585,-0.0018001524073058,0.0018001329922152,-0.0018001420922639,0.0018001410569488,-0.0018001512735372,0.0018001341525763,4.5007684295551e-09,4.5007984713501e-09,-0.00086192176565929,0.00086193198846897,-1.6556923342063e-09,1.0397019936656e-08,-0.0010404865854501,0.0010404939098079,-0.0010404825689334,0.001040497929545,-0.0010404859250769,0.0010404932492064,-0.0010404819218475,0.0010404972822306,-0.00082145660641092,0.00082147009383646,-0.00082145526368933,0.00082146875119458,0.69258613890843,122718,2924,0.0035887919669067,0.0089188841175139,0.0035887919669079,37.198126713818,0.00021278501371054,0.00021278501371054,0.00021278501371054,2686575.3155168,0.016227553268065
38880000,0.99999936797351,0.017254790243164,0.0046080084660787,0.0080387733110046,0.0046080084660803,-0.00086190060337151,0.00086190949638669,3.9667211794203e-09,3.9667455898194e-09,-4.6293968855992e-10,8.0564240940682e-09,-0.0010422191171361,0.0010422264342559,-0.0010422185457373,0.0010422258626239,-0.0010422162672705,0.0010422292896318,-0.001042215701252,0.0010422287233784,-0.00082107134022907,0.00082108251741594,-0.00082107264407318,0.00082108382117187,1.6047276420838e-09,-6.6871777683094e-09,3.6612170645083e-09,-8.5664839390312e-09,-0.0021527303185177,0.0021527254049812,-0.0024561921422614,0.0024561941217195,-0.00245619499005,0.002456188835468,-0.0024561936722332,0.0024561901673015,-0.0024561965202161,0.0024561848812276,-0.0018037004140239,0.0018037047868369,-0.001803713583809,0.0018036939001946,-0.0018037030904885,0.001803702069154,-0.0018037124087791,0.0018036951035202,4.1090804732871e-09,4.1091108382589e-09,-0.00086190046381106,0.00086190963594795,-2.1586126373951e-09,1.0110425615268e-08,-0.0010422196118617,0.0010422259446594,-0.0010422155265604,0.0010422300347207,-0.0010422190325515,0.0010422253651207,-0.0010422149589434,0.0010422294668738,-0.00082107187284186,0.00082108459014867,-0.00082107054979238,0.00082108326717717,0.70236789851151,122718,2924,0.0035887152613276,0.0089281330109635,0.0035887152613295,37.193679086629,0.00021274943269303,0.00021274943269303,0.00021274943269303,2637365.3948219,0.016236815907014
