time,ASR_ext,ASR_strain,ASR_strain_xx,ASR_strain_yy,ASR_strain_zz,disp_x_101,disp_x_102,disp_x_103,disp_x_104,disp_x_105,disp_x_106,disp_x_p1_neg,disp_x_p1_pos,disp_x_p2_neg,disp_x_p2_pos,disp_x_p3_neg,disp_x_p3_pos,disp_x_p4_neg,disp_x_p4_pos,disp_x_p5_neg,disp_x_p5_pos,disp_x_p6_neg,disp_x_p6_pos,disp_y_101,disp_y_102,disp_y_103,disp_y_104,disp_y_105,disp_y_106,disp_y_p1_neg,disp_y_p1_pos,disp_y_p2_neg,disp_y_p2_pos,disp_y_p3_neg,disp_y_p3_pos,disp_y_p4_neg,disp_y_p4_pos,disp_y_p5_neg,disp_y_p5_pos,disp_y_p6_neg,disp_y_p6_pos,disp_y_p7_neg,disp_y_p7_pos,disp_y_p8_neg,disp_y_p8_pos,disp_z_101,disp_z_102,disp_z_103,disp_z_104,disp_z_105,disp_z_106,disp_z_p1_neg,disp_z_p1_pos,disp_z_p2_neg,disp_z_p2_pos,disp_z_p3_neg,disp_z_p3_pos,disp_z_p4_neg,disp_z_p4_pos,disp_z_p5_neg,disp_z_p5_pos,disp_z_p6_neg,disp_z_p6_pos,humidity,ndof,nelem,strain_xx,strain_yy,strain_zz,temp,thermal_strain_xx,thermal_strain_yy,thermal_strain_zz,vonmises,vstrain
2419200,0,0,0,0,0,0,0,0,0,0,0,0,0,0,0,0,0,0,0,0,0,0,0,0,0,0,0,0,0,0,0,0,0,0,0,0,0,0,0,0,0,0,0,0,0,0,0,0,0,0,0,0,0,0,0,0,0,0,0,0,0,0,0,0,0,0,0,0,0,0,0,0,0,0,0
3419200,0.1597193282995,0.0026614135293561,0.0008871378431187,0.0008871378431187,0.0008871378431187,-0.00023248886146004,0.00023248885015465,-3.8534765022836e-12,-3.8535749431814e-12,-2.9723692508472e-12,-4.7631129975204e-12,-0.00024020443884683,0.00024020443058112,-0.00024020444017197,0.0002402044319062,-0.0002402044394417,0.00024020442997649,-0.00024020444075525,0.00024020443128998,-0.00023331346299652,0.0002333134537884,-0.00023331346329372,0.00023331345408541,-5.5462300150095e-13,1.1538171119734e-12,-6.8433127062002e-13,1.258768155791e-12,-0.00026596728718362,0.00026596728776043,-0.00027084910923072,0.00027084910851835,-0.00027084910995713,0.00027084911060704,-0.00027084911003484,0.00027084911052612,-0.00027084911076126,0.0002708491126148,-0.00025906811956118,0.00025906811882666,-0.00025906811822549,0.00025906812127085,-0.00025906811940445,0.00025906811898705,-0.00025906811828676,0.00025906812120764,-3.8711081410388e-12,-3.8710096771351e-12,-0.00023248886147766,0.00023248885013703,-2.8844373677125e-12,-4.8900065256518e-12,-0.00024020443881765,0.00024020443059711,-0.00024020443950481,0.0002402044299261,-0.00024020444014467,0.00024020443192419,-0.00024020444081684,0.00024020443123819,-0.00023331346334924,0.00023331345403163,-0.00023331346305583,0.00023331345373803,0.75746877217741,122718,2924,0.00096823753336371,0.0011075780203234,0.00096823753336371,31.872947284806,0.00017018357827845,0.00017018357827845,0.00017018357827845,2526199.3246543,0.0030486942352535
4419200,0.35031975437451,0.005641460787517,0.0017650397544574,0.0021113812786022,0.0017650397544574,-0.00042197172477125,0.00042197170546036,-7.1772480819095e-12,-7.1772516632569e-12,-5.9935055532548e-12,-8.8590099221515e-12,-0.00044687256201756,0.00044687254582886,-0.00044687256522624,0.00044687254903755,-0.00044687256299577,0.00044687254485632,-0.00044687256617535,0.00044687254803591,-0.00042315105649827,0.00042315103979216,-0.00042315105706922,0.00042315104036312,-5.1487916785367e-13,2.1292154024604e-12,-5.7081820895437e-13,2.1365294363746e-12,-0.0005775686587302,0.000577568660304,-0.00060644522515477,0.00060644522485076,-0.0006064452292012,0.00060644523078914,-0.00060644522923381,0.00060644523076158,-0.00060644523328022,0.00060644523669993,-0.00054123563578847,0.00054123563561026,-0.00054123563570988,0.00054123564082363,-0.00054123563572039,0.00054123563567557,-0.00054123563570745,0.00054123564082857,-7.1721381240446e-12,-7.172134197694e-12,-0.00042197172476574,0.00042197170546586,-5.9761838287451e-12,-8.8658338216824e-12,-0.00044687256200136,0.00044687254583534,-0.0004468725630009,0.000446872544861,-0.00044687256521084,0.00044687254904482,-0.0004468725661796,0.00044687254803971,-0.00042315105706928,0.00042315104036437,-0.00042315105650212,0.00042315103979722,0.73992840791513,122718,2924,0.0017567392312048,0.0024035924402506,0.0017567392312048,33.60662319956,0.00018405298559648,0.00018405298559648,0.00018405298559648,4450663.2834203,0.0059346384587504
5419200,0.55008893328354,0.0086160772466412,0.0025508566335999,0.0035143639794414,0.0025508566335999,-0.00058651308533291,0.00058651308351544,2.5786533930266e-14,2.5524228869057e-14,-3.3377297037663e-12,4.3184875437581e-12,-0.00063531251128178,0.00063531250750707,-0.00063531251297702,0.00063531250920214,-0.00063531250885032,0.00063531251007291,-0.00063531251052527,0.00063531251174771,-0.00058441637593021,0.00058441637713183,-0.00058441637576438,0.0005844163769655,2.5804701978185e-12,-5.1050142217903e-12,5.6193685380308e-12,-8.0368125985389e-12,-0.00093713550919262,0.00093713550676319,-0.001008132730997,0.0010081327356939,-0.0010081327364768,0.0010081327321017,-0.0010081327345594,0.0010081327341131,-0.0010081327400391,0.0010081327305209,-0.00085318196883099,0.00085318197723271,-0.00085318198055979,0.00085318196221114,-0.00085318197270431,0.00085318197324767,-0.00085318197872237,0.00085318196412639,4.3844653222999e-13,4.3870093622283e-13,-0.00058651308491615,0.00058651308393219,-5.7838545719189e-12,7.7104536843885e-12,-0.00063531251191517,0.00063531250695874,-0.00063531250742757,0.00063531251142997,-0.00063531251358594,0.00063531250862967,-0.00063531250910728,0.00063531251310985,-0.00058441637436521,0.00058441637835494,-0.00058441637451424,0.00058441637850346,0.72499638738019,122718,2924,0.002441130657472,0.0038969405428202,0.002441130657472,36.277814910778,0.00020542251928623,0.00020542251928623,0.00020542251928623,5254740.0748251,0.0088179471040296
6419200,0.70640588110858,0.010503957164253,0.0030054045712655,0.0044931480217216,0.0030054045712655,-0.00066662784700363,0.00066662784513715,-6.2314475012033e-14,-6.2364631769071e-14,-3.8043036542965e-12,2.805808931522e-12,-0.00073846090663412,0.00073846090311028,-0.00073846090738941,0.00073846090386554,-0.00073846090452074,0.00073846090533506,-0.00073846090525143,0.00073846090606573,-0.00065607609396495,0.00065607609541737,-0.0006560760932061,0.00065607609465845,9.6940479711358e-13,-5.6301585172279e-12,4.0864171333498e-12,-8.6275614339204e-12,-0.0011908194214047,0.0011908194168446,-0.0013080650910115,0.0013080650928398,-0.0013080650963555,0.0013080650897867,-0.0013080650943285,0.0013080650918507,-0.0013080650996725,0.0013080650887976,-0.0010573387923515,0.0010573387980856,-0.0010573388058747,0.001057338786684,-0.0010573387963757,0.0010573387939635,-0.0010573388039925,0.0010573387886369,3.1058924700582e-13,3.106323192194e-13,-0.00066662784663036,0.00066662784551041,-6.3290120059688e-12,6.2172002517044e-12,-0.00073846090730644,0.00073846090249564,-0.00073846090315924,0.00073846090666497,-0.00073846090803861,0.00073846090322783,-0.00073846090388691,0.00073846090739266,-0.00065607609183773,0.00065607609602689,-0.00065607609257942,0.0006560760967685,0.59839168540088,122718,2924,0.0027744188573343,0.0049491663335578,0.0027744188573342,36.740412351808,0.00020912329881447,0.00020912329881447,0.00020912329881447,5263198.1721599,0.010553481165723
7419200,0.83195334843895,0.011834486482647,0.0033292716450792,0.0051759431924891,0.0033292716450792,-0.00072102466272714,0.00072102465999674,-3.0990363375966e-13,-3.0999176428194e-13,-3.7901764939598e-12,2.6312153240603e-12,-0.00080927536651581,0.0008092753627417,-0.00080927536750102,0.00080927536372682,-0.00080927536445367,0.00080927536489755,-0.00080927536541687,0.00080927536586071,-0.00070337475588367,0.00070337475661895,-0.00070337475542191,0.00070337475615703,1.0291585305016e-12,-5.3757253929264e-12,4.1686094753714e-12,-8.3987387772367e-12,-0.0013794313729665,0.0013794313687218,-0.001536234623791,0.0015362346258428,-0.0015362346289257,0.0015362346226612,-0.0015362346268755,0.0015362346247342,-0.0015362346320102,0.0015362346215526,-0.0012050586192773,0.00120505862524,-0.0012050586323681,0.0012050586136945,-0.0012050586233417,0.0012050586210946,-0.0012050586304628,0.0012050586156588,3.0685827274923e-16,3.8884106234893e-16,-0.00072102466241974,0.00072102466030414,-6.4068206877905e-12,6.0007872347566e-12,-0.00080927536725688,0.00080927536204779,-0.0008092753631553,0.00080927536617089,-0.00080927536822294,0.0008092753630139,-0.00080927536411542,0.00080927536713105,-0.0007033747541098,0.0007033747574745,-0.00070337475455093,0.00070337475791544,0.52694121020036,122718,2924,0.0030007767628113,0.0057307737688113,0.0030007767628113,40.777849924571,0.00024142279939657,0.00024142279939657,0.00024142279939657,5017502.8950198,0.011801683931269
8419200,0.90771063640782,0.012556566072895,0.0035094275521985,0.005537710968498,0.0035094275521984,-0.00073789720799327,0.00073789720853488,7.5002650632272e-13,7.4984944612976e-13,-2.8577464992767e-12,3.9023265807193e-12,-0.00083828853546516,0.00083828853421803,-0.0008382885360996,0.00083828853485236,-0.00083828853328282,0.00083828853648713,-0.00083828853389949,0.00083828853710369,-0.00071654758811351,0.00071654759141515,-0.00071654758783694,0.00071654759113824,1.1281803878047e-12,-5.5847325373133e-12,4.297438069158e-12,-8.6341249981139e-12,-0.0014832139322678,0.0014832139279176,-0.0016620773497292,0.0016620773519278,-0.0016620773545484,0.001662077348162,-0.0016620773524782,0.001662077350253,-0.0016620773572974,0.0016620773464871,-0.0012853367766608,0.0012853367827641,-0.0012853367900011,0.0012853367707609,-0.0012853367807649,0.0012853367785811,-0.0012853367880782,0.0012853367727403,1.0450375012923e-12,1.0452046726559e-12,-0.00073789720770166,0.00073789720882647,-5.5163055982976e-12,7.2832396729833e-12,-0.00083828853623037,0.00083828853349782,-0.0008382885319928,0.00083828853775386,-0.00083828853684636,0.0008382885341139,-0.00083828853260605,0.00083828853836722,-0.00071654758653118,0.00071654759245048,-0.00071654758678614,0.00071654759270509,0.47156008474719,122718,2924,0.0030711472270335,0.006160529862628,0.0030711472270334,41.436037209994,0.00024668829767995,0.00024668829767995,0.00024668829767995,4580119.3837088,0.012379145986053
9419200,0.94964316115597,0.012903514466152,0.003598537735121,0.0057064389959096,0.003598537735121,-0.00073879182737332,0.00073879182926759,1.1892671723807e-12,1.1891029949801e-12,-2.5717088790737e-12,4.5649338973441e-12,-0.00084704713671231,0.00084704713646586,-0.00084704713721378,0.00084704713696722,-0.00084704713440404,0.00084704713886049,-0.00084704713488895,0.0008470471393453,-0.00071553337111915,0.00071553337556229,-0.00071553337097194,0.00071553337541477,1.2401961422709e-12,-5.8343907633671e-12,4.4604456188011e-12,-8.9303903591752e-12,-0.0015344271674199,0.0015344271629367,-0.00172475009682,0.0017247500991673,-0.0017247501015499,0.0017247500949997,-0.0017247500994473,0.0017247500971235,-0.0017247501041772,0.0017247500929558,-0.0013240148942756,0.001324014900574,-0.001324014907982,0.0013240148880373,-0.001324014898445,0.0013240148963252,-0.0013240149060303,0.0013240148900462,1.4815494749746e-12,1.4817098671336e-12,-0.00073879182708471,0.00073879182955618,-5.2790277881483e-12,7.9907176340062e-12,-0.00084704713749718,0.00084704713572617,-0.00084704713310131,0.00084704714013968,-0.00084704713798031,0.00084704713620939,-0.00084704713358272,0.00084704714062119,-0.00071553336965326,0.00071553337674027,-0.00071553336977814,0.00071553337686482,0.40621133923259,122718,2924,0.0030750465056401,0.0063724946682445,0.0030750465056401,41.144274718757,0.00024435419775005,0.00024435419775005,0.00024435419775005,4193288.7332994,0.012601698095115
10419200,0.97061138581429,0.013091892270287,0.0036490224349049,0.0057938474004767,0.0036490224349049,-0.00073320369744613,0.00073320370247954,2.2300049373799e-12,2.2298327663414e-12,-1.8549821716415e-12,6.0220810001474e-12,-0.00084513413646874,0.00084513413854197,-0.00084513413662204,0.0008451341386952,-0.0008451341339153,0.00084513414118547,-0.00084513413405434,0.00084513414132442,-0.00070949410435649,0.00070949411142446,-0.0007094941043627,0.00070949411143039,1.4558919058546e-12,-6.3302181750035e-12,4.7768447765534e-12,-9.5175677154277e-12,-0.0015559563861397,0.0015559563813853,-0.0017515802102379,0.0017515802128712,-0.0017515802147907,0.0017515802079082,-0.0017515802126254,0.0017515802100973,-0.0017515802171781,0.0017515802051341,-0.0013394120681345,0.0013394120748057,-0.0013394120825835,0.0013394120612453,-0.0013394120724308,0.0013394120704269,-0.0013394120805758,0.0013394120633124,2.5287702625102e-12,2.5289393014638e-12,-0.00073320369715114,0.00073320370277451,-4.6456366378131e-12,9.547880619812e-12,-0.00084513413728157,0.00084513413777789,-0.00084513413257355,0.00084513414250057,-0.00084513413741588,0.00084513413791233,-0.00084513413270931,0.00084513414263641,-0.00070949410300641,0.00070949411279333,-0.00070949410297654,0.00070949411276313,0.43665130715676,122718,2924,0.0030519354047379,0.0064615735024903,0.0030519354047379,38.087766239288,0.00021990212991431,0.00021990212991431,0.00021990212991431,4005265.8435412,0.012645117484759
11419200,0.98272672333291,0.013193002598971,0.0036763745579082,0.0058402534831543,0.0036763745579082,-0.00072940806840523,0.0007294080709179,1.385169263074e-12,1.3849842973321e-12,-2.7093619698222e-12,5.1819558418649e-12,-0.0008469942169646,0.00084699421696175,-0.00084699421743528,0.00084699421743231,-0.00084699421441285,0.0008469942196069,-0.00084699421486573,0.00084699422005967,-0.00070553678817984,0.00070553679333627,-0.00070553678814355,0.00070553679329963,1.490073273402e-12,-6.3321432632522e-12,4.9098582424951e-12,-9.6181821711369e-12,-0.0015729106063804,0.0015729106016583,-0.0017697751470766,0.0017697751498063,-0.0017697751520352,0.0017697751451203,-0.0017697751498065,0.0017697751473754,-0.0017697751547651,0.0017697751426894,-0.0013540838581565,0.0013540838650862,-0.0013540838728818,0.0013540838513333,-0.0013540838625806,0.0013540838605759,-0.0013540838708113,0.0013540838534656,1.689577428687e-12,1.6897503498749e-12,-0.00072940806810459,0.00072940807121853,-5.5906562387013e-12,8.8134616808065e-12,-0.00084699421780523,0.00084699421617002,-0.00084699421303344,0.00084699422096002,-0.00084699421825663,0.00084699421662152,-0.00084699421348277,0.00084699422140944,-0.00070553678674901,0.00070553679470116,-0.00070553678676182,0.00070553679471363,0.40445605707229,122718,2924,0.0030362635154231,0.0065316525601589,0.0030362635154231,37.626141270893,0.00021620913016715,0.00021620913016715,0.00021620913016715,3733977.4054697,0.012684372547948
12419200,0.98967523126531,0.01325840237699,0.0036945188498734,0.0058693646772434,0.0036945188498734,-0.00072688892746862,0.00072688893043334,1.5282420136232e-12,1.5280356684505e-12,-2.5926272823103e-12,5.3682348276403e-12,-0.00084590135054192,0.00084590135088352,-0.00084590135096359,0.00084590135130504,-0.00084590134796651,0.00084590135355212,-0.00084590134837061,0.00084590135395609,-0.00070301295010923,0.00070301295562617,-0.00070301295010731,0.00070301295562389,1.507372303752e-12,-6.3794605824465e-12,4.9987079987842e-12,-9.7361202740911e-12,-0.0015810046600778,0.0015810046553267,-0.0017797108916678,0.0017797108944616,-0.0017797108966177,0.0017797108896278,-0.0017797108943437,0.0017797108919305,-0.0017797108992936,0.0017797108870967,-0.0013598593220219,0.0013598593291033,-0.0013598593369246,0.0013598593151224,-0.0013598593265386,0.0013598593244978,-0.0013598593348092,0.0013598593173014,1.8387892380157e-12,1.838991643597e-12,-0.00072688892716186,0.00072688893074009,-5.5363284277904e-12,9.0774856090825e-12,-0.00084590135140038,0.00084590135007421,-0.00084590134655839,0.00084590135493414,-0.00084590135180244,0.00084590135047641,-0.00084590134695875,0.00084590135533462,-0.00070301294868326,0.00070301295705505,-0.00070301294866151,0.0007030129570329,0.45322610794666,122718,2924,0.0030258420736699,0.0065651330970583,0.0030258420736699,36.800802156485,0.00020960641725188,0.00020960641725188,0.00020960641725188,3638726.37413,0.012697177871382
13419200,0.9935555539934,0.013291869447708,0.0037038085924206,0.0058842522628666,0.0037038085924206,-0.00071961017633769,0.00071961018061211,1.9502103488831e-12,1.9499931160606e-12,-2.2476524001003e-12,5.9273883635307e-12,-0.00084252281535938,0.00084252281662597,-0.00084252281564923,0.00084252281691572,-0.00084252281271307,0.00084252281936656,-0.00084252281298616,0.00084252281963956,-0.00069581306706727,0.00069581307363486,-0.0006958130671354,0.00069581307370245,1.5931733884701e-12,-6.4978974054593e-12,5.1559359014621e-12,-9.9235618419975e-12,-0.0015849545061127,0.0015849545013312,-0.0017833278197879,0.0017833278227413,-0.0017833278246555,0.0017833278175894,-0.0017833278223362,0.0017833278199394,-0.0017833278272038,0.0017833278147875,-0.0013634146299522,0.0013634146372709,-0.0013634146451016,0.0013634146228633,-0.0013634146345601,0.0013634146325718,-0.0013634146429429,0.0013634146250873,2.263882119367e-12,2.2640908924009e-12,-0.00071961017602772,0.00071961018092208,-5.2558549078286e-12,9.7099823028272e-12,-0.00084252281623899,0.00084252281579676,-0.00084252281127818,0.00084252282077449,-0.000842522816509,0.00084252281606685,-0.00084252281154749,0.00084252282104395,-0.00069581306568504,0.00069581307515991,-0.0006958130655933,0.00069581307506768,0.4150894025916,122718,2924,0.0029956638133785,0.0065814020155451,0.0029956638133785,34.786205532842,0.00019348964426274,0.00019348964426274,0.00019348964426274,3469737.6726623,0.012652551497517
14419200,0.99579638975257,0.013309750508194,0.0037088113144173,0.0058921278793592,0.0037088113144172,-0.00071411527883237,0.00071411528329651,2.012137934979e-12,2.0119354313423e-12,-2.2667964807029e-12,6.0722190272886e-12,-0.00083671864102596,0.0008367186424196,-0.00083671864129081,0.00083671864268432,-0.00083671863832654,0.00083671864521502,-0.00083671863857434,0.00083671864546271,-0.00069025680006623,0.00069025680683227,-0.00069025680015129,0.00069025680691693,1.6350831375678e-12,-6.6169030346249e-12,5.2677049575824e-12,-1.0109926501626e-11,-0.0015834376222865,0.0015834376174304,-0.0017834233317302,0.0017834233347614,-0.0017834233366597,0.0017834233294747,-0.0017834233342966,0.0017834233318709,-0.001783423339226,0.0017834233265842,-0.0013601879397516,0.001360187947235,-0.0013601879551928,0.0013601879325335,-0.001360187944449,0.0013601879424436,-0.0013601879529917,0.0013601879348019,2.3333051308946e-12,2.3335010954963e-12,-0.00071411527851497,0.00071411528361389,-5.3329353471917e-12,9.9307693612429e-12,-0.00083671864192179,0.00083671864157533,-0.00083671863686203,0.00083671864665189,-0.00083671864216631,0.00083671864181994,-0.00083671863710607,0.00083671864689605,-0.00069025679867102,0.00069025680840418,-0.00069025679856176,0.00069025680829453,0.38312450045663,122718,2924,0.0029728492380666,0.0065751343944052,0.0029728492380666,32.634956992124,0.000176279655937,0.000176279655937,0.000176279655937,3458989.043985,0.012599997718043
15419200,0.99696272491385,0.013322202843335,0.0037123483224852,0.0058975061983647,0.0037123483224851,-0.00070196526900769,0.0007019652770624,3.1976649054439e-12,3.1974336216374e-12,-1.3714276626498e-12,7.638412151752e-12,-0.00082464728940985,0.00082464729346208,-0.0008246472892678,0.00082464729331983,-0.00082464728648798,0.00082464729648401,-0.00082464728633141,0.00082464729632727,-0.00067811621111129,0.00067811622081584,-0.00067811621133593,0.00067811622104004,1.8359102965536e-12,-7.056594455295e-12,5.5729119866583e-12,-1.064534773311e-11,-0.0015749476630016,0.0015749476579146,-0.0017758273362678,0.0017758273395846,-0.0017758273409543,0.0017758273334746,-0.0017758273385264,0.0017758273359387,-0.0017758273432129,0.0017758273298287,-0.0013506984311775,0.0013506984390342,-0.001350698447288,0.0013506984233616,-0.0013506984360063,0.0013506984341078,-0.001350698445028,0.0013506984256914,3.5284889570844e-12,3.5287121855591e-12,-0.00070196526868061,0.00070196527738947,-4.5217390992685e-12,1.1604537557818e-11,-0.00082464729033194,0.00082464729259566,-0.00082464728497952,0.00082464729796123,-0.00082464729016865,0.0008246472924325,-0.00082464728481947,0.00082464729780131,-0.00067811620981344,0.00067811622256922,-0.00067811620956349,0.00067811622231881,0.51103778709309,122718,2924,0.0029223857648377,0.0065399909996562,0.0029223857648376,27.046978017929,0.00013157582414343,0.00013157582414343,0.00013157582414343,3480117.5480669,0.012462224573232
16419200,0.99771211960737,0.013329474588924,0.0037143932718045,0.0059006880453148,0.0037143932718044,-0.00069184732568961,0.00069184733071683,2.18960801339e-12,2.1893516252551e-12,-2.3279572317693e-12,6.5544240609617e-12,-0.00082016794226647,0.000820167943849,-0.00082016794250008,0.00082016794408246,-0.00082016793939318,0.00082016794682484,-0.00082016793960864,0.00082016794704016,-0.00066831064166852,0.00066831064903391,-0.00066831064180194,0.00066831064916678,1.8528683373206e-12,-6.9386168241365e-12,5.6796810778771e-12,-1.0619269294495e-11,-0.0015757567128808,0.0015757567079267,-0.0017743315854692,0.0017743315888828,-0.0017743315906119,0.0017743315832045,-0.0017743315881255,0.001774331585729,-0.0017743315932682,0.0017743315800506,-0.0013528590841471,0.0013528590922594,-0.0013528591004053,0.0013528590765649,-0.0013528590890927,0.0013528590872134,-0.0013528590980865,0.0013528590789556,2.5211943615958e-12,2.5214330454807e-12,-0.00069184732536157,0.00069184733104485,-5.5679248448944e-12,1.061441844728e-11,-0.00082016794321815,0.00082016794295255,-0.00082016793785377,0.00082016794833382,-0.00082016794343046,0.00082016794316498,-0.00082016793806548,0.00082016794854566,-0.00066831064024811,0.00066831065072742,-0.00066831064009011,0.00066831065056889,0.46538451425637,122718,2924,0.0028804191545743,0.006543213654238,0.0028804191545743,24.407508038694,0.00011046006430955,0.00011046006430955,0.00011046006430955,3261940.4920924,0.012380540570242
17419200,0.99821547724353,0.013335011936475,0.0037159773214557,0.0059030572935638,0.0037159773214557,-0.00068569941721312,0.00068569942204451,2.1219996228975e-12,2.1217755461032e-12,-2.3587485962613e-12,6.4285938755758e-12,-0.00081249213254635,0.0008124921340557,-0.00081249213278866,0.00081249213429785,-0.00081249212970354,0.00081249213700021,-0.00081249212992752,0.00081249213722405,-0.00066210831532365,0.00066210832250654,-0.00066210831545808,0.00066210832264057,1.7972472129784e-12,-6.8994823431975e-12,5.6800797715796e-12,-1.063666458661e-11,-0.0015714287042499,0.001571428699279,-0.0017721222199571,0.0017721222233283,-0.0017721222251223,0.001772122217662,-0.0017721222226009,0.0017721222202242,-0.0017721222277661,0.0017721222145578,-0.0013464503010622,0.0013464503092068,-0.0013464503173697,0.0013464502935258,-0.0013464503060808,0.0013464503040848,-0.0013464503150146,0.0013464502959548,2.4623398360318e-12,2.4625582999461e-12,-0.0006856994168764,0.0006856994223812,-5.6437317937501e-12,1.0554414115849e-11,-0.00081249213350786,0.0008124921331492,-0.00081249212813862,0.00081249213853547,-0.00081249213372854,0.00081249213337,-0.00081249212835866,0.00081249213875565,-0.00066210831387734,0.0006621083242283,-0.00066210831371809,0.00066210832406865,0.52521873377382,122718,2924,0.0028548756554374,0.006525336148112,0.0028548756554374,21.970372465858,9.0962979726866e-05,9.0962979726866e-05,9.0962979726866e-05,3288547.6328426,0.012310715618555
18419200,0.99852821325637,0.013338316935966,0.0037169180871579,0.0059044807616504,0.0037169180871579,-0.0006732263947275,0.00067322640168839,2.8118759686046e-12,2.811586548247e-12,-1.7515909864212e-12,7.2783934736049e-12,-0.00080267391215059,0.00080267391521236,-0.00080267391216665,0.0008026739152282,-0.00080267390922588,0.00080267391823904,-0.0008026739092253,0.00080267391823824,-0.00064973148357196,0.00064973149243356,-0.00064973148380175,0.00064973149266271,1.8907296218608e-12,-7.032548395768e-12,5.8263501266501e-12,-1.0820139393345e-11,-0.0015661203574541,0.0015661203524458,-0.0017662893191563,0.0017662893226894,-0.0017662893241218,0.0017662893165905,-0.0017662893215669,0.0017662893191873,-0.0017662893265323,0.0017662893130884,-0.00134120678357,0.0013412067919202,-0.0013412068000762,0.0013412067757967,-0.0013412067886556,0.0013412067867297,-0.0013412067976894,0.0013412067782587,3.1527753613475e-12,3.1530541910647e-12,-0.0006732263943901,0.00067322640202577,-5.0857718978654e-12,1.145611148046e-11,-0.00080267391312954,0.0008026739142896,-0.00080267390764258,0.00080267391979172,-0.00080267391312369,0.00080267391428391,-0.000802673907638,0.00080267391978735,-0.00064973148220318,0.00064973149426815,-0.00064973148194858,0.0006497314940129,0.50516361584657,122718,2924,0.0028030907391312,0.0065033030536366,0.0028030907391312,17.468055183907,5.4944441471255e-05,5.4944441471255e-05,5.4944441471255e-05,3190526.4515031,0.012183589734292
19419200,0.99878733148069,0.013341869857257,0.0037179434086282,0.0059059830400005,0.0037179434086281,-0.00067236160803031,0.00067236161032964,1.2869753565804e-12,1.2866758544708e-12,-3.1246167638527e-12,5.4748273654291e-12,-0.00080107120419869,0.00080107120376641,-0.00080107120473513,0.00080107120430265,-0.0008010712014214,0.0008010712066459,-0.00080107120193689,0.0008010712071612,-0.0006488137805713,0.00064881378577653,-0.00064881378063344,0.00064881378583811,1.7487615765342e-12,-6.7793082497277e-12,5.6999535762132e-12,-1.0587298624118e-11,-0.0015667581324683,0.0015667581275668,-0.0017680819371493,0.0017680819405027,-0.0017680819426592,0.0017680819352224,-0.0017680819400937,0.001768081937831,-0.0017680819456036,0.0017680819325507,-0.0013407056941304,0.0013407057023792,-0.0013407057105138,0.0013407056868229,-0.0013407056992387,0.0013407056971649,-0.001340705708113,0.0013407056892995,1.6314153672627e-12,1.6317121523138e-12,-0.00067236160768943,0.00067236161067052,-6.4742651274092e-12,9.67644760762e-12,-0.00080107120517893,0.0008010712028402,-0.00080107119983054,0.00080107120820843,-0.00080107120569357,0.00080107120335502,-0.00080107120034178,0.00080107120871987,-0.0006488137790254,0.00064881378745358,-0.00064881377893886,0.00064881378736646,0.65325215552177,122718,2924,0.0027994984972898,0.0065059619370479,0.0027994984972899,17.551688956354,5.5613511650833e-05,5.5613511650833e-05,5.5613511650833e-05,3177802.1366931,0.012179004705216
20419200,0.99901286090491,0.013345183050902,0.003718897970272,0.0059073871103582,0.003718897970272,-0.00067008334091754,0.00067008334219235,9.3507730535371e-13,9.3474225173942e-13,-3.2437829873769e-12,4.8847378334357e-12,-0.00080347836350522,0.00080347836238204,-0.00080347836416369,0.00080347836304029,-0.00080347836088042,0.00080347836510368,-0.00080347836151805,0.0008034783657411,-0.00064676372789101,0.00064676373214243,-0.00064676372793966,0.00064676373219045,1.6225560202626e-12,-6.4442530148469e-12,5.5496839903753e-12,-1.0235213262437e-11,-0.0015733146177755,0.0015733146130763,-0.0017726077598646,0.0017726077630962,-0.001772607765348,0.0017726077581254,-0.0017726077627956,0.0017726077607192,-0.001772607768279,0.0017726077557483,-0.0013485384846441,0.0013485384927565,-0.0013485385005573,0.0013485384777142,-0.0013485384897244,0.0013485384875718,-0.0013485384981654,0.0013485384801811,1.2704320274089e-12,1.2707590174196e-12,-0.0006700833405856,0.00067008334252428,-6.5859507154911e-12,9.0589220300473e-12,-0.00080347836448556,0.00080347836145239,-0.00080347835930615,0.00080347836665257,-0.00080347836512293,0.00080347836208996,-0.00080347835993916,0.0008034783672858,-0.00064676372634686,0.00064676373379065,-0.00064676372627523,0.00064676373371837,0.70012779305903,122718,2924,0.002790089723734,0.0065329946828385,0.002790089723734,18.599612992588,6.3996903940707e-05,6.3996903940707e-05,6.3996903940707e-05,2958639.82315,0.01218734431829
21419200,0.99916620737567,0.013347279097722,0.0037195058871358,0.0059082673234508,0.0037195058871358,-0.00065950231887419,0.00065950232474625,2.4254244821528e-12,2.4250637000334e-12,-1.8663615280541e-12,6.6206190975723e-12,-0.00079385980183903,0.00079385980416641,-0.00079385980198937,0.00079385980431648,-0.00079385979909004,0.00079385980701103,-0.00079385979922362,0.00079385980714437,-0.00063624058458489,0.00063624059241219,-0.00063624058482266,0.00063624059264927,1.7286653963411e-12,-6.6607310486503e-12,5.6419332898696e-12,-1.0433388443615e-11,-0.0015690677903174,0.0015690677855122,-0.0017693755675003,0.001769375570865,-0.001769375572416,0.0017693755650988,-0.0017693755698738,0.0017693755676822,-0.0017693755747894,0.001769375561916,-0.0013429303964431,0.0013429304046143,-0.001342930412409,0.0013429303890694,-0.0013429304015032,0.0013429303994502,-0.0013429304100297,0.0013429303915231,2.7595313158596e-12,2.7598838345021e-12,-0.00065950231854354,0.00065950232507689,-5.1921058847292e-12,1.0775580051937e-11,-0.0007938598028162,0.00079385980324135,-0.00079385979752151,0.0007938598085526,-0.00079385980294537,0.00079385980337074,-0.00079385979765063,0.00079385980868194,-0.00063624058323669,0.00063624059424251,-0.00063624058297541,0.00063624059398054,0.64990944923706,122718,2924,0.0027461538277512,0.0065153955190247,0.0027461538277512,15.218210650419,3.694568520335e-05,3.694568520335e-05,3.694568520335e-05,2882420.5117842,0.012080597771652
22419200,0.99929320398483,0.013349061607179,0.0037200257271255,0.0059090101529275,0.0037200257271255,-0.00065784434019236,0.00065784434297942,1.4250741800355e-12,1.4246847371993e-12,-2.8090934212566e-12,5.4646131480547e-12,-0.00079021809173832,0.00079021809177709,-0.00079021809222615,0.00079021809226465,-0.00079021808906338,0.00079021809454823,-0.00079021808953173,0.00079021809501632,-0.00063438158461345,0.00063438159005285,-0.00063438158473745,0.00063438159017608,1.647228148899e-12,-6.5519067849216e-12,5.5479038682862e-12,-1.031418284997e-11,-0.0015680493668057,0.0015680493620258,-0.0017704931535394,0.0017704931567719,-0.0017704931588254,0.0017704931515412,-0.0017704931562913,0.0017704931541168,-0.0017704931615773,0.001770493148886,-0.001339996922857,0.0013399969309163,-0.0013399969387899,0.0013399969157468,-0.0013399969279021,0.001339996925767,-0.0013399969364169,0.0013399969181944,1.7614462772606e-12,1.7618298831888e-12,-0.00065784433985953,0.00065784434331223,-6.1214322591523e-12,9.6111392254484e-12,-0.00079021809270873,0.00079021809085761,-0.00079021808749777,0.00079021809608812,-0.00079021809317547,0.00079021809132458,-0.00079021808796151,0.0007902180965521,-0.00063438158315309,0.00063438159176802,-0.00063438158300571,0.00063438159161987,0.66642562144511,122718,2924,0.0027392536136771,0.0065112295024801,0.0027392536136771,14.858153796055,3.4065230368439e-05,3.4065230368439e-05,3.4065230368439e-05,2903223.3084924,0.012062404365624
23419200,0.99940599620058,0.013350554017652,0.0037204595057367,0.005909635006179,0.0037204595057367,-0.00065827783750666,0.00065827783902396,1.0069565212577e-12,1.0065722747528e-12,-3.0856168486557e-12,4.8721257775489e-12,-0.00079115437175316,0.00079115437089135,-0.00079115437238445,0.00079115437152238,-0.00079115436918158,0.00079115437355621,-0.00079115436979279,0.00079115437416716,-0.00063474691034361,0.00063474691471655,-0.00063474691042283,0.00063474691479503,1.5472737612605e-12,-6.346077955204e-12,5.410036197696e-12,-1.0074915453543e-11,-0.0015707126334145,0.0015707126287364,-0.0017732485665397,0.0017732485696397,-0.0017732485718847,0.0017732485647247,-0.0017732485693736,0.001773248567276,-0.0017732485747187,0.001773248562361,-0.0013425280224737,0.0013425280303687,-0.0013425280380947,0.0013425280156243,-0.0013425280274717,0.0013425280252678,-0.0013425280357419,0.0013425280180509,1.3391232965849e-12,1.3395077113118e-12,-0.00065827783717807,0.00065827783935253,-6.3693986545374e-12,8.9800644418499e-12,-0.00079115437271459,0.00079115436997867,-0.0007911543676328,0.00079115437508122,-0.00079115437332521,0.00079115437058953,-0.00079115436823919,0.00079115437568786,-0.00063474690885425,0.00063474691637142,-0.00063474690875222,0.00063474691626863,0.62875729639221,122718,2924,0.0027410631187004,0.0065222435217051,0.0027410631187004,15.707577900262,4.0860623202096e-05,4.0860623202096e-05,4.0860623202096e-05,2849272.7640992,0.012077217733408
24419200,0.9995124851438,0.013352040703646,0.0037208939161973,0.0059102528712515,0.0037208939161973,-0.00066269914163405,0.00066269914174553,5.4622179675493e-13,5.4583445906463e-13,-3.3890922596755e-12,4.2065764625648e-12,-0.00079438881996298,0.00079438881811403,-0.00079438882074872,0.00079438881889951,-0.00079438881750975,0.00079438882065725,-0.00079438881827472,0.00079438882142196,-0.00063906473113259,0.00063906473432631,-0.00063906473115204,0.000639064734345,1.4245588630575e-12,-6.1183006783493e-12,5.2286756793118e-12,-9.7932358821897e-12,-0.0015744806202136,0.0015744806156362,-0.0017779415551891,0.0017779415581116,-0.0017779415605877,0.0017779415535646,-0.0017779415581133,0.0017779415560778,-0.0017779415635119,0.0017779415515307,-0.0013455356634272,0.0013455356710874,-0.0013455356786681,0.0013455356568685,-0.0013455356683514,0.0013455356660621,-0.0013455356763484,0.0013455356592607,8.7489464021635e-13,8.7527512859269e-13,-0.00066269914130903,0.00066269914207054,-6.6231319913934e-12,8.2558622164661e-12,-0.00079438882090763,0.00079438881721569,-0.0007943888159843,0.00079438882216111,-0.00079438882167316,0.00079438881798146,-0.00079438881674427,0.00079438882292132,-0.00063906472960545,0.00063906473589972,-0.00063906472956368,0.00063906473585721,0.66255127740754,122718,2924,0.002759424062294,0.006537869650528,0.002759424062294,17.886371128695,5.8290969029557e-05,5.8290969029557e-05,5.8290969029557e-05,2850853.3524524,0.01213019303928
25419200,0.99960956416134,0.013353637320465,0.0037213623255149,0.0059109126694356,0.0037213623255149,-0.00066575465224689,0.00066575465247757,5.7895794190876e-13,5.7857169359809e-13,-3.2503150212837e-12,4.140508098555e-12,-0.00079865424062297,0.00079865423892777,-0.00079865424139492,0.00079865423969946,-0.00079865423823474,0.00079865424140287,-0.00079865423898674,0.00079865424215468,-0.00064213636397878,0.00064213636718398,-0.00064213636401211,0.00064213636721666,1.3608566032355e-12,-5.9764430120037e-12,5.0957987974329e-12,-9.585230530728e-12,-0.0015796036899006,0.0015796036853985,-0.0017824557978922,0.0017824558007127,-0.0017824558031594,0.0017824557962553,-0.0017824558007282,0.0017824557987228,-0.0017824558059954,0.0017824557942653,-0.0013511166028536,0.0013511166103213,-0.0013511166177518,0.0013511165964304,-0.0013511166076895,0.0013511166053869,-0.0013511166154733,0.0013511165987793,8.998392311174e-13,9.0021517551491e-13,-0.00066575465192963,0.00066575465279476,-6.4277699007476e-12,8.1145595138652e-12,-0.00079865424155176,0.00079865423804366,-0.00079865423673939,0.0007986542428779,-0.00079865424230407,0.00079865423879622,-0.0007986542374864,0.00079865424362505,-0.00064213636249535,0.00064213636874126,-0.00064213636244021,0.00064213636868544,0.77991302017261,122718,2924,0.002772133188462,0.0065590480121078,0.0027721331884619,19.931081936615,7.4648655492921e-05,7.4648655492921e-05,7.4648655492921e-05,2776340.6781465,0.012177362390339
26419200,0.99968914601114,0.013355030265002,0.0037217721835708,0.0059114858978601,0.0037217721835708,-0.00066353169238485,0.00066353169427053,1.1119777798421e-12,1.1116196463378e-12,-2.7375646633963e-12,4.7569330319023e-12,-0.00079961476749505,0.00079961476704402,-0.0007996147680895,0.00079961476763822,-0.00079961476507023,0.00079961476955481,-0.00079961476564651,0.00079961477013087,-0.000640106020011,0.00064010602448648,-0.00064010602012847,0.00064010602460324,1.4001079335461e-12,-6.0278818229363e-12,5.0865046107757e-12,-9.5872260580013e-12,-0.0015834397706184,0.001583439766105,-0.0017849588034228,0.0017849588062732,-0.0017849588084458,0.0017849588015623,-0.0017849588060453,0.0017849588039969,-0.0017849588110683,0.0017849587992859,-0.0013557393804897,0.0013557393879038,-0.0013557393952862,0.0013557393739314,-0.0013557393852624,0.0013557393830351,-0.0013557393930395,0.0013557393762471,1.4257807669057e-12,1.426127300437e-12,-0.00066353169207473,0.00066353169458065,-5.8745585068583e-12,8.6738447359899e-12,-0.00079961476841469,0.00079961476616907,-0.00079961476359707,0.00079961477100705,-0.00079961476898983,0.00079961476674444,-0.00079961476416841,0.00079961477157862,-0.00064010601863515,0.00064010602610472,-0.00064010601849592,0.00064010602596481,0.82922923068302,122718,2924,0.00276293750791,0.0065748519506949,0.0027629375079099,20.395173349061,7.8361386792485e-05,7.8361386792485e-05,7.8361386792485e-05,2628739.9480763,0.012174759515469
27419200,0.9997585598862,0.013356126480133,0.00372209572694,0.0059119350262535,0.00372209572694,-0.00066507891744429,0.00066507891786014,6.309962768057e-13,6.3062819099739e-13,-3.1741257311671e-12,4.1915349514844e-12,-0.00080177314867499,0.00080177314712339,-0.00080177314943379,0.00080177314788183,-0.00080177314629406,0.00080177314958981,-0.00080177314703382,0.00080177315032912,-0.00064165244819692,0.00064165245152056,-0.00064165244826283,0.00064165245158606,1.3603288840628e-12,-5.9499651738246e-12,5.0088529241579e-12,-9.4731351316361e-12,-0.0015882187306313,0.0015882187261546,-0.0017901816423269,0.0017901816451002,-0.0017901816474969,0.001790181640674,-0.0017901816451201,0.0017901816430839,-0.0017901816502902,0.0017901816386574,-0.0013598823143471,0.0013598823216529,-0.0013598823290294,0.0013598823079378,-0.0013598823190716,0.0013598823168336,-0.0013598823268056,0.0013598823102301,9.4146397421595e-13,9.4183434525431e-13,-0.00066507891713767,0.0006650789181671,-6.2788130983345e-12,8.0683358956341e-12,-0.00080177314958517,0.00080177314625709,-0.00080177314483707,0.00080177315102722,-0.00080177315032491,0.0008017731469972,-0.00080177314557155,0.000801773151762,-0.00064165244678473,0.00064165245307161,-0.0006416524466976,0.00064165245298387,0.74718867332314,122718,2924,0.0027693824054256,0.0065946209312682,0.0027693824054262,22.256950462263,9.3255603698103e-05,9.3255603698103e-05,9.3255603698103e-05,2545313.6726142,0.012207818077163
28419200,0.99981560243963,0.013357152687841,0.0037224013568855,0.0059123499740699,0.0037224013568855,-0.00066758190537206,0.00066758190649712,8.6309644733422e-13,8.6274356803517e-13,-2.946575816852e-12,4.4339688394132e-12,-0.00080165606996518,0.00080165606897815,-0.00080165607064023,0.00080165606965296,-0.00080165606757753,0.00080165607145023,-0.00080165606823411,0.00080165607210658,-0.00064393122907627,0.00064393123294427,-0.00064393122916671,0.00064393123303405,1.3530188132628e-12,-5.9663937895888e-12,4.9645375132574e-12,-9.4521173619499e-12,-0.0015893375610406,0.0015893375565406,-0.0017934755599984,0.0017934755627366,-0.0017934755650467,0.0017934755582252,-0.0017934755626942,0.0017934755606102,-0.0017934755677425,0.0017934755560988,-0.0013591653700838,0.0013591653772966,-0.0013591653846839,0.0013591653636305,-0.0013591653747602,0.0013591653725265,-0.0013591653824839,0.0013591653658976,1.1725968838525e-12,1.1729462702378e-12,-0.0006675819050664,0.00066758190680277,-6.0155771988341e-12,8.2718706888153e-12,-0.00080165607086359,0.00080165606812304,-0.00080165606613388,0.00080165607287389,-0.00080165607151976,0.00080165606877945,-0.00080165606678551,0.00080165607352574,-0.00064393122770237,0.00064393123450678,-0.00064393122759009,0.00064393123439383,0.8493285419621,122718,2924,0.0027797606642569,0.0065993168976037,0.0027797606642568,23.444427182391,0.00010275541745913,0.00010275541745913,0.00010275541745913,2589794.0390628,0.012233567809729
29419200,0.99986195134821,0.013357748622498,0.0037225764153687,0.0059125957917603,0.0037225764153687,-0.00066812520773193,0.00066812520869502,8.0599126722592e-13,8.0566542110838e-13,-2.9900945774573e-12,4.376445773174e-12,-0.00080488869373059,0.00080488869260603,-0.00080488869443091,0.00080488869330613,-0.00080488869134797,0.00080488869507309,-0.0008048886920298,0.00080488869575473,-0.00064454107247255,0.00064454107620471,-0.00064454107257063,0.00064454107630217,1.3577668446843e-12,-5.9491459047351e-12,4.9446337095402e-12,-9.4106795102007e-12,-0.0015941673657029,0.0015941673612244,-0.0017968767924433,0.0017968767951772,-0.0017968767974916,0.0017968767907072,-0.0017968767951542,0.0017968767930756,-0.0017968768002025,0.0017968767886056,-0.0013650914303613,0.0013650914375401,-0.0013650914448932,0.0013650914239257,-0.0013650914350061,0.0013650914328031,-0.0013650914427087,0.0013650914261769,1.1110473670891e-12,1.1113683278722e-12,-0.00066812520743071,0.00066812520899622,-6.0404404098683e-12,8.185311111184e-12,-0.00080488869462527,0.00080488869175449,-0.00080488868991621,0.00080488869648487,-0.00080488869530698,0.00080488869243641,-0.00080488869059314,0.00080488869716205,-0.00064454107111857,0.00064454107776219,-0.00064454107099888,0.00064454107764188,0.60881578646039,122718,2924,0.0027820470849455,0.0066192446213462,0.0027820470849454,24.783777902461,0.00011347022321968,0.00011347022321968,0.00011347022321968,2466199.472287,0.012258383343448
30419200,0.9998988190468,0.013358150381872,0.0037226951245029,0.0059127601328663,0.0037226951245029,-0.00067407543946623,0.00067407544041314,8.1018242595361e-13,8.0983075672214e-13,-3.0024041076596e-12,4.3577522854237e-12,-0.00080401692643292,0.00080401692533632,-0.00080401692712112,0.00080401692602428,-0.00080401692405132,0.00080401692780146,-0.00080401692472103,0.00080401692847095,-0.00065017324671269,0.00065017325045153,-0.00065017324678445,0.00065017325052262,1.3313315346178e-12,-5.968823980054e-12,4.8923928936966e-12,-9.4042018845583e-12,-0.001592345178616,0.0015923451740917,-0.0017993308170187,0.0017993308196861,-0.0017993308220592,0.0017993308152468,-0.0017993308197391,0.001799330817598,-0.0017993308247795,0.0017993308131586,-0.0013598788387686,0.001359878845846,-0.0013598788532835,0.00135987883233,-0.00135987884338,0.0013598788411429,-0.0013598788511156,0.0013598788345639,1.1177646471749e-12,1.1181096072249e-12,-0.00067407543916261,0.00067407544071676,-6.0238719454353e-12,8.142713653316e-12,-0.00080401692731598,0.00080401692449592,-0.00080401692262674,0.00080401692920647,-0.00080401692798553,0.00080401692516569,-0.00080401692329156,0.00080401692987152,-0.00065017324533872,0.00065017325197667,-0.00065017324524495,0.00065017325188222,0.51512748248588,122718,2924,0.0028067025064447,0.0066118642579584,0.0028067025064447,26.13452374476,0.00012427618995808,0.00012427618995808,0.00012427618995808,2674133.3305055,0.012300793025257
31419200,0.99992866588689,0.013358569757846,0.0037228191933576,0.0059129313711307,0.0037228191933576,-0.00068160056173529,0.00068160056162589,4.6658963019825e-13,4.662310905712e-13,-3.2759057064176e-12,3.9140186941215e-12,-0.00081003980780585,0.00081003980591188,-0.00081003980861364,0.00081003980671943,-0.00081003980548113,0.00081003980831939,-0.00081003980626959,0.00081003980910762,-0.00065746661009649,0.00065746661298573,-0.00065746661011291,0.00065746661300147,1.2805887906562e-12,-5.8590782150647e-12,4.8097138900716e-12,-9.2647996137902e-12,-0.0015950781317785,0.0015950781273111,-0.0018019785688354,0.0018019785714248,-0.0018019785739614,0.0018019785672254,-0.0018019785716611,0.0018019785695558,-0.0018019785767871,0.0018019785653564,-0.0013631864151118,0.001363186422084,-0.0013631864294544,0.0013631864088286,-0.0013631864196829,0.0013631864174224,-0.0013631864273048,0.0013631864110433,7.7115701521194e-13,7.715094456219e-13,-0.00068160056143466,0.0006816005619265,-6.2715442321581e-12,7.665679556803e-12,-0.000810039808681,0.00081003980507841,-0.00081003980406986,0.0008100398097119,-0.00081003980947034,0.00081003980586798,-0.00081003980485338,0.00081003981049564,-0.0006574666086802,0.0006574666144426,-0.00065746660864205,0.00065746661440375,0.66479676253864,122718,2924,0.0028379382724818,0.0066232096943353,0.0028379382724818,28.445480076631,0.00014276384061305,0.00014276384061305,0.00014276384061305,2746510.1235262,0.01237551556459
32419200,0.99995046508184,0.013358930498886,0.0037229256954847,0.0059130791079163,0.0037229256954847,-0.00068093140410086,0.00068093140555918,9.7241518308953e-13,9.7207721239983e-13,-2.7987004041973e-12,4.5208560380101e-12,-0.00081495099555321,0.00081495099484105,-0.00081495099619362,0.00081495099548124,-0.00081495099318421,0.00081495099729299,-0.00081495099380698,0.00081495099791555,-0.00065712855933535,0.00065712856343041,-0.00065712855944192,0.00065712856353633,1.3345907879911e-12,-5.921703154857e-12,4.8485281749101e-12,-9.3111229045279e-12,-0.001600234913944,0.001600234909469,-0.0018034270060165,0.0018034270086779,-0.0018034270109352,0.0018034270042016,-0.0018034270086441,0.0018034270065214,-0.0018034270135628,0.001803427002045,-0.0013712917477207,0.0013712917547255,-0.0013712917620492,0.0013712917412946,-0.0013712917522713,0.0013712917500854,-0.0013712917599104,0.001371291743498,1.2719163644164e-12,1.272235884067e-12,-0.00068093140380524,0.00068093140585478,-5.784360438818e-12,8.2509644331856e-12,-0.00081495099642875,0.00081495099400799,-0.00081495099178171,0.00081495099867579,-0.00081495099705088,0.00081495099463032,-0.00081495099239964,0.00081495099929391,-0.00065712855801933,0.00065712856496698,-0.00065712855789113,0.00065712856483814,0.7835582016357,122718,2924,0.0028352112359254,0.0066444214457527,0.0028352112359254,29.298069704337,0.0001495845576347,0.0001495845576347,0.0001495845576347,2559974.7347734,0.012391496698653
33419200,0.99996561470734,0.013359190162239,0.0037230029410699,0.0059131842800989,0.0037230029410699,-0.0006778979591976,0.00067789796156935,1.2659306391879e-12,1.2655882155667e-12,-2.5795995111821e-12,4.930565433434e-12,-0.00081484759607725,0.00081484759599719,-0.00081484759662487,0.00081484759654458,-0.00081484759364571,0.00081484759851307,-0.00081484759417626,0.00081484759904339,-0.00065436598980954,0.00065436599465121,-0.00065436598996544,0.00065436599480646,1.4032359850451e-12,-6.0368288731394e-12,4.9222826276445e-12,-9.4289647163061e-12,-0.0016027842755305,0.0016027842710112,-0.0018048597118345,0.0018048597145817,-0.0018048597166823,0.0018048597099021,-0.0018048597143883,0.0018048597122248,-0.0018048597192362,0.0018048597075452,-0.0013743461996414,0.0013743462067269,-0.0013743462140966,0.0013743461930491,-0.0013743462041973,0.0013743462020813,-0.0013743462119567,0.0013743461952535,1.5648082255946e-12,1.5651470975952e-12,-0.00067789795890258,0.00067789796186436,-5.5688481696287e-12,8.6630899763052e-12,-0.00081484759695542,0.0008148475951625,-0.00081484759224169,0.00081484759989628,-0.00081484759748469,0.00081484759569198,-0.00081484759276749,0.00081484760042229,-0.00065436598854239,0.00065436599623775,-0.00065436598836472,0.00065436599605941,0.80945760226261,122718,2924,0.0028226488780524,0.0066549040415368,0.0028226488780524,29.317375146554,0.00014973900117243,0.00014973900117243,0.00014973900117243,2429162.1822729,0.012376686139606
34419200,0.99997708237182,0.01335936862366,0.003723056205446,0.0059132562127682,0.003723056205446,-0.00068077356314936,0.00068077356319179,5.0516083606557e-13,5.0478783381738e-13,-3.2741784503605e-12,4.0350484085115e-12,-0.00081765778716823,0.00081765778534379,-0.00081765778797309,0.00081765778614839,-0.0008176577848056,0.00081765778779073,-0.0008176577855914,0.0008176577885763,-0.00065718274946703,0.00065718275248663,-0.00065718274953302,0.00065718275255189,1.3401390008499e-12,-5.91650234315e-12,4.8578237144671e-12,-9.3096011863094e-12,-0.0016074091424738,0.0016074091380096,-0.0018102121801186,0.0018102121827812,-0.0018102121852388,0.0018102121785136,-0.0018102121829453,0.0018102121808359,-0.0018102121880654,0.0018102121765682,-0.0013781694868246,0.0013781694938524,-0.0013781695012181,0.0013781694804659,-0.0013781694913801,0.0013781694892072,-0.0013781694990771,0.0013781694826716,8.0424803371581e-13,8.0460161114955e-13,-0.00068077356285413,0.00068077356348702,-6.2637625581182e-12,7.7685994181865e-12,-0.00081765778804547,0.00081765778450889,-0.00081765778340224,0.00081765778917442,-0.00081765778883212,0.00081765778529575,-0.00081765778418314,0.00081765778995556,-0.00065718274810966,0.00065718275398357,-0.00065718274802224,0.00065718275389541,0.73398852679868,122718,2924,0.0028346035826682,0.0066740502282515,0.0028346035826681,31.489045066835,0.00016711236053468,0.00016711236053468,0.00016711236053468,2375366.4689975,0.012420273375237
35419200,0.99998607708242,0.013359492537595,0.0037230932166839,0.0059133061042273,0.0037230932166839,-0.00069060285380313,0.00069060285127041,-3.3374909095907e-13,-3.3408713712901e-13,-3.9194552357594e-12,2.9158385996029e-12,-0.00082500410359576,0.00082500409989097,-0.00082500410468685,0.00082500410098183,-0.00082500410138981,0.00082500410217796,-0.00082500410245998,0.00082500410324795,-0.00066676441440065,0.00066676441533089,-0.00066676441434523,0.00066676441527483,1.1850809730603e-12,-5.6192187190783e-12,4.6655835872711e-12,-8.9810239888231e-12,-0.0016143648508627,0.0016143648465353,-0.0018187978844028,0.0018187978868612,-0.0018187978897327,0.0018187978831659,-0.001818797887462,0.0018187978854647,-0.0018187978927919,0.0018187978817694,-0.0013838867948483,0.001383886801658,-0.001383886808861,0.0013838867889056,-0.0013838867993584,0.001383886797059,-0.0013838868067383,0.0013838867910921,-3.6500884923021e-14,-3.6164762838379e-14,-0.00069060285350981,0.00069060285156373,-6.8796172147694e-12,6.6152219168643e-12,-0.00082500410446157,0.00082500409906455,-0.0008250041000014,0.00082500410354949,-0.00082500410553486,0.00082500410013806,-0.00082500410106642,0.00082500410461472,-0.00066676441293509,0.00066676441669409,-0.00066676441296966,0.00066676441672798,0.64952121200817,122718,2924,0.0028754152185841,0.006702899885955,0.0028754152185841,35.943761951842,0.00020275009561474,0.00020275009561474,0.00020275009561474,2403063.4531508,0.012532110819871
36419200,0.99999183194812,0.013359575702408,0.0037231181081214,0.0059133394861657,0.0037231181081214,-0.00069501209385493,0.00069501209450926,7.0282109547444e-13,7.0249090097181e-13,-2.9241756445442e-12,4.0709483117941e-12,-0.00082743862001652,0.00082743861878421,-0.00082743862074205,0.00082743861950952,-0.00082743861775199,0.00082743862112743,-0.0008274386184599,0.00082743862183512,-0.00067099512463357,0.00067099512801227,-0.00067099512471248,0.00067099512809051,1.2242750404144e-12,-5.713770418824e-12,4.6701279778548e-12,-9.0392689741847e-12,-0.001615944668655,0.0016159446642738,-0.0018213961897587,0.0018213961922562,-0.001821396194645,0.001821396188048,-0.0018213961923968,0.0018213961903232,-0.001821396197283,0.0018213961861149,-0.001384814635067,0.0013848146418303,-0.0013848146490065,0.0013848146288927,-0.0013848146395314,0.0013848146372785,-0.0013848146469072,0.0013848146310547,9.9724775535385e-13,9.975697161064e-13,-0.00069501209356449,0.00069501209479969,-5.8519202866757e-12,7.7307292841924e-12,-0.00082743862087345,0.00082743861796707,-0.00082743861637775,0.00082743862248428,-0.00082743862158129,0.00082743861867511,-0.00082743861708063,0.00082743862318736,-0.00067099512331682,0.00067099512949477,-0.00067099512321677,0.00067099512939406,0.6811981079479,122718,2924,0.0028937098209776,0.0067094852669473,0.0028937098209776,37.485516758909,0.00021508413407127,0.00021508413407127,0.00021508413407127,2458622.0014703,0.012575818212312
37419200,0.99999522979942,0.013359622865991,0.0037231321717054,0.00591335852258,0.0037231321717054,-0.0006948612594772,0.00069486126164268,1.1977688042058e-12,1.1974476185042e-12,-2.5514858590055e-12,4.7423218017948e-12,-0.00082876534953375,0.00082876534939605,-0.00082876535009499,0.00082876534995707,-0.00082876534717074,0.00082876535183985,-0.00082876534771547,0.00082876535238437,-0.00067090022197188,0.00067090022658619,-0.00067090022212266,0.00067090022673636,1.320507541754e-12,-5.9043727137018e-12,4.7634799495456e-12,-9.2232813527329e-12,-0.0016172672502812,0.0016172672458091,-0.0018216575531607,0.0018216575557648,-0.0018216575579175,0.0018216575512331,-0.0018216575556717,0.0018216575535056,-0.0018216575604285,0.0018216575489739,-0.0013870464388713,0.001387046445717,-0.001387046453005,0.0013870464324336,-0.0013870464433302,0.0013870464411711,-0.0013870464509109,0.0013870464345902,1.4908936601044e-12,1.4912031212388e-12,-0.00069486125918806,0.00069486126193181,-5.4746597234916e-12,8.3944718993148e-12,-0.00082876535039147,0.00082876534857979,-0.000828765345798,0.00082876535319336,-0.00082876535093492,0.00082876534912343,-0.00082876534633792,0.00082876535373348,-0.00067090022073003,0.00067090022813732,-0.0006709002205577,0.00067090022796437,0.65495763090949,122718,2924,0.0028930956601192,0.0067149236272542,0.0028930956601191,37.681073040058,0.00021664858432046,0.00021664858432046,0.00021664858432046,2410555.2909781,0.012580089568195
38419200,0.99999718267274,0.013359653072103,0.0037231412269265,0.0059133706182496,0.0037231412269265,-0.00069380939150123,0.0006938093944464,1.4568401783561e-12,1.4565169718925e-12,-2.4361933498625e-12,5.1675390764048e-12,-0.00082739538002822,0.00082739538041576,-0.00082739538050353,0.00082739538089084,-0.00082739537756444,0.00082739538296326,-0.00082739537802341,0.00082739538342205,-0.00066986818936791,0.00066986819467832,-0.00066986818955054,0.00066986819486032,1.4169736830149e-12,-6.1106643822212e-12,4.8864040766508e-12,-9.4518852513936e-12,-0.0016162093104335,0.0016162093058554,-0.0018209079570783,0.0018209079597973,-0.0018209079618379,0.0018209079550322,-0.001820907959576,0.0018209079573214,-0.0018209079643355,0.0018209079525563,-0.0013856808906364,0.0013856808976196,-0.0013856809050807,0.0013856808839582,-0.0013856808951278,0.0013856808930404,-0.0013856809029735,0.0013856808861285,1.7522576462023e-12,1.752574518875e-12,-0.00069380939120977,0.00069380939473786,-5.3792260506895e-12,8.8451695779608e-12,-0.00082739538089296,0.00082739537959438,-0.00082739537618045,0.00082739538432631,-0.00082739538135011,0.00082739538005175,-0.00082739537663479,0.00082739538478085,-0.00066986818814773,0.00066986819627136,-0.000669868187943,0.00066986819606603,0.72891346290552,122718,2924,0.0028887244967409,0.0067105524460792,0.0028887244967409,37.19440218833,0.00021275521750664,0.00021275521750664,0.00021275521750664,2420630.6183602,0.012566809210861
38880000,0.99999786468495,0.013359663857768,0.0037231444586618,0.0059133749404441,0.0037231444586618,-0.00069250202419509,0.00069250202661998,1.2854955010537e-12,1.2851747264724e-12,-2.6539469586686e-12,5.0447240342024e-12,-0.00082812523157406,0.00082812523149714,-0.00082812523211688,0.00082812523203974,-0.00082812522908155,0.00082812523407551,-0.00082812522960718,0.00082812523460093,-0.00066867973977023,0.00066867974471818,-0.000668679739937,0.00066867974488432,1.4593722407092e-12,-6.1683720310568e-12,4.9633933129178e-12,-9.5429794685278e-12,-0.0016176773799795,0.0016176773753872,-0.0018212044064778,0.0018212044092651,-0.001821204411367,0.0018212044045249,-0.0018212044090831,0.001821204406837,-0.0018212044139723,0.0018212044020967,-0.0013880166390787,0.0013880166461817,-0.001388016653693,0.001388016632358,-0.0013880166436142,0.0013880166415572,-0.001388016651565,0.00138801663455,1.5830646972837e-12,1.5833792023817e-12,-0.00069250202390147,0.00069250202691358,-5.6275851399604e-12,8.7583896306831e-12,-0.00082812523244859,0.00082812523066675,-0.00082812522768383,0.00082812523545162,-0.00082812523297311,0.00082812523119147,-0.00082812522820483,0.00082812523597282,-0.00066867973852084,0.00066867974630867,-0.00066867973833189,0.0006686797461191,0.74537476942469,122718,2924,0.0028833149252768,0.0067165800146383,0.0028833149252768,37.19361367695,0.0002127489094156,0.0002127489094156,0.0002127489094156,2346967.2085317,0.012561967948251
