time,ASR_ext,ASR_strain,ASR_strain_xx,ASR_strain_yy,ASR_strain_zz,disp_x_101,disp_x_102,disp_x_103,disp_x_104,disp_x_105,disp_x_106,disp_x_p10_neg,disp_x_p10_pos,disp_x_p11_neg,disp_x_p11_pos,disp_x_p12_neg,disp_x_p12_pos,disp_x_p13_neg,disp_x_p13_pos,disp_x_p14_neg,disp_x_p14_pos,disp_x_p15_neg,disp_x_p15_pos,disp_x_p16_neg,disp_x_p16_pos,disp_x_p1_neg,disp_x_p1_pos,disp_x_p2_neg,disp_x_p2_pos,disp_x_p3_neg,disp_x_p3_pos,disp_x_p4_neg,disp_x_p4_pos,disp_x_p5_neg,disp_x_p5_pos,disp_x_p6_neg,disp_x_p6_pos,disp_x_p7_neg,disp_x_p7_pos,disp_x_p8_neg,disp_x_p8_pos,disp_x_p9_neg,disp_x_p9_pos,disp_y_101,disp_y_102,disp_y_103,disp_y_104,disp_y_105,disp_y_106,disp_y_p10_neg,disp_y_p10_pos,disp_y_p11_neg,disp_y_p11_pos,disp_y_p12_neg,disp_y_p12_pos,disp_y_p1_neg,disp_y_p1_pos,disp_y_p2_neg,disp_y_p2_pos,disp_y_p3_neg,disp_y_p3_pos,disp_y_p4_neg,disp_y_p4_pos,disp_y_p5_neg,disp_y_p5_pos,disp_y_p6_neg,disp_y_p6_pos,disp_y_p7_neg,disp_y_p7_pos,disp_y_p8_neg,disp_y_p8_pos,disp_y_p9_neg,disp_y_p9_pos,disp_z_101,disp_z_102,disp_z_103,disp_z_104,disp_z_105,disp_z_106,disp_z_p10_neg,disp_z_p10_pos,disp_z_p11_neg,disp_z_p11_pos,disp_z_p12_neg,disp_z_p12_pos,disp_z_p13_neg,disp_z_p13_pos,disp_z_p14_neg,disp_z_p14_pos,disp_z_p15_neg,disp_z_p15_pos,disp_z_p16_neg,disp_z_p16_pos,disp_z_p1_neg,disp_z_p1_pos,disp_z_p2_neg,disp_z_p2_pos,disp_z_p3_neg,disp_z_p3_pos,disp_z_p4_neg,disp_z_p4_pos,disp_z_p5_neg,disp_z_p5_pos,disp_z_p6_neg,disp_z_p6_pos,disp_z_p7_neg,disp_z_p7_pos,disp_z_p8_neg,disp_z_p8_pos,disp_z_p9_neg,disp_z_p9_pos,humidity,ndof,nelem,strain_xx,strain_yy,strain_zz,temp,thermal_strain_xx,thermal_strain_yy,thermal_strain_zz,vonmises,vstrain
14391759,0,0,0,0,0,0,0,0,0,0,0,0,0,0,0,0,0,0,0,0,0,0,0,0,0,0,0,0,0,0,0,0,0,0,0,0,0,0,0,0,0,0,0,0,0,0,0,0,0,0,0,0,0,0,0,0,0,0,0,0,0,0,0,0,0,0,0,0,0,0,0,0,0,0,0,0,0,0,0,0,0,0,0,0,0,0,0,0,0,0,0,0,0,0,0,0,0,0,0,0,0,0,0,0,0,0,0,0,0,0,0,0,0,0,0,0,0,0,0,0,0,0,0
15391759,0.10043145373035,0.0015472428344396,0.00051574761147987,0.00051574761147987,0.00051574761147987,-0.00015220257200143,0.00015220257176295,-5.9524405834967e-14,-5.9561616095278e-14,-9.0288896147964e-14,-5.1443112271762e-14,-0.00013629655992238,0.00013629655894973,-0.000149344771582,0.0001493447714086,-0.00014934477274664,0.00014934477257321,-0.00013629655903999,0.00013629655799477,-0.000136296559954,0.0001362965589087,-0.00014934477162123,0.00014934477137313,-0.00014934477278134,0.0001493447725332,-0.00015812766694891,0.00015812766689576,-0.00015812766740214,0.00015812766734896,-0.00015812766693514,0.00015812766690796,-0.00015812766739042,0.00015812766736322,-0.00015109493382162,0.00015109493374412,-0.00015109493409246,0.00015109493401488,-0.00015109493383642,0.00015109493373353,-0.00015109493410286,0.00015109493399991,-0.00013629655899942,0.00013629655802684,1.2041411554907e-14,-2.5066285712766e-14,1.8337195693612e-13,-1.9585714537512e-13,-0.00015834161288789,0.00015834161287535,-0.00015605950985381,0.00015605950948482,-0.00015695332661542,0.00015695332676708,-0.0001569533267446,0.00015695332682369,-0.00015940239029131,0.00015940239042407,-0.00015940239078504,0.00015940239065354,-0.00015940239029701,0.0001594023904037,-0.00015940239079074,0.00015940239063317,-0.00015605950877855,0.00015605950912269,-0.00015605950986197,0.00015605950946768,-0.0001569533266298,0.00015695332652496,-0.00015695332675898,0.00015695332658157,-0.00015605950877038,0.00015605950913982,-4.7792524650636e-13,-4.7788766280847e-13,-0.0001496165884492,0.00014961658573369,-8.1474549979013e-13,-4.248563462979e-13,-0.00014503189557184,0.0001450318935676,-0.00014443608133687,0.00014443607807899,-0.00014443608129286,0.00014443607803496,-0.0001450318961546,0.00014503189341608,-0.00014503189593983,0.00014503189320123,-0.00014443608171232,0.00014443607770297,-0.00014443608166902,0.00014443607765964,-0.00015526223902761,0.000155262237965,-0.00015526223889571,0.00015526223809654,-0.00015526223903397,0.0001552622379714,-0.00015526223890241,0.00015526223810326,-0.00015139287174425,0.00015139287115669,-0.00015139287170718,0.00015139287111954,-0.00015139287183598,0.00015139287099151,-0.00015139287187236,0.00015139287102794,-0.00014503189578808,0.00014503189378394,0.70055894083924,122718,2924,0.00063397633358691,0.00065953801804551,0.00062320778903945,27.177385441457,0.00013261908353166,0.00013261908353166,0.00013261908353166,1084990.5475444,0.001918563527375
16391759,0.1893036893601,0.0030074547578262,0.0010012723353881,0.0010196537726217,0.00098652864981634,-0.00026012591764053,0.00026012591749217,-4.0826293225943e-14,-4.0862100955571e-14,-5.6812411478651e-14,-4.2235834724241e-14,-0.00022179384567538,0.00022179384502015,-0.0002564575730508,0.00025645757297155,-0.00025645757433005,0.00025645757425077,-0.00022179384528776,0.00022179384460629,-0.00022179384568388,0.00022179384500236,-0.00025645757306748,0.00025645757295964,-0.00025645757434133,0.00025645757423346,-0.00027263985231116,0.00027263985225491,-0.00027263985287118,0.0002726398528149,-0.00027263985230547,0.00027263985225915,-0.00027263985286728,0.00027263985282093,-0.00026043445443349,0.000260434454385,-0.00026043445503792,0.00026043445498937,-0.0002604344544395,0.00026043445438173,-0.00026043445504106,0.00026043445498323,-0.00022179384527036,0.0002217938446152,-9.6986743003929e-16,-1.4260534938682e-14,1.2179411750861e-13,-1.3670588255266e-13,-0.00027673436185497,0.00027673436184002,-0.00027323538849183,0.00027323538822843,-0.00027530921147412,0.00027530921155899,-0.00027530921149085,0.00027530921154962,-0.00027669827632745,0.00027669827640512,-0.00027669827737177,0.00027669827727344,-0.00027669827638319,0.0002766982764519,-0.00027669827742752,0.00027669827732022,-0.00027323538743954,0.00027323538767323,-0.00027323538858006,0.00027323538830767,-0.00027530921160652,0.00027530921151727,-0.00027530921162325,0.00027530921150789,-0.00027323538735131,0.00027323538759398,-4.608485543922e-13,-4.6081242893043e-13,-0.0002510686423625,0.00025106864022247,-5.5739643377818e-13,-2.8958332346501e-13,-0.00024634566431457,0.00024634566329333,-0.00024066589071914,0.00024066588885361,-0.00024066589065387,0.00024066588878831,-0.00024634566470071,0.00024634566317777,-0.00024634566456603,0.00024634566304303,-0.00024066589098054,0.00024066588859166,-0.00024066589091586,0.00024066588852695,-0.0002627752557393,0.00026277525458277,-0.00026277525564864,0.00026277525467323,-0.00026277525576008,0.00026277525460358,-0.00026277525566964,0.00026277525469424,-0.00026036016637145,0.00026036016555092,-0.00026036016635723,0.00026036016553662,-0.00026036016644509,0.00026036016544929,-0.00026036016645884,0.00026036016546311,-0.0002463456644503,0.00024634566342915,0.7587163515091,122718,2924,0.0010832757061467,0.0011523918929146,0.0010455741838605,24.446637917166,0.00011077310333733,0.00011077310333733,0.00011077310333733,1520982.8598157,0.0032866373239443
17391759,0.26853986163678,0.0041685224124652,0.0013832887595024,0.0014413504313198,0.001343883221643,-0.0003440397965129,0.00034403979644626,-1.6430873048107e-14,-1.6465202881707e-14,-2.2561898984767e-14,-1.9028403989437e-14,-0.00027010366138478,0.000270103661135,-0.00033802356234047,0.00033802356232938,-0.00033802356323082,0.00033802356321969,-0.00027010366146651,0.00027010366121103,-0.00027010366138526,0.00027010366112972,-0.00033802356234543,0.00033802356232705,-0.00033802356323285,0.00033802356321444,-0.00036687711035836,0.00036687711031508,-0.00036687711069939,0.00036687711065608,-0.00036687711035669,0.00036687711031599,-0.00036687711069862,0.00036687711065788,-0.00034435981656604,0.00034435981653808,-0.00034435981688902,0.00034435981686098,-0.00034435981656765,0.00034435981653758,-0.00034435981688944,0.0003443598168593,-0.00027010366146138,0.00027010366121168,-3.4715851219281e-15,-6.3760405104568e-15,7.5527288281422e-14,-8.5310540880359e-14,-0.00037654663734192,0.00037654663733215,-0.00037171197828515,0.00037171197811844,-0.00037290560946621,0.0003729056095129,-0.00037290560944726,0.00037290560948829,-0.00037587943805992,0.00037587943810555,-0.00037587943873049,0.00037587943866736,-0.00037587943808807,0.00037587943813185,-0.00037587943875866,0.00037587943869367,-0.00037171197822526,0.00037171197837246,-0.00037171197833455,0.00037171197816598,-0.00037290560954442,0.0003729056094836,-0.00037290560952548,0.00037290560945899,-0.00037171197817587,0.00037171197832492,-2.3219548484157e-13,-2.3216420074156e-13,-0.00032617165066285,0.00032617164949262,-2.3570381135889e-13,-6.8792024369994e-14,-0.00031805917673528,0.00031805917647197,-0.00030593077072276,0.00030593077022844,-0.00030593077067565,0.00030593077018128,-0.00031805917687383,0.0003180591762981,-0.00031805917689169,0.00031805917631587,-0.00030593077088729,0.00030593077006361,-0.00030593077084039,0.00030593077001668,-0.00034761225036085,0.00034761224948637,-0.00034761225030442,0.00034761224954276,-0.00034761225037293,0.00034761224949847,-0.00034761225031657,0.00034761224955493,-0.00034423114961097,0.00034423114910927,-0.00034423114961683,0.00034423114911505,-0.00034423114967119,0.00034423114906088,-0.00034423114966517,0.00034423114905493,-0.00031805917671773,0.00031805917645454,0.68097528185715,122718,2924,0.0014324915991255,0.0015677034566317,0.0013581342877517,22.112985073814,9.210388059051e-05,9.210388059051e-05,9.210388059051e-05,2051480.9221427,0.004367858960912
18391759,0.32557568544849,0.0049042105243817,0.001626075899526,0.0017134109929777,0.001564723631878,-0.00039154765859601,0.00039154765859735,1.4630582457513e-15,1.4334267980306e-15,5.9092312417477e-15,-6.7157507207783e-15,-0.00029334773677158,0.00029334773680191,-0.00038388674231549,0.00038388674235159,-0.00038388674279683,0.0003838867428329,-0.00029334773722537,0.00029334773728068,-0.00029334773675834,0.00029334773681361,-0.00038388674230416,0.0003838867423643,-0.00038388674278426,0.00038388674284437,-0.00042233847187579,0.00042233847185217,-0.00042233847203955,0.0004223384720159,-0.0004223384718797,0.00042233847184788,-0.00042233847204371,0.00042233847201188,-0.00039059840723971,0.00039059840723409,-0.00039059840738951,0.00039059840738382,-0.00039059840723542,0.00039059840723829,-0.00039059840738533,0.00039059840738813,-0.00029334773723695,0.00029334773726735,-7.4331405697167e-15,5.1772977194615e-15,4.023222681544e-15,-6.4814269968543e-15,-0.00043428577292923,0.00043428577292683,-0.00042652160205327,0.00042652160203539,-0.00042751231033589,0.00042751231032431,-0.00042751231028322,0.00042751231029638,-0.00043551038412165,0.00043551038411796,-0.00043551038452493,0.0004355103845151,-0.00043551038413504,0.00043551038414011,-0.00043551038453833,0.00043551038453725,-0.00042652160241102,0.00042652160242398,-0.00042652160208532,0.00042652160207609,-0.00042751231039246,0.0004275123103746,-0.00042751231033978,0.00042751231034667,-0.00042652160237898,0.00042652160238327,-7.073632871364e-14,-7.07116752848e-14,-0.00036663161977973,0.00036663161940162,8.2381026514718e-15,2.1671770846689e-14,-0.00035597374255827,0.00035597374281324,-0.00033978847462247,0.0003397884749797,-0.00033978847459209,0.00033978847494927,-0.00035597374246881,0.00035597374270441,-0.00035597374256783,0.00035597374280337,-0.00033978847463818,0.00033978847496391,-0.00033978847460773,0.00033978847493342,-0.00039516177892791,0.00039516177841547,-0.00039516177892321,0.00039516177842026,-0.00039516177893462,0.00039516177842219,-0.00039516177892987,0.00039516177842693,-0.0003903865639051,0.00039038656361746,-0.00039038656392527,0.00039038656363757,-0.00039038656392876,0.000390386563634,-0.00039038656390868,0.00039038656361397,-0.00035597374245901,0.00035597374271406,0.60484717275765,122718,2924,0.0016301521157124,0.0018078675013089,0.0015264814228181,17.508423115718,5.5267384925744e-05,5.5267384925744e-05,5.5267384925744e-05,2452534.2904263,0.0049768767763132
19391759,0.38433109622947,0.0058151155982614,0.0019251980153835,0.0020551833638355,0.0018347342190424,-0.00046139496348263,0.00046139496346686,-2.4306610390914e-15,-2.4608071769711e-15,2.9139845091853e-15,-9.1536909492602e-15,-0.00033323772872702,0.00033323772873991,-0.00045583451117563,0.00045583451120368,-0.00045583451158904,0.00045583451161706,-0.00033323772931218,0.0003332377293492,-0.00033323772871402,0.00033323772875099,-0.00045583451116487,0.00045583451121598,-0.00045583451157712,0.00045583451162821,-0.00049909155765158,0.00049909155762472,-0.00049909155779686,0.00049909155776999,-0.00049909155765518,0.00049909155762052,-0.00049909155780085,0.00049909155776619,-0.00046199100440712,0.00046199100439203,-0.00046199100446282,0.00046199100444765,-0.00046199100440332,0.00046199100439632,-0.00046199100445857,0.00046199100445153,-0.000333237729323,0.00033323772933592,-5.4969203081519e-15,6.5723874533689e-15,3.8767786258976e-15,-3.0835160948176e-15,-0.00051804943880012,0.000518049438801,-0.00051024275519825,0.00051024275518763,-0.00050883440242137,0.00050883440241262,-0.00050883440238277,0.00050883440239776,-0.00051799156866389,0.000517991568664,-0.00051799156895277,0.00051799156894638,-0.00051799156865753,0.00051799156866566,-0.00051799156894639,0.00051799156894804,-0.00051024275574872,0.00051024275576091,-0.00051024275519671,0.00051024275519432,-0.00050883440250891,0.00050883440249599,-0.00050883440247035,0.00050883440248113,-0.00051024275575025,0.0005102427557542,-9.7178883704704e-14,-9.7156246097784e-14,-0.00042738715479128,0.00042738715419598,-4.8358745559547e-14,-3.7310109282655e-14,-0.00041852462288062,0.00041852462296577,-0.00039461393107568,0.00039461393116768,-0.00039461393104609,0.00039461393113807,-0.00041852462276571,0.00041852462283905,-0.00041852462288637,0.00041852462295967,-0.00039461393108831,0.00039461393115495,-0.00039461393105867,0.00039461393112524,-0.00046220719625147,0.00046220719566445,-0.00046220719624725,0.00046220719566874,-0.0004622071962532,0.00046220719566623,-0.00046220719624896,0.00046220719567046,-0.00046142583911587,0.00046142583878384,-0.00046142583913805,0.00046142583880596,-0.0004614258391407,0.00046142583880326,-0.0004614258391186,0.00046142583878118,-0.00041852462275973,0.00041852462284492,0.73021614767058,122718,2924,0.0019206932364501,0.0021561760901272,0.0017792243529871,17.480203302254,5.5041626418034e-05,5.5041626418034e-05,5.5041626418034e-05,2623251.4819262,0.0058733116736255
20391759,0.44884015153829,0.0068583716307735,0.0022630375435462,0.0024609207041237,0.0021344133831036,-0.00054034163320837,0.00054034163318871,-4.6096165323203e-15,-4.6234764030284e-15,-1.5778194457578e-15,-9.6928950651798e-15,-0.00036352469995408,0.00036352469995818,-0.00053354944103098,0.00053354944105802,-0.00053354944148037,0.00053354944150739,-0.00036352470057007,0.00036352470059056,-0.00036352469994486,0.00036352469996536,-0.00053354944102412,0.00053354944106652,-0.00053354944147231,0.00053354944151471,-0.00058972105738938,0.00058972105735913,-0.00058972105754428,0.00058972105751402,-0.00058972105739164,0.00058972105735622,-0.000589721057547,0.00058972105751157,-0.00054401854958244,0.00054401854956463,-0.00054401854960974,0.00054401854959188,-0.00054401854958001,0.00054401854956764,-0.00054401854960679,0.00054401854959439,-0.00036352470057698,0.00036352470058107,-3.3684559195133e-15,4.7439433110823e-15,1.0767215186614e-14,-9.6668664485715e-15,-0.00062212984252374,0.00062212984252494,-0.0006161411386717,0.00061614113864969,-0.00061169366199098,0.00061169366199097,-0.00061169366196219,0.00061169366197816,-0.000617476839584,0.00061747683959048,-0.00061747683987639,0.00061747683986702,-0.0006174768395752,0.00061747683958694,-0.00061747683986759,0.00061747683986348,-0.00061614113914361,0.00061614113916781,-0.00061614113866721,0.00061614113865077,-0.00061169366206702,0.00061169366205375,-0.00061169366203823,0.00061169366204093,-0.00061614113914809,0.00061614113916672,-1.1577010005038e-13,-1.1575341693757e-13,-0.00049338500499892,0.00049338500430465,-8.9453162028333e-14,-6.4629250804575e-14,-0.00048183471143303,0.00048183471144427,-0.00044825493371199,0.00044825493365439,-0.00044825493367893,0.0004482549336213,-0.00048183471132941,0.00048183471130262,-0.00048183471145191,0.00048183471142511,-0.00044825493373793,0.00044825493362835,-0.00044825493370484,0.0004482549335952,-0.00053995547887285,0.00053995547825413,-0.00053995547886398,0.00053995547826305,-0.0005399554788723,0.0005399554782536,-0.00053995547886341,0.00053995547826249,-0.00054261961599814,0.00054261961564736,-0.0005426196160242,0.00054261961567338,-0.00054261961603145,0.00054261961566611,-0.00054261961600544,0.00054261961564011,-0.00048183471131036,0.00048183471132161,0.76377140340812,122718,2924,0.0022490125651012,0.0025887873478951,0.0020537187772311,18.602605304018,6.4020842432144e-05,6.4020842432144e-05,6.4020842432144e-05,2775112.1422583,0.0069153747281524
21391759,0.49901144493835,0.0075910142567801,0.0025001704426116,0.0027509489155985,0.0023398948985699,-0.00058777217848146,0.00058777217854993,1.6823478701333e-14,1.6821118479318e-14,3.2376849144777e-14,7.9004939394509e-15,-0.00037501338486577,0.00037501338522303,-0.0005784003900451,0.00057840039013563,-0.00057840039008263,0.00057840039017315,-0.0003750133857413,0.00037501338614567,-0.00037501338484283,0.00037501338524722,-0.00057840039002186,0.00057840039015928,-0.00057840039005976,0.00057840039019718,-0.00064735805704966,0.00064735805703938,-0.00064735805704172,0.00064735805703145,-0.00064735805705765,0.00064735805703127,-0.00064735805704944,0.00064735805702306,-0.00059202197562921,0.00059202197563908,-0.00059202197556627,0.00059202197557612,-0.00059202197562067,0.00059202197564669,-0.00059202197555882,0.00059202197558482,-0.00037501338576503,0.00037501338612226,-8.2196312488487e-15,1.5547495622916e-14,-6.7653389117755e-14,7.4474077809221e-14,-0.00068841962318868,0.00068841962319563,-0.00068131210474257,0.00068131210487928,-0.00067585467446982,0.00067585467440555,-0.00067585467439262,0.00067585467437495,-0.00068253506116852,0.00068253506111883,-0.0006825350612824,0.00068253506132961,-0.00068253506115761,0.00068253506112414,-0.0006825350612715,0.00068253506133492,-0.00068131210560179,0.00068131210547865,-0.00068131210473459,0.00068131210488751,-0.00067585467452226,0.00067585467455441,-0.00067585467444506,0.00067585467452381,-0.00068131210560974,0.00068131210547041,4.8592922861014e-14,4.859216443979e-14,-0.00053010306497048,0.00053010306526774,2.1327665458137e-13,7.1455216908349e-14,-0.00051500214828022,0.00051500214898325,-0.00047503094996731,0.00047503095108734,-0.0004750309499491,0.00047503095106911,-0.00051500214794391,0.00051500214892417,-0.00051500214814117,0.00051500214912143,-0.00047503094983248,0.00047503095122229,-0.00047503094981399,0.00047503095120374,-0.00058650329557604,0.00058650329534864,-0.00058650329562345,0.00058650329530139,-0.00058650329557317,0.00058650329534577,-0.00058650329562046,0.00058650329529839,-0.00058971847562961,0.00058971847547033,-0.0005897184756706,0.00058971847551132,-0.00058971847562269,0.00058971847555891,-0.00058971847558201,0.00058971847551821,-0.00051500214808226,0.00051500214878527,0.6908403174145,122718,2924,0.0024462323838374,0.0028642129670361,0.0022064152569673,15.31462645945,3.7717011675598e-05,3.7717011675598e-05,3.7717011675598e-05,2965264.5894712,0.0075452585508614
22391759,0.54632838664351,0.008280479900976,0.0027229521866467,0.0030262609748071,0.0025312667395222,-0.00063831929756163,0.00063831929759674,7.637766671471e-15,7.6245464871032e-15,1.9690780813104e-14,-2.3901622763008e-15,-0.00039551358655691,0.00039551358677635,-0.00062750363242666,0.00062750363248908,-0.00062750363259823,0.00062750363266062,-0.00039551358730568,0.00039551358756815,-0.00039551358653531,0.00039551358679782,-0.00062750363240596,0.00062750363251091,-0.00062750363257723,0.00062750363268215,-0.00070651457124799,0.00070651457123034,-0.00070651457127548,0.00070651457125782,-0.00070651457125494,0.0007065145712229,-0.00070651457128257,0.00070651457125048,-0.00064280848758013,0.00064280848757775,-0.0006428084875187,0.00064280848751628,-0.00064280848757285,0.00064280848758501,-0.0006428084875116,0.00064280848752375,-0.0003955135873267,0.00039551358754604,-6.5014484440363e-15,1.5033570146516e-14,-7.1640340848528e-14,7.9665345690138e-14,-0.00075501085493847,0.00075501085494662,-0.00074633415049941,0.00074633415064752,-0.00073976750789668,0.00073976750783313,-0.00073976750784154,0.00073976750782034,-0.00074910556493138,0.00074910556488252,-0.00074910556499589,0.00074910556504663,-0.00074910556490987,0.00074910556487525,-0.00074910556497439,0.00074910556503938,-0.0007463341513399,0.00074633415120775,-0.00074633415047377,0.00074633415063652,-0.00073976750790013,0.00073976750793829,-0.00073976750784498,0.00073976750792546,-0.00074633415136556,0.00074633415121881,-3.1722213108877e-14,-3.1715444717875e-14,-0.00057073961869574,0.00057073961859734,1.086565124196e-13,-4.1134966700592e-14,-0.00055444041003629,0.00055444041031992,-0.00050799312428582,0.00050799312483633,-0.00050799312426207,0.00050799312481257,-0.00055444040970747,0.00055444041028969,-0.0005544404098867,0.00055444041046888,-0.00050799312414199,0.00050799312498025,-0.00050799312411805,0.00050799312495623,-0.00063495070734229,0.00063495070699251,-0.00063495070739182,0.00063495070694307,-0.00063495070733685,0.00063495070698711,-0.00063495070738631,0.0006349507069376,-0.00063961811630276,0.00063961811602479,-0.00063961811634407,0.00063961811606607,-0.00063961811629337,0.00063961811611651,-0.00063961811625228,0.00063961811607542,-0.00055444040985654,0.00055444041014025,0.69163756941875,122718,2924,0.0026563633955476,0.0031408106274884,0.0023753766029384,14.811351298842,3.3690810390736e-05,3.3690810390736e-05,3.3690810390736e-05,3156431.5283149,0.0082061288606908
23391759,0.59455356541268,0.0089520155927158,0.0029398647502655,0.0032964969233186,0.0027156539191317,-0.00068882921045351,0.0006888292104712,2.7838267207105e-15,2.8003776856781e-15,1.1090014148857e-14,-5.6705620623391e-15,-0.00040974563249707,0.00040974563263912,-0.0006754766208467,0.0006754766208969,-0.00067547662113092,0.0006754766211811,-0.00040974563315948,0.00040974563333446,-0.00040974563248004,0.00040974563265504,-0.00067547662083133,0.00067547662091372,-0.00067547662111484,0.00067547662119723,-0.00076736244072374,0.00076736244070171,-0.00076736244078991,0.0007673624407679,-0.00076736244072887,0.00076736244069596,-0.00076736244079536,0.00076736244076246,-0.00069392947378707,0.00069392947378016,-0.00069392947373925,0.00069392947373235,-0.00069392947378172,0.00069392947378588,-0.00069392947373366,0.00069392947373786,-0.000409745633175,0.00040974563331707,-4.2359882405258e-15,1.2127364811447e-14,-5.8757249124019e-14,6.6203962808498e-14,-0.00082452945461244,0.00082452945462001,-0.00081467450544841,0.00081467450557211,-0.0008069379597565,0.00080693795970637,-0.00080693795971744,0.00080693795969949,-0.00081777915918566,0.00081777915914734,-0.00081777915927832,0.00081777915932092,-0.00081777915916293,0.00081777915913529,-0.00081777915925558,0.00081777915930888,-0.00081467450618893,0.00081467450608006,-0.00081467450542042,0.00081467450555525,-0.00080693795974762,0.00080693795978127,-0.00080693795970853,0.00080693795977435,-0.00081467450621692,0.00081467450609694,-8.1437736225431e-14,-8.1456846108089e-14,-0.00061033594406241,0.00061033594371231,2.819876446622e-14,-9.390500075198e-14,-0.00059057036313616,0.0005905703632045,-0.00053773874317954,0.00053773874339337,-0.00053773874315152,0.00053773874336533,-0.00059057036284998,0.00059057036316519,-0.00059057036301251,0.00059057036332773,-0.00053773874306227,0.00053773874351069,-0.00053773874303412,0.00053773874348248,-0.00068435715603698,0.00068435715559408,-0.00068435715607708,0.00068435715555402,-0.00068435715603113,0.00068435715558822,-0.00068435715607119,0.00068435715554812,-0.00068964140579446,0.00068964140545508,-0.00068964140583557,0.00068964140549624,-0.00068964140579405,0.00068964140553761,-0.00068964140575309,0.00068964140549657,-0.00059057036297332,0.00059057036304159,0.66282300645257,122718,2924,0.0028663166700234,0.0034294792229715,0.0025399974957115,15.634496300162,4.0275970401297e-05,4.0275970401297e-05,4.0275970401297e-05,3272833.63782,0.0088750618318742
24391759,0.64721057431545,0.0097177040892838,0.0031864103832807,0.0036071071253062,0.0029241865806969,-0.00074892558176311,0.0007489255817542,-4.2707812952689e-15,-4.2738253199231e-15,-1.0982605665406e-15,-1.0850668519525e-14,-0.00042953602416422,0.00042953602418823,-0.00073358781550844,0.00073358781553886,-0.0007335878159823,0.0007335878160127,-0.00042953602470003,0.00042953602474359,-0.00042953602415337,0.00042953602419691,-0.00073358781550009,0.00073358781554911,-0.00073358781597268,0.00073358781602169,-0.00083852329311946,0.00083852329309123,-0.00083852329325941,0.00083852329323119,-0.00083852329312219,0.00083852329308771,-0.00083852329326272,0.00083852329322824,-0.0007552542010261,0.000755254201012,-0.00075525420101417,0.00075525420100008,-0.00075525420102329,0.00075525420101566,-0.00075525420101065,0.00075525420100301,-0.00042953602470842,0.00042953602473238,-1.7022421153189e-15,7.8736712294545e-15,-2.8664624315403e-14,3.4482667166423e-14,-0.00090647197040065,0.00090647197040658,-0.00089566593583447,0.00089566593589862,-0.00088620050747428,0.00088620050744995,-0.00088620050745585,0.00088620050745037,-0.00089844657568682,0.00089844657567033,-0.00089844657587966,0.00089844657590182,-0.00089844657566656,0.00089844657565612,-0.00089844657585941,0.00089844657588762,-0.00089566593636678,0.00089566593631421,-0.00089566593581082,0.0008956659358815,-0.00088620050746871,0.00088620050748653,-0.00088620050745025,0.00088620050748693,-0.00089566593639041,0.00089566593633135,-1.4941620710851e-13,-1.4941832324044e-13,-0.00065764729896733,0.00065764729823709,-9.7824082313493e-14,-1.5666724241593e-13,-0.00063521738031201,0.00063521738009822,-0.00057464710795882,0.00057464710768426,-0.00057464710792399,0.00057464710764939,-0.00063521738011817,0.00063521738003088,-0.00063521738024863,0.00063521738016136,-0.00057464710790277,0.0005746471077403,-0.00057464710786788,0.00057464710770537,-0.00074218114600369,0.00074218114541155,-0.00074218114602248,0.00074218114539276,-0.0007421811459988,0.00074218114540666,-0.00074218114601759,0.00074218114538787,-0.00074945376808407,0.00074945376767125,-0.00074945376812254,0.00074945376770972,-0.00074945376810198,0.00074945376773024,-0.00074945376806355,0.00074945376769178,-0.00063521738018135,0.00063521737996756,0.69344629843763,122718,2924,0.0031160684131591,0.0037696213723756,0.0027366621408087,17.85696806607,5.8055744528564e-05,5.8055744528564e-05,5.8055744528564e-05,3379371.1088699,0.0096689413104327
25391759,0.70170365539885,0.0105871628004,0.0034648309306688,0.0039639060408765,0.0031584258288543,-0.00081440316553925,0.00081440316553216,-3.9599378501463e-15,-4.0245682286738e-15,-1.7755928156818e-15,-9.8408758385864e-15,-0.0004426614725178,0.00044266147253231,-0.00079652217278674,0.00079652217281754,-0.00079652217333267,0.00079652217336341,-0.00044266147299459,0.00044266147302538,-0.00044266147250869,0.00044266147253934,-0.00079652217278003,0.00079652217282609,-0.00079652217332468,0.0007965221733707,-0.00091748234989811,0.00091748234987145,-0.00091748235006912,0.00091748235004242,-0.00091748234990033,0.00091748234986851,-0.00091748235007188,0.00091748235004001,-0.00082380901683071,0.00082380901681914,-0.00082380901684066,0.00082380901682896,-0.00082380901682839,0.00082380901682217,-0.00082380901683775,0.00082380901683139,-0.0004426614730014,0.00044266147301601,-1.099231125126e-15,6.7851162487679e-15,-1.3248830551439e-14,1.8620401747743e-14,-0.0010012061688615,0.0010012061688669,-0.00099127148200912,0.00099127148204276,-0.00097909516082562,0.00097909516081287,-0.00097909516081087,0.00097909516081361,-0.00098907497924253,0.00098907497923607,-0.00098907497951925,0.00098907497953148,-0.00098907497922788,0.00098907497922647,-0.00098907497950459,0.00098907497952187,-0.00099127148239049,0.00099127148236756,-0.00099127148199582,0.00099127148203485,-0.00097909516083104,0.00097909516083968,-0.00097909516081627,0.00097909516084041,-0.00099127148240377,0.00099127148237548,-1.5675372353146e-13,-1.5669822032987e-13,-0.0007071074472686,0.00070710744648499,-1.3175043099712e-13,-1.5943167726582e-13,-0.00068012163843371,0.00068012163817761,-0.00061036386510577,0.00061036386473654,-0.00061036386506858,0.00061036386469929,-0.00068012163828728,0.00068012163809635,-0.00068012163840106,0.00068012163821002,-0.0006103638650803,0.00061036386476201,-0.00061036386504307,0.00061036386472469,-0.00080526563935056,0.00080526563874398,-0.00080526563935907,0.00080526563873547,-0.00080526563934728,0.00080526563874074,-0.00080526563935578,0.00080526563873222,-0.00081558814273358,0.00081558814233411,-0.00081558814277188,0.0008155881423723,-0.00081558814276169,0.00081558814238243,-0.00081558814272345,0.00081558814234428,-0.00068012163831974,0.00068012163806376,0.76207065498803,122718,2924,0.0033881563136212,0.0041627021424114,0.0029422430802167,19.83897890691,7.3911831255278e-05,7.3911831255278e-05,7.3911831255278e-05,3415011.0854005,0.010548535147528
26391759,0.75161704238148,0.011447243674645,0.0037393784385816,0.0043203509278177,0.0033875143082455,-0.00087484127197002,0.00087484127199619,3.9027631262066e-15,3.8682494746926e-15,1.1754758547254e-14,-3.5919785028165e-15,-0.00044588926349072,0.00044588926363228,-0.00085343518461192,0.00085343518466507,-0.00085343518503919,0.00085343518509229,-0.00044588926399355,0.00044588926416509,-0.00044588926347531,0.00044588926364678,-0.00085343518459795,0.00085343518468044,-0.00085343518502448,0.00085343518510694,-0.00099260175969133,0.00099260175967329,-0.00099260175981877,0.00099260175980073,-0.00099260175969608,0.00099260175966803,-0.00099260175982378,0.00099260175979571,-0.00088813615967946,0.00088813615967799,-0.00088813615968346,0.00088813615968193,-0.00088813615967444,0.0008881361596831,-0.0008881361596785,0.00088813615968709,-0.00044588926400779,0.00044588926414938,-3.4262482716436e-15,1.1449238468918e-14,-3.8782609335553e-14,4.640934693219e-14,-0.0010945416662216,0.0010945416662293,-0.0010860999895719,0.0010860999896573,-0.0010714205303188,0.0010714205302835,-0.0010714205302855,0.0010714205302794,-0.0010767985385052,0.0010767985384798,-0.0010767985387622,0.001076798538793,-0.0010767985384927,0.0010767985384771,-0.0010767985387496,0.0010767985387904,-0.0010860999900287,0.0010860999899586,-0.0010860999895626,0.0010860999896581,-0.0010714205303223,0.0010714205303444,-0.001071420530289,0.0010714205303403,-0.001086099990038,0.0010860999899577,-1.005179500981e-13,-1.0048257187052e-13,-0.00074971066911063,0.00074971066868537,-2.7320600117067e-14,-1.0997490872438e-13,-0.00071606052560832,0.00071606052557673,-0.00063740440157557,0.00063740440162262,-0.00063740440154286,0.00063740440158987,-0.00071606052539706,0.0007160605255339,-0.00071606052552393,0.0007160605256607,-0.00063740440149717,0.00063740440170108,-0.00063740440146436,0.00063740440166819,-0.00086332192460641,0.00086332192414703,-0.00086332192463357,0.0008633219241199,-0.00086332192460359,0.00086332192414424,-0.00086332192463071,0.00086332192411707,-0.00087651471519863,0.00087651471487128,-0.00087651471524089,0.00087651471491346,-0.0008765147152125,0.00087651471494169,-0.0008765147151704,0.00087651471489963,-0.0007160605254811,0.00071606052544957,0.82335182229769,122718,2924,0.0036392926155016,0.0045498079473842,0.0031193260573829,20.41300969423,7.8504077553838e-05,7.8504077553838e-05,7.8504077553838e-05,3404759.2715973,0.011372854160702
27391759,0.79933744164182,0.012190586696697,0.0039783431287308,0.0046278169876916,0.0035844265802749,-0.00092848879565112,0.00092848879564735,-4.229459028224e-15,-4.2420762898342e-15,-1.7255355213684e-16,-1.1565617266567e-14,-0.00044518564721125,0.00044518564722328,-0.00090151842318358,0.00090151842321136,-0.00090151842381215,0.00090151842383989,-0.00044518564761211,0.00044518564764692,-0.00044518564719881,0.00044518564723359,-0.00090151842317364,0.00090151842322324,-0.00090151842380084,0.00090151842385042,-0.0010617800673401,0.0010617800673153,-0.0010617800675436,0.0010617800675188,-0.0010617800673434,0.0010617800673112,-0.0010617800675475,0.0010617800675153,-0.00094380915778051,0.00094380915776842,-0.00094380915781679,0.00094380915780469,-0.00094380915777711,0.00094380915777258,-0.00094380915781276,0.00094380915780821,-0.00044518564762225,0.00044518564763426,-2.0574077358412e-15,9.1211331203501e-15,-2.0543137127145e-14,2.7263961222346e-14,-0.0011789585148007,0.0011789585148075,-0.0011692725875033,0.0011692725875528,-0.0011545047241006,0.0011545047240808,-0.0011545047240851,0.0011545047240872,-0.0011578673781429,0.0011578673781314,-0.0011578673784837,0.0011578673785014,-0.0011578673781297,0.0011578673781255,-0.0011578673784706,0.0011578673784955,-0.0011692725878079,0.0011692725877717,-0.0011692725874944,0.0011692725875515,-0.0011545047241001,0.0011545047241121,-0.0011545047240846,0.0011545047241186,-0.0011692725878168,0.0011692725877731,-1.7167121401526e-13,-1.716610242559e-13,-0.00078544295328037,0.00078544295244741,-1.4835880413743e-13,-1.9181052543041e-13,-0.00074265383830195,0.0007426538379345,-0.00065718532186853,0.00065718532136004,-0.00065718532182941,0.0006571853213209,-0.00074265383815759,0.00074265383788675,-0.00074265383825356,0.00074265383798269,-0.0006571853218275,0.00065718532140106,-0.00065718532178836,0.00065718532136186,-0.00091506112961701,0.00091506112900458,-0.00091506112963072,0.00091506112899086,-0.00091506112961485,0.00091506112900244,-0.00091506112962856,0.00091506112898872,-0.0009284898338167,0.0009284898334029,-0.00092848983385517,0.00092848983344135,-0.00092848983383969,0.00092848983345677,-0.00092848983380127,0.00092848983341835,-0.00074265383820582,0.0007426538378384,0.74366212196709,122718,2924,0.0038621990417393,0.0048997794501391,0.0032678584340367,22.217497688802,9.2939981510414e-05,9.2939981510414e-05,9.2939981510414e-05,3363322.5706532,0.012102800938133
28391759,0.84172433342257,0.012941319677452,0.004218670846674,0.0049386692351935,0.0037839795955848,-0.00098346307819939,0.00098346307821366,2.3641924814249e-16,3.3154869494437e-16,5.9326128803959e-15,-6.8854367134583e-15,-0.00045713958324181,0.00045713958332032,-0.0009538260287823,0.00095382602882532,-0.000953826029356,0.00095382602939906,-0.00045713958365246,0.00045713958375594,-0.00045713958322849,0.00045713958333218,-0.00095382602877087,0.00095382602883837,-0.00095382602934351,0.00095382602941107,-0.0011286729290942,0.0011286729290744,-0.0011286729292799,0.0011286729292601,-0.0011286729290981,0.0011286729290699,-0.0011286729292841,0.001128672929256,-0.0010009594667936,0.0010009594667885,-0.001000959466836,0.0010009594668311,-0.0010009594667895,0.0010009594667929,-0.0010009594668317,0.0010009594668353,-0.00045713958366413,0.00045713958374243,-2.3925151455987e-15,1.0053928153514e-14,-2.4516133401894e-14,3.1824557193388e-14,-0.0012597905520054,0.0012597905520128,-0.0012486882561521,0.0012486882562098,-0.0012337159701605,0.0012337159701369,-0.0012337159701382,0.0012337159701391,-0.0012363749880237,0.0012363749880088,-0.001236374988374,0.0012363749883954,-0.0012363749880129,0.0012363749880062,-0.0012363749883632,0.0012363749883928,-0.0012486882564542,0.001248688256411,-0.0012486882561468,0.0012486882562131,-0.0012337159701687,0.0012337159701831,-0.0012337159701464,0.0012337159701853,-0.0012486882564594,0.0012486882564078,-1.4029934479634e-13,-1.403995969181e-13,-0.00082399411723069,0.00082399411658758,-1.0104079562599e-13,-1.5407851175723e-13,-0.00077863345330779,0.00077863345308171,-0.00068491198129985,0.00068491198103113,-0.00068491198126349,0.00068491198099483,-0.00077863345315088,0.00077863345303708,-0.00077863345325141,0.0007786334531378,-0.00068491198125002,0.000684911981081,-0.00068491198121361,0.0006849119810446,-0.00096503619300245,0.00096503619246758,-0.00096503619301957,0.00096503619245046,-0.00096503619300066,0.00096503619246573,-0.00096503619301776,0.00096503619244859,-0.00098204266189049,0.00098204266152494,-0.00098204266193058,0.00098204266156522,-0.000982042661912,0.0009820426615837,-0.00098204266187201,0.00098204266154348,-0.00077863345320702,0.00077863345298073,0.84556057744222,122718,2924,0.004090537613713,0.0052347590926473,0.0034280582379734,23.416241501803,0.00010252993201442,0.00010252993201442,0.00010252993201442,3398655.0081324,0.012835391848602
29391759,0.87835976358806,0.013435215415841,0.0043790345219485,0.0051412142793946,0.0039149666144979,-0.0010156076744087,0.0010156076744198,-9.7086739949091e-16,-8.7035576417002e-16,4.6526813931889e-15,-7.9164052180782e-15,-0.00043639142308049,0.00043639142314316,-0.00097820088270238,0.00097820088274235,-0.00097820088332181,0.00097820088336183,-0.0004363914234687,0.00043639142355593,-0.00043639142306729,0.00043639142315474,-0.00097820088269121,0.00097820088275521,-0.0009782008833095,0.00097820088337355,-0.0011765448507518,0.0011765448507314,-0.0011765448509558,0.0011765448509355,-0.0011765448507556,0.001176544850727,-0.00117654485096,0.0011765448509315,-0.0010347859225828,0.0010347859225759,-0.001034785922635,0.0010347859226283,-0.0010347859225788,0.0010347859225803,-0.0010347859226307,0.0010347859226324,-0.00043639142348014,0.00043639142354257,-2.2992238779358e-15,9.9277555374124e-15,-2.2264790414171e-14,2.9549950210481e-14,-0.0013205344251963,0.0013205344252037,-0.0013085419927243,0.0013085419927777,-0.0012948449539783,0.0012948449539565,-0.0012948449539581,0.0012948449539603,-0.0012932102987055,0.0012932102986923,-0.0012932102990854,0.0012932102991052,-0.0012932102986951,0.0012932102986899,-0.001293210299075,0.0012932102991028,-0.001308541992987,0.001308541992948,-0.0013085419927201,0.0013085419927818,-0.0012948449539877,0.0012948449540008,-0.0012948449539675,0.0012948449540046,-0.0013085419929912,0.001308541992944,-1.5138188653876e-13,-1.5148729679942e-13,-0.00083953302003533,0.00083953301933001,-1.2062905843124e-13,-1.6887362135767e-13,-0.00077962188745051,0.00077962188716693,-0.00068270875363526,0.0006827087532702,-0.00068270875359812,0.00068270875323311,-0.00077962188730561,0.00077962188712561,-0.00077962188739848,0.0007796218872187,-0.00068270875358999,0.00068270875331549,-0.00068270875355281,0.00068270875327832,-0.00099759294144221,0.00099759294088647,-0.00099759294145768,0.00099759294087099,-0.00099759294144074,0.00099759294088494,-0.0009975929414562,0.00099759294086945,-0.0010119287618632,0.0010119287614869,-0.0010119287619021,0.0010119287615261,-0.0010119287618851,0.001011928761543,-0.0010119287618462,0.0010119287615039,-0.00077962188735742,0.00077962188707363,0.64299206939106,122718,2924,0.0042241743771933,0.0054864038059175,0.0034927337771975,24.737797090985,0.00011310237672788,0.00011310237672788,0.00011310237672788,3228474.5368289,0.013291322284443
30391759,0.90897202297244,0.013793145355792,0.0044961481369917,0.0052856163381705,0.0040113808806303,-0.0010442583752236,0.0010442583752352,-7.8960823095173e-16,-6.2412799214179e-16,4.5738602717083e-15,-8.0410778800022e-15,-0.00045310433508111,0.00045310433514144,-0.0010046616742024,0.0010046616742428,-0.0010046616748349,0.0010046616748754,-0.00045310433547058,0.00045310433555544,-0.00045310433506787,0.00045310433515305,-0.0010046616741912,0.0010046616742557,-0.0010046616748225,0.0010046616748872,-0.001211479263144,0.0012114792631244,-0.0012114792633561,0.0012114792633365,-0.0012114792631478,0.0012114792631199,-0.0012114792633603,0.0012114792633325,-0.001060864505873,0.0010608645058668,-0.0010608645059315,0.0010608645059257,-0.001060864505869,0.0010608645058712,-0.0010608645059272,0.0010608645059298,-0.00045310433548204,0.000453104335542,-2.2125206443072e-15,1.0053869331781e-14,-2.0960212621069e-14,2.8456895367262e-14,-0.0013563487208024,0.00135634872081,-0.001336937336925,0.0013369373369762,-0.0013275376013133,0.0013275376012924,-0.001327537601294,0.0013275376012973,-0.0013342528868208,0.0013342528868086,-0.0013342528872202,0.0013342528872394,-0.0013342528868109,0.0013342528868067,-0.0013342528872103,0.0013342528872376,-0.0013369373371718,0.0013369373371355,-0.0013369373369214,0.001336937336981,-0.0013275376013276,0.00132753760134,-0.0013275376013083,0.0013275376013448,-0.0013369373371754,0.0013369373371307,-1.5182054333284e-13,-1.5198923550966e-13,-0.00085969694827038,0.00085969694755616,-1.2241407834864e-13,-1.6823931628672e-13,-0.00080288798850779,0.0008028879882281,-0.00070125280585361,0.00070125280548167,-0.00070125280581625,0.00070125280544439,-0.00080288798836598,0.00080288798818506,-0.0008028879884581,0.00080288798827751,-0.0007012528058107,0.00070125280552459,-0.00070125280577331,0.00070125280548725,-0.0010209881587405,0.0010209881581819,-0.0010209881587551,0.0010209881581672,-0.0010209881587391,0.0010209881581804,-0.0010209881587538,0.0010209881581657,-0.0010365760713234,0.001036576070948,-0.0010365760713624,0.0010365760709874,-0.0010365760713462,0.0010365760710035,-0.0010365760713073,0.0010365760709642,-0.00080288798841544,0.00080288798813543,0.55654009761524,122718,2924,0.0043431009712229,0.0056347275875856,0.0035764923140613,26.077785937837,0.0001238222875027,0.0001238222875027,0.0001238222875027,3319415.8840015,0.013647068356235
31391759,0.93474330784335,0.014166969448285,0.0046162184096474,0.0054389232542948,0.0041118277843428,-0.0010733534818995,0.00107335348188,-8.7047046654829e-15,-8.5021079134982e-15,-8.46521198182e-15,-1.4699198008414e-14,-0.00045410045953842,0.00045410045947535,-0.001031033141315,0.0010310331413312,-0.0010310331421548,0.0010310331421712,-0.00045410045988908,0.00045410045983841,-0.00045410045953065,0.00045410045948043,-0.0010310331413101,0.0010310331413382,-0.0010310331421483,0.0010310331421765,-0.0012483451954091,0.0012483451953809,-0.0012483451957047,0.0012483451956766,-0.0012483451954106,0.0012483451953785,-0.001248345195707,0.001248345195675,-0.0010915089144947,0.0010915089144782,-0.0010915089145741,0.001091508914558,-0.0010915089144932,0.0010915089144808,-0.0010915089145716,0.0010915089145596,-0.00045410045989403,0.00045410045983054,-3.0546125660358e-16,5.8621150340567e-15,9.0787226512549e-15,-3.7806492096441e-15,-0.0014012087200707,0.001401208720076,-0.0013817615262165,0.0013817615262071,-0.0013727330438319,0.0013727330438358,-0.0013727330438309,0.0013727330438469,-0.0013766891769167,0.001376689176926,-0.0013766891774325,0.0013766891774299,-0.0013766891769083,0.0013766891769215,-0.0013766891774241,0.0013766891774254,-0.0013817615262962,0.0013817615263162,-0.0013817615262166,0.0013817615262113,-0.0013727330438603,0.0013727330438555,-0.0013727330438593,0.0013727330438666,-0.0013817615262961,0.0013817615263119,-2.1833414870259e-13,-2.1854562505176e-13,-0.00087869791861984,0.00087869791747726,-2.522674478144e-13,-2.3385769036691e-13,-0.00081807734965288,0.00081807734910488,-0.00071232847515566,0.0007123284742459,-0.00071232847511212,0.00071232847420247,-0.00081807734959673,0.00081807734902619,-0.00081807734966388,0.00081807734909377,-0.00071232847517478,0.00071232847422672,-0.00071232847513129,0.00071232847418331,-0.0010475551430469,0.0010475551423006,-0.0010475551430397,0.0010475551423077,-0.0010475551430464,0.0010475551423,-0.0010475551430393,0.0010475551423071,-0.0010648072017223,0.00106480720127,-0.0010648072017576,0.0010648072013057,-0.0010648072017626,0.0010648072013007,-0.0010648072017273,0.0010648072012649,-0.00081807734958565,0.00081807734903725,0.69215549466537,122718,2924,0.0044639486570332,0.0058205026943366,0.003655461886405,28.363557253016,0.00014210845802413,0.00014210845802413,0.00014210845802413,3259608.1952709,0.014038046107815
32391759,0.9541821585205,0.014490339160464,0.0047197768543311,0.005571866097469,0.004198696208664,-0.0010909981922148,0.0010909981922421,2.9061465133365e-15,3.1152871830562e-15,9.3796840453262e-15,-2.6147730616543e-15,-0.0004215894151652,0.00042158941528615,-0.0010427926317225,0.0010427926317791,-0.0010427926323099,0.0010427926323666,-0.0004215894155612,0.00042158941570503,-0.00042158941515304,0.00042158941529731,-0.0010427926317118,0.0010427926317912,-0.0010427926322983,0.0010427926323778,-0.0012783105355687,0.0012783105355532,-0.0012783105357636,0.0012783105357482,-0.0012783105355724,0.001278310535549,-0.0012783105357676,0.0012783105357443,-0.0011141969996802,0.0011141969996802,-0.0011141969997465,0.0011141969997469,-0.0011141969996762,0.0011141969996841,-0.0011141969997427,0.001114196999751,-0.00042158941557224,0.00042158941569273,-1.9899980304556e-15,9.5187680317e-15,-1.0535884018328e-14,1.7742016817094e-14,-0.0014467516148933,0.0014467516149006,-0.0014329637944343,0.0014329637944646,-0.001421901932664,0.0014219019326505,-0.0014219019326396,0.0014219019326486,-0.001412700872231,0.0014127008722249,-0.001412700872642,0.0014127008726548,-0.0014127008722233,0.0014127008722249,-0.0014127008726342,0.0014127008726548,-0.0014329637946415,0.0014329637946256,-0.0014329637944346,0.0014329637944728,-0.0014219019326926,0.0014219019326986,-0.0014219019326682,0.0014219019326968,-0.0014329637946412,0.0014329637946175,-1.2081910085951e-13,-1.2101183993606e-13,-0.00088195822565872,0.00088195822511828,-9.3358545019357e-14,-1.1956889504645e-13,-0.00080394151465255,0.00080394151452686,-0.00069735319055588,0.00069735319042184,-0.00069735319052177,0.00069735319038783,-0.00080394151452985,0.00080394151446105,-0.00080394151462378,0.00080394151455535,-0.00069735319053282,0.00069735319044494,-0.00069735319049867,0.00069735319041086,-0.001067131119588,0.001067131119103,-0.0010671311195964,0.0010671311190947,-0.001067131119587,0.0010671311191019,-0.0010671311195954,0.0010671311190935,-0.0010830394446036,0.0010830394442891,-0.0010830394446428,0.0010830394443288,-0.0010830394446333,0.0010830394443382,-0.0010830394445942,0.0010830394442986,-0.00080394151455836,0.00080394151443233,0.79325035118638,122718,2924,0.0045374367662031,0.0060090567672885,0.0036691743514329,29.295081383588,0.00014956065106871,0.00014956065106871,0.00014956065106871,2978870.5905429,0.014317828287786
33391759,0.96792614736772,0.014726000897305,0.004796035241237,0.0056669179325295,0.0042630477235389,-0.0011022062886522,0.0011022062887143,1.0778950122237e-14,1.0971929520967e-14,2.511032113222e-14,3.4077194259225e-15,-0.00039977986091176,0.00039977986117728,-0.0010499978088983,0.0010499978089803,-0.0010499978092626,0.0010499978093447,-0.00039977986131101,0.00039977986161798,-0.00039977986089081,0.00039977986119817,-0.001049997808878,0.0010499978090016,-0.0010499978092419,0.0010499978093656,-0.0012984181114499,0.001298418111443,-0.00129841811156,0.0012984181115532,-0.0012984181114569,0.0012984181114357,-0.001298418111567,0.0012984181115459,-0.0011282450889592,0.0011282450889674,-0.0011282450890224,0.0011282450890311,-0.0011282450889517,0.0011282450889742,-0.0011282450890157,0.0011282450890387,-0.00039977986133173,0.00039977986159685,-5.171724360312e-15,1.5773047555989e-14,-5.7215046237259e-14,6.7365589086319e-14,-0.0014774986268686,0.0014774986268788,-0.0014652629070632,0.001465262907187,-0.0014544422712111,0.0014544422711591,-0.0014544422711624,0.0014544422711514,-0.0014385250108138,0.0014385250107742,-0.0014385250111115,0.0014385250111572,-0.0014385250108043,0.001438525010779,-0.001438525011102,0.0014385250111619,-0.0014652629074753,0.0014652629073717,-0.0014652629070596,0.0014652629071976,-0.0014544422712232,0.0014544422712553,-0.0014544422711744,0.0014544422712475,-0.0014652629074789,0.0014652629073611,-5.6310191539573e-14,-5.6461072947096e-14,-0.00088142542764773,0.000881425427591,6.588924540084e-14,-5.8284993330521e-14,-0.00079243584350816,0.00079243584366938,-0.00068500432379294,0.0006850043242802,-0.00068500432376665,0.00068500432425394,-0.00079243584326879,0.00079243584367366,-0.00079243584338594,0.00079243584379111,-0.00068500432367495,0.00068500432439825,-0.00068500432364852,0.00068500432437186,-0.0010779456755485,0.0010779456752599,-0.0010779456755899,0.0010779456752186,-0.0010779456755468,0.0010779456752581,-0.0010779456755881,0.0010779456752167,-0.001093361115664,0.0010933611154024,-0.0010933611157062,0.0010933611154449,-0.0010933611156642,0.0010933611154867,-0.0010933611156222,0.0010933611154444,-0.00079243584339061,0.00079243584355154,0.81381076464073,122718,2924,0.004584140345744,0.0061363100380547,0.0036670986507208,29.275786116404,0.00014940628893123,0.00014940628893123,0.00014940628893123,2787816.6092209,0.014492269816796
34391759,0.97846773261769,0.0148885946304,0.0048491594919096,0.0057313634977918,0.0043080716406984,-0.0011147001524035,0.0011147001523846,-9.3815222244652e-15,-9.1724550819111e-15,-6.147988653755e-15,-1.8370468206571e-14,-0.00039460690511763,0.00039460690504596,-0.0010598546949183,0.0010598546949289,-0.0010598546958054,0.0010598546958161,-0.00039460690550606,0.00039460690545877,-0.00039460690510391,0.00039460690505704,-0.0010598546949077,0.0010598546949418,-0.0010598546957929,0.0010598546958272,-0.0013165040547744,0.0013165040547482,-0.0013165040550836,0.0013165040550576,-0.0013165040547778,0.0013165040547438,-0.0013165040550879,0.001316504055054,-0.0011415341434882,0.0011415341434689,-0.001141534143564,0.0011415341435451,-0.0011415341434847,0.0011415341434735,-0.0011415341435595,0.0011415341435487,-0.00039460690551704,0.00039460690544494,-2.2040503148346e-15,9.9279320026098e-15,-1.9464170088847e-14,2.6857120709868e-14,-0.0015007159690481,0.0015007159690556,-0.0014869618305609,0.0014869618306096,-0.0014782177241022,0.0014782177240827,-0.001478217724096,0.0014782177241004,-0.0014606667724643,0.0014606667724544,-0.0014606667729926,0.0014606667730096,-0.001460666772455,0.0014606667724528,-0.0014606667729833,0.0014606667730081,-0.0014869618306206,0.0014869618305866,-0.0014869618305624,0.0014869618306193,-0.0014782177241094,0.0014782177241204,-0.0014782177241031,0.0014782177241381,-0.0014869618306191,0.001486961830577,-2.2585511161237e-13,-2.2606439168213e-13,-0.00088605839923555,0.00088605839804116,-2.515963589407e-13,-2.9206064760064e-13,-0.00079273098393605,0.00079273098327522,-0.00068393555179245,0.00068393555068781,-0.00068393555174999,0.00068393555064546,-0.00079273098382678,0.00079273098326047,-0.00079273098388853,0.00079273098332265,-0.00068393555175362,0.00068393555072659,-0.00068393555171119,0.00068393555068424,-0.0010885603141694,0.0010885603134379,-0.0010885603141818,0.0010885603134255,-0.0010885603141692,0.0010885603134376,-0.0010885603141816,0.0010885603134252,-0.0011042339722522,0.0011042339717801,-0.0011042339722866,0.0011042339718149,-0.0011042339722719,0.0011042339718295,-0.0011042339722375,0.0011042339717947,-0.00079273098387426,0.00079273098321302,0.7296115327816,122718,2924,0.0046360791191974,0.0062323909851588,0.0036864101895468,31.396979187813,0.0001663758335025,0.0001663758335025,0.0001663758335025,2680245.0472185,0.014662085350071
35391759,0.98684211247033,0.015004931812575,0.0048873324132132,0.0057769922570495,0.0043406071423124,-0.0011311720091659,0.0011311720090566,-3.0943760571708e-14,-3.0713664659804e-14,-4.4897304888743e-14,-3.6506914150597e-14,-0.00040804750085547,0.00040804750042364,-0.0010755007750112,0.0010755007749522,-0.001075500776502,0.0010755007764431,-0.00040804750125681,0.00040804750081171,-0.0004080475008598,0.00040804750041381,-0.0010755007750209,0.0010755007749454,-0.0010755007765084,0.0010755007764332,-0.0013349953459829,0.0013349953459321,-0.0013349953465308,0.0013349953464802,-0.0013349953459791,0.0013349953459343,-0.0013349953465286,0.001334995346484,-0.0011571794793032,0.0011571794792569,-0.0011571794793924,0.001157179479347,-0.0011571794793073,0.0011571794792559,-0.0011571794793936,0.0011571794793427,-0.00040804750124727,0.00040804750081559,4.19716589711e-15,-3.4430124653914e-15,8.3066080035333e-14,-8.2088609896374e-14,-0.0015193956960341,0.001519395696035,-0.0015019976362397,0.0015019976360828,-0.0014962558117694,0.0014962558118333,-0.0014962558118188,0.0014962558118678,-0.0014814368656533,0.001481436865717,-0.0014814368665162,0.0014814368664602,-0.0014814368656483,0.001481436865706,-0.0014814368665113,0.0014814368664493,-0.0015019976358304,0.0015019976359893,-0.0015019976362512,0.0015019976360895,-0.0014962558118262,0.0014962558117786,-0.0014962558118756,0.0014962558118133,-0.0015019976358188,0.0015019976359829,-4.0424836448639e-13,-4.0447747804951e-13,-0.00089896145400976,0.00089896145153576,-6.4719538395616e-13,-4.7017179650083e-13,-0.00080826535597148,0.00080826535457884,-0.00069740590548869,0.00069740590276574,-0.0006974059054273,0.00069740590270481,-0.00080826535612677,0.00080826535441684,-0.00080826535613053,0.00080826535442057,-0.00069740590566066,0.00069740590259443,-0.00069740590559942,0.00069740590253319,-0.0011018415953694,0.0011018415940815,-0.0011018415953082,0.0011018415941424,-0.0011018415953713,0.0011018415940831,-0.0011018415953102,0.0011018415941442,-0.0011189791847787,0.0011189791841239,-0.0011189791848044,0.0011189791841504,-0.0011189791848618,0.0011189791840934,-0.0011189791848356,0.0011189791840668,-0.00080826535596854,0.00080826535457541,0.65593630488581,122718,2924,0.0047044125428441,0.0063097003480322,0.0037399851523829,35.848088166387,0.0002019847053311,0.0002019847053311,0.0002019847053311,2670307.995265,0.014864244745331
36391759,0.99227097016006,0.015083909599269,0.0049131206562381,0.0058080467652498,0.0043627421777812,-0.0011400132460345,0.001140013246038,-2.4022354368858e-15,-2.1723159901788e-15,-4.7882948973483e-15,-3.0779647938178e-15,-0.00041413130876872,0.00041413130878778,-0.0010838298760312,0.0010838298760783,-0.0010838298768306,0.0010838298768781,-0.00041413130918992,0.00041413130920503,-0.00041413130876993,0.00041413130878555,-0.0010838298760338,0.001083829876077,-0.0010838298768324,0.0010838298768758,-0.0013450023115617,0.00134500231154,-0.0013450023118414,0.0013450023118199,-0.001345002311561,0.0013450023115405,-0.001345002311841,0.0013450023118207,-0.0011656943101118,0.0011656943101091,-0.001165694310188,0.0011656943101859,-0.0011656943101124,0.0011656943101087,-0.0011656943101886,0.0011656943101854,-0.00041413130918731,0.00041413130920553,2.2809303191444e-15,3.6475356291138e-16,7.2280497762762e-14,-6.9950980692615e-14,-0.0015296304928595,0.0015296304928621,-0.0015108568881981,0.0015108568880613,-0.0015063983389034,0.001506398338955,-0.0015063983389035,0.0015063983389513,-0.0014922780248211,0.0014922780248718,-0.0014922780253936,0.0014922780253492,-0.0014922780248177,0.001492278024867,-0.0014922780253903,0.0014922780253447,-0.0015108568881301,0.0015108568882715,-0.0015108568882052,0.0015108568880673,-0.001506398338984,0.0015063983389416,-0.0015063983389842,0.0015063983389379,-0.0015108568881231,0.0015108568882658,-1.5867380967826e-13,-1.5890548378184e-13,-0.00090580678385678,0.00090580678293954,-2.5526085269146e-13,-1.0944092136086e-13,-0.00081633604688875,0.00081633604667487,-0.00070413137161306,0.00070413137108064,-0.00070413137157337,0.00070413137104125,-0.00081633604695343,0.00081633604646099,-0.0008163360470275,0.00081633604653567,-0.00070413137175778,0.00070413137093545,-0.00070413137171845,0.00070413137089612,-0.0011089043049443,0.0011089043042905,-0.0011089043048953,0.0011089043043395,-0.001108904304944,0.00110890430429,-0.0011089043048949,0.001108904304339,-0.0011270831404044,0.0011270831401087,-0.0011270831404401,0.0011270831401449,-0.0011270831404878,0.0011270831400969,-0.0011270831404522,0.0011270831400606,-0.00081633604681496,0.00081633604660059,0.68699515304475,122718,2924,0.004741094979739,0.0063520609360225,0.0037684079211061,37.528737168043,0.00021542989734434,0.00021542989734434,0.00021542989734434,2674038.5594633,0.014973316737984
37391759,0.99547541602487,0.015130055830453,0.004928178344539,0.0058262081184706,0.004375669367443,-0.0011416003084233,0.001141600308487,1.1885401615021e-14,1.2091527670953e-14,2.1467138311307e-14,8.7192336333976e-15,-0.0004031267637804,0.00040312676404398,-0.0010835969906696,0.0010835969907628,-0.0010835969910667,0.0010835969911601,-0.00040312676419637,0.00040312676448357,-0.00040312676376861,0.00040312676405619,-0.0010835969906578,0.0010835969907751,-0.0010835969910549,0.0010835969911723,-0.0013495641212515,0.0013495641212458,-0.0013495641213737,0.0013495641213681,-0.0013495641212557,0.0013495641212415,-0.0013495641213777,0.0013495641213637,-0.0011685314991361,0.0011685314991505,-0.0011685314992057,0.0011685314992206,-0.0011685314991314,0.0011685314991541,-0.0011685314992022,0.0011685314992254,-0.00040312676420849,0.00040312676447164,-2.097406513906e-15,9.8473462291557e-15,1.1597851575948e-14,-4.1673432787587e-15,-0.001537706249258,0.0015377062492655,-0.0015212644742136,0.0015212644742001,-0.001515837433407,0.0015158374334076,-0.0015158374333687,0.0015158374333925,-0.0014973350232668,0.0014973350232734,-0.0014973350236308,0.0014973350236308,-0.0014973350232609,0.0014973350232758,-0.0014973350236249,0.0014973350236332,-0.0015212644744487,0.0015212644744769,-0.0015212644742145,0.0015212644742093,-0.0015158374334644,0.001515837433456,-0.0015158374334261,0.001515837433441,-0.0015212644744477,0.0015212644744678,-3.7512117066964e-14,-3.7720873388505e-14,-0.00090402267907039,0.00090402267901499,6.1229076184928e-15,2.0963812694912e-14,-0.00080831483709184,0.00080831483740302,-0.00069673801033365,0.00069673801091825,-0.00069673801030712,0.00069673801089184,-0.00080831483699367,0.00080831483727291,-0.00080831483710739,0.00080831483738703,-0.00069673801035226,0.00069673801089975,-0.00069673801032563,0.00069673801087319,-0.001111595817097,0.0011115958168096,-0.0011115958170923,0.0011115958168143,-0.0011115958170955,0.001111595816808,-0.0011115958170908,0.0011115958168126,-0.0011287721094191,0.0011287721092508,-0.0011287721094604,0.0011287721092925,-0.001128772109465,0.0011287721092878,-0.0011287721094239,0.0011287721092463,-0.00080831483697775,0.00080831483728851,0.68009907945379,122718,2924,0.0047477645012922,0.00638548387208,0.0037610575009741,37.635707041108,0.00021628565632886,0.00021628565632886,0.00021628565632886,2590045.0583754,0.015006589246613
38391759,0.99732569930414,0.015158178956808,0.0049373594975523,0.0058372330704069,0.0043835863888489,-0.0011419223362078,0.0011419223362901,1.5542186961563e-14,1.5757783316419e-14,3.3361598473126e-14,7.3689513541826e-15,-0.00039959063046514,0.00039959063080386,-0.0010833930399679,0.0010833930400668,-0.0010833930402201,0.001083393040319,-0.0003995906308676,0.00039959063125583,-0.00039959063044048,0.00039959063082911,-0.0010833930399433,0.0010833930400921,-0.0010833930401954,0.0010833930403443,-0.0013510767535679,0.0013510767535678,-0.0013510767536335,0.0013510767536335,-0.0013510767535764,0.0013510767535591,-0.0013510767536418,0.0013510767536247,-0.001169129802388,0.001169129802403,-0.0011691298024562,0.0011691298024717,-0.0011691298023788,0.001169129802411,-0.0011691298024484,0.001169129802481,-0.00039959063089272,0.00039959063123098,-6.3236303468454e-15,1.8668782622682e-14,-6.06835285128e-14,7.2535548794657e-14,-0.001540439098691,0.0015404390987029,-0.0015238377625339,0.0015238377626662,-0.0015187609098949,0.0015187609098376,-0.0015187609098351,0.0015187609098267,-0.0014996738634467,0.0014996738634035,-0.001499673863702,0.0014996738637517,-0.0014996738634371,0.0014996738634111,-0.0014996738636925,0.0014996738637593,-0.0015238377629762,0.0015238377628675,-0.0015238377625297,0.0015238377626789,-0.0015187609099098,0.0015187609099427,-0.00151876090985,0.0015187609099318,-0.0015238377629804,0.0015238377628548,-1.1473935705301e-14,-1.1689065701184e-14,-0.00090265113114496,0.00090265113136457,1.3382275739486e-13,-8.3854239781123e-16,-0.00080580705075398,0.00080580705111629,-0.00069408389172423,0.00069408389257628,-0.00069408389170225,0.00069408389255443,-0.00080580705049586,0.00080580705111829,-0.00080580705062342,0.00080580705124629,-0.00069408389159661,0.000694083892704,-0.00069408389157451,0.00069408389268195,-0.0011116106951145,0.0011116106949582,-0.0011116106951597,0.001111610694913,-0.0011116106951125,0.0011116106949561,-0.0011116106951577,0.0011116106949108,-0.0011288277597619,0.00112882775957,-0.0011288277598051,0.0011288277596136,-0.0011288277597597,0.0011288277596587,-0.0011288277597168,0.0011288277596153,-0.00080580705062594,0.00080580705098783,0.71704436579938,122718,2924,0.0047491285793029,0.0063967836628143,0.0037553827173365,37.195105551594,0.00021276084441275,0.00021276084441275,0.00021276084441275,2566224.937166,0.015013694326942
38880000,0.99800117533254,0.015168829395232,0.004940833952738,0.0058414063285901,0.0043865891139039,-0.0011415280032391,0.0011415280033015,9.9670778655541e-15,1.0181277204264e-14,2.8595626423242e-14,-1.417339054206e-15,-0.00039306838970729,0.00039306838996868,-0.0010821508304761,0.0010821508305512,-0.0010821508308385,0.0010821508309137,-0.00039306839010121,0.00039306839042054,-0.000393068389678,0.00039306838999772,-0.0010821508304477,0.0010821508305808,-0.0010821508308096,0.0010821508309428,-0.0013521111866824,0.0013521111866772,-0.0013521111867914,0.0013521111867865,-0.001352111186692,0.0013521111866672,-0.0013521111868011,0.0013521111867765,-0.0011694513275908,0.0011694513275951,-0.0011694513276618,0.0011694513276665,-0.0011694513275807,0.0011694513276047,-0.0011694513276523,0.0011694513276768,-0.00039306839013006,0.00039306839039101,-7.7721743301151e-15,2.1368876607253e-14,-9.5908364182955e-14,1.0895778906139e-13,-0.0015434487888574,0.0015434487888705,-0.0015280724985492,0.0015280724987519,-0.0015224324880813,0.0015224324879976,-0.001522432488024,0.0015224324879975,-0.0015011380805958,0.0015011380805298,-0.0015011380808758,0.0015011380809482,-0.0015011380805844,0.0015011380805381,-0.0015011380808645,0.0015011380809565,-0.001528072499012,0.0015280724988353,-0.0015280724985442,0.0015280724987665,-0.0015224324880687,0.0015224324881223,-0.0015224324880113,0.0015224324881221,-0.001528072499017,0.0015280724988207,-6.3606968658559e-14,-6.382160911718e-14,-0.00090058741603109,0.00090058741597871,9.6857586103995e-14,-1.0789718451361e-13,-0.00080034164495038,0.00080034164503008,-0.00068915154545614,0.00068915154586723,-0.00068915154543078,0.00068915154584198,-0.00080034164463224,0.00080034164511472,-0.00080034164474852,0.00080034164523143,-0.00068915154525895,0.00068915154606449,-0.00068915154523348,0.00068915154603909,-0.0011119460584161,0.0011119460581552,-0.0011119460584842,0.0011119460580871,-0.0011119460584145,0.0011119460581535,-0.0011119460584826,0.0011119460580853,-0.0011284987250691,0.001128498724768,-0.0011284987251106,0.0011284987248099,-0.0011284987250416,0.0011284987248786,-0.0011284987250004,0.001128498724837,-0.00080034164483369,0.00080034164491295,0.74364572121898,122718,2924,0.0047475378045468,0.0064092368550623,0.0037468461066732,37.193629584899,0.00021274903667919,0.00021274903667919,0.00021274903667919,2516423.8707708,0.01501607600964
