time,ASR_ext,ASR_strain,ASR_strain_xx,ASR_strain_yy,ASR_strain_zz,disp_x_101,disp_x_102,disp_x_103,disp_x_104,disp_x_105,disp_x_106,disp_x_p10_neg,disp_x_p10_pos,disp_x_p11_neg,disp_x_p11_pos,disp_x_p12_neg,disp_x_p12_pos,disp_x_p13_neg,disp_x_p13_pos,disp_x_p14_neg,disp_x_p14_pos,disp_x_p15_neg,disp_x_p15_pos,disp_x_p16_neg,disp_x_p16_pos,disp_x_p1_neg,disp_x_p1_pos,disp_x_p2_neg,disp_x_p2_pos,disp_x_p3_neg,disp_x_p3_pos,disp_x_p4_neg,disp_x_p4_pos,disp_x_p5_neg,disp_x_p5_pos,disp_x_p6_neg,disp_x_p6_pos,disp_x_p7_neg,disp_x_p7_pos,disp_x_p8_neg,disp_x_p8_pos,disp_x_p9_neg,disp_x_p9_pos,disp_y_101,disp_y_102,disp_y_103,disp_y_104,disp_y_105,disp_y_106,disp_y_p10_neg,disp_y_p10_pos,disp_y_p11_neg,disp_y_p11_pos,disp_y_p12_neg,disp_y_p12_pos,disp_y_p1_neg,disp_y_p1_pos,disp_y_p2_neg,disp_y_p2_pos,disp_y_p3_neg,disp_y_p3_pos,disp_y_p4_neg,disp_y_p4_pos,disp_y_p5_neg,disp_y_p5_pos,disp_y_p6_neg,disp_y_p6_pos,disp_y_p7_neg,disp_y_p7_pos,disp_y_p8_neg,disp_y_p8_pos,disp_y_p9_neg,disp_y_p9_pos,disp_z_101,disp_z_102,disp_z_103,disp_z_104,disp_z_105,disp_z_106,disp_z_p10_neg,disp_z_p10_pos,disp_z_p11_neg,disp_z_p11_pos,disp_z_p12_neg,disp_z_p12_pos,disp_z_p13_neg,disp_z_p13_pos,disp_z_p14_neg,disp_z_p14_pos,disp_z_p15_neg,disp_z_p15_pos,disp_z_p16_neg,disp_z_p16_pos,disp_z_p1_neg,disp_z_p1_pos,disp_z_p2_neg,disp_z_p2_pos,disp_z_p3_neg,disp_z_p3_pos,disp_z_p4_neg,disp_z_p4_pos,disp_z_p5_neg,disp_z_p5_pos,disp_z_p6_neg,disp_z_p6_pos,disp_z_p7_neg,disp_z_p7_pos,disp_z_p8_neg,disp_z_p8_pos,disp_z_p9_neg,disp_z_p9_pos,humidity,ndof,nelem,strain_xx,strain_yy,strain_zz,temp,thermal_strain_xx,thermal_strain_yy,thermal_strain_zz,vonmises,vstrain
14391759,0,0,0,0,0,0,0,0,0,0,0,0,0,0,0,0,0,0,0,0,0,0,0,0,0,0,0,0,0,0,0,0,0,0,0,0,0,0,0,0,0,0,0,0,0,0,0,0,0,0,0,0,0,0,0,0,0,0,0,0,0,0,0,0,0,0,0,0,0,0,0,0,0,0,0,0,0,0,0,0,0,0,0,0,0,0,0,0,0,0,0,0,0,0,0,0,0,0,0,0,0,0,0,0,0,0,0,0,0,0,0,0,0,0,0,0,0,0,0,0,0,0,0
14891759,0.063426405152204,0.0011433022718769,0.00038110075729229,0.00038110075729229,0.00038110075729229,-0.00012737723444216,0.00012737556177303,-4.3660861993761e-10,-4.3660862306803e-10,-7.3009553896847e-10,-3.5521469673999e-10,-0.00011327938690128,0.00011327578945388,-0.00012333353467712,0.00012333202420431,-0.00012333486780823,0.00012333335733528,-0.00011327813387468,0.00011327384125707,-0.00011327972582357,0.00011327543320573,-0.00012333389342393,0.00012333166449432,-0.00012333522008302,0.0001233329911534,-0.0001320578402958,0.00013205713621571,-0.00013205837904605,0.0001320576749659,-0.0001320577154375,0.00013205726279435,-0.00013205825711929,0.00013205780447618,-0.00012470231226864,0.00012470177370128,-0.00012470282463104,0.00012470228606366,-0.00012470243668071,0.00012470165388173,-0.00012470294279454,0.00012470215999549,-0.00011327778215865,0.00011327418471101,1.1543237807597e-10,-2.4056512105509e-10,1.4569662784744e-10,-2.6565788348843e-10,-0.00013137986124225,0.00013137974076759,-0.00012799207082782,0.00012799167332726,-0.00012859037698058,0.00012859074070152,-0.00012859148452328,0.00012859115282666,-0.00013269240755724,0.00013269255979642,-0.00013269280041533,0.00013269266220829,-0.00013269249282714,0.00013269239262498,-0.00013269288568521,0.00013269249503687,-0.00012799040407107,0.00012799056269495,-0.00012799198557773,0.00012799134462211,-0.00012859021902302,0.00012859030326841,-0.0001285913265658,0.00012859071539354,-0.00012799048932133,0.00012799089140044,-7.1151328482063e-10,-7.1151327763714e-10,-0.00012564806461527,0.00012564423305401,-1.0845081970884e-09,-6.580517939069e-10,-0.00011889785219402,0.00011889511919787,-0.00012004880276979,0.00012004442655876,-0.00012004847501739,0.00012004409880647,-0.00011889927585758,0.00011889574911816,-0.00011889825785542,0.00011889473111625,-0.00012004920852655,0.00012004401432902,-0.00012004888846161,0.0001200436942639,-0.00013016152849762,0.00013016013691294,-0.00013016138194686,0.00013016027962206,-0.00013016164709041,0.00013016025550577,-0.00013016150406534,0.00013016040174044,-0.00012489509441215,0.00012489416811069,-0.00012489491738908,0.00012489399108764,-0.00012489506157881,0.00012489385535762,-0.00012489523086016,0.00012489402463896,-0.00011889888637582,0.00011889615337969,0.72243549799877,122718,2924,0.00053059335296197,0.00054726464215608,0.00052338756608583,30.453757877493,0.00015883006301994,0.00015883006301994,0.00015883006301994,1203446.8563788,0.0016025329431359
15391759,0.11438656365825,0.0020675428993858,0.00068762541950853,0.00069951508506058,0.00068040239481672,-0.00019207542508412,0.00019207465946252,-2.6387831485303e-10,-2.6388102267104e-10,-3.8196883597455e-10,-9.0323989222954e-11,-0.00016351440373394,0.00016351429328965,-0.0001850417979322,0.00018504128046234,-0.000185042605036,0.00018504208756844,-0.00016351400575554,0.00016351334323045,-0.00016351467268461,0.00016351401016984,-0.00018504208151749,0.00018504099384145,-0.00018504288368828,0.0001850417960146,-0.00020333139310514,0.00020333073322375,-0.00020333182426209,0.00020333116437859,-0.00020333129717593,0.00020333083196855,-0.0002033317301254,0.00020333126491595,-0.00018776710034269,0.00018776665562452,-0.0001877675092878,0.00018776706456197,-0.00018776719575278,0.00018776656181537,-0.00018776760126556,0.00018776696732043,-0.00016351372780141,0.00016351361734679,5.6064378970236e-11,-2.1881694267496e-10,8.3057086942418e-11,-2.4007891657007e-10,-0.00020235784477414,0.00020235768711389,-0.00019573481844759,0.00019573443839248,-0.0001975291942931,0.00019752941120037,-0.00019752972717737,0.00019752940322602,-0.00020600585373228,0.00020600590155936,-0.00020600659883336,0.00020600642691753,-0.00020600614835013,0.00020600600826895,-0.00020600689346693,0.00020600653364262,-0.00019573363299108,0.00019573370030395,-0.00019573488990496,0.0001957343234883,-0.00019752938617836,0.00019752938638853,-0.00019752991905992,0.00019752937841139,-0.00019573356156617,0.00019573381524058,-4.0295654936427e-10,-4.0295938353058e-10,-0.00018688719043983,0.00018688542146805,-5.8999066143063e-10,-2.5630584021588e-10,-0.00017507452297551,0.000175073881042,-0.00017636807274847,0.0001763665539933,-0.0001763678407927,0.00017636632205474,-0.00017507493439237,0.00017507365402112,-0.00017507485060751,0.0001750735702713,-0.00017636839670573,0.00017636622453252,-0.00017636817146574,0.0001763659993096,-0.00019764582069661,0.00019764467781857,-0.00019764570695507,0.00019764478872199,-0.00019764592319818,0.00019764478031999,-0.00019764581206264,0.00019764489382918,-0.00018801090660591,0.00018801024211318,-0.00018801080738717,0.00018801014288781,-0.0001880109203514,0.00018801003703809,-0.00018801101357485,0.00018801013026825,-0.00017507462143948,0.00017507397947068,0.74328681715349,122718,2924,0.00079999160966688,0.00084279752003723,0.00077838794164802,27.265661896453,0.00013332529517163,0.00013332529517163,0.00013332529517163,1702259.612633,0.0024241251184811
15891759,0.16046971859705,0.0029349381304991,0.00097478762938382,0.001004962110008,0.0009551883911073,-0.00025587233436797,0.00025587184673639,-1.8070918533343e-10,-1.8071186278105e-10,-2.0792243131833e-10,-2.5332620936702e-11,-0.0002129918929712,0.00021299211244624,-0.00024717753586344,0.00024717734493734,-0.00024717796708702,0.00024717777616288,-0.00021299190726871,0.00021299177851085,-0.00021299206269447,0.00021299193395825,-0.00024717771472345,0.00024717716328447,-0.0002471781433672,0.00024717759193034,-0.00027303322645354,0.00027303269777866,-0.00027303350641328,0.00027303297773565,-0.00027303316649815,0.00027303276005682,-0.00027303344731637,0.00027303304087233,-0.00025188279908712,0.00025188242442293,-0.00025188305421343,0.00025188267954089,-0.00025188285856343,0.00025188236553573,-0.00025188311180603,0.00025188261876994,-0.00021299173244459,0.00021299195189798,1.1866477972538e-11,-1.5807384896713e-10,4.1562089630221e-11,-1.8363336434736e-10,-0.00027447629653872,0.0002744761541665,-0.00026603733928705,0.00026603703417635,-0.00026903667457407,0.00026903677077149,-0.00026903686204682,0.00026903662425479,-0.00027877190717287,0.00027877190035603,-0.00027877250977627,0.00027877235028489,-0.00027877210176198,0.00027877197956207,-0.00027877270438242,0.00027877242950766,-0.00026603712093444,0.00026603714303093,-0.00026603741792653,0.0002660369983705,-0.00026903693749963,0.00026903688362356,-0.00026903712497116,0.00026903673710563,-0.00026603704232759,0.0002660371788694,-2.4471318694309e-10,-2.447159452999e-10,-0.00024595506810514,0.00024595395422532,-3.0664602435873e-10,-7.3884762452566e-11,-0.00023268427845653,0.00023268417424789,-0.00023138558731531,0.00023138506243033,-0.0002313854659172,0.00023138494104653,-0.00023268445554975,0.00023268390176064,-0.00023268450896778,0.00023268395521631,-0.00023138581482791,0.00023138483140194,-0.00023138569727553,0.00023138471386369,-0.00026230893122951,0.00026230801986411,-0.00026230885221369,0.00026230809754079,-0.00026230898548025,0.00026230807411454,-0.00026230890790546,0.00026230815323206,-0.00025176680781149,0.00025176629027538,-0.00025176675510537,0.00025176623756186,-0.00025176683391216,0.0002517661635121,-0.00025176688278245,0.00025176621238977,-0.00023268423488397,0.00023268413063765,0.77727459756012,122718,2924,0.0010655685065969,0.0011429894528851,0.0010242854797268,25.413175944728,0.00011850540755782,0.00011850540755782,0.00011850540755782,1715403.8572792,0.0032380943734961
16391759,0.20548471193787,0.0037836577161115,0.0012547982640233,0.0013100445492937,0.0012188149027945,-0.00031925565984363,0.00031925528905884,-1.4531019408655e-10,-1.4531253697454e-10,-1.2614583978707e-10,-2.885859471327e-12,-0.00025587311962681,0.00025587357574994,-0.0003093237553156,0.00030932368832971,-0.00030932404411316,0.00030932397713075,-0.00025587333802929,0.00025587355824747,-0.00025587323468182,0.00025587345493002,-0.00030932387675118,0.00030932356503466,-0.00030932416406329,0.00030932385235039,-0.00034276646537849,0.0003427660084352,-0.00034276666556925,0.00034276620862285,-0.00034276642465714,0.00034276605077046,-0.00034276662529093,0.0003427662514012,-0.00031598104116297,0.00031598069645186,-0.00031598116495148,0.000315980820233,-0.00031598108115723,0.0003159806566451,-0.00031598120385419,0.00031598077933465,-0.0002558732197909,0.00025587367588385,-6.698166375615e-12,-1.1962865767662e-10,1.4719463624608e-11,-1.3817587898351e-10,-0.00034813809193366,0.000348137968489,-0.00033797367950639,0.00033797344446567,-0.00034158512949653,0.0003415851644759,-0.00034158518352619,0.0003415849975267,-0.00035239777900779,0.00035239774746568,-0.00035239827682714,0.00035239814136691,-0.00035239790721197,0.00035239779855305,-0.00035239840504787,0.00035239819247049,-0.00033797379419304,0.00033797378324932,-0.00033797374181242,0.00033797343093816,-0.00034158536426947,0.00034158529783201,-0.00034158541829762,0.00034158513088126,-0.00033797373191403,0.0003379737968038,-1.5459063659748e-10,-1.5459317998576e-10,-0.00030356508124303,0.00030356427023581,-1.8225542221231e-10,-2.3474236809245e-11,-0.00028987621696951,0.00028987632597629,-0.00028432843598927,0.00028432825419596,-0.00028432835983015,0.0002843281780448,-0.00028987627274403,0.0002898760729184,-0.00028987637562037,0.00028987617581424,-0.00028432859194554,0.00028432809554536,-0.0002843285183035,0.00028432802191112,-0.00032594970077078,0.00032594893772388,-0.00032594964698278,0.00032594899098354,-0.00032594973464371,0.00032594897159617,-0.00032594968173671,0.00032594902573665,-0.00031499195082929,0.00031499155602245,-0.00031499191770991,0.00031499152289602,-0.00031499197157674,0.0003149914724992,-0.00031499200202529,0.00031499150295479,-0.00028987612125753,0.00028987623024483,0.77589297103155,122718,2924,0.0013293579796005,0.0014495099842952,0.0012640572701506,24.448517303188,0.00011078813842551,0.00011078813842551,0.00011078813842551,1929827.826474,0.004051134956367
16891759,0.25013596490935,0.0046482801587168,0.0015392163741177,0.001627551201893,0.0014815125827061,-0.00038422620422722,0.00038422588035127,-1.3750137662586e-10,-1.375036833348e-10,-1.0790856442331e-10,4.6697370633264e-12,-0.00029659303484936,0.00029659362340049,-0.00037574503425746,0.00037574502591057,-0.00037574523784182,0.00037574522949944,-0.0002965933761343,0.00029659374981838,-0.00029659313998732,0.00029659351371234,-0.00037574514495069,0.00037574491358835,-0.00037574534772465,0.00037574511636698,-0.0004141271489329,0.00041412670102305,-0.0004141273020274,0.00041412685411408,-0.00041412711144803,0.00041412673974576,-0.00041412726481011,0.00041412689310444,-0.00038200656478671,0.00038200622496447,-0.00038200658942019,0.00038200624959004,-0.00038200660125587,0.00038200618861919,-0.00038200662502991,0.0003820062123853,-0.00029659326857402,0.00029659385708407,-6.7686807361556e-12,-1.0948778634093e-10,7.1901421107999e-14,-1.1401913935238e-10,-0.00042491732618594,0.00042491721246049,-0.00041405944556659,0.00041405925463495,-0.00041643679016793,0.00041643681175455,-0.00041643682372205,0.00041643664502684,-0.00042855736362091,0.00042855732588555,-0.00042855779306688,0.00042855767734969,-0.00042855745881032,0.0004285573498433,-0.00042855788827215,0.00042855770132299,-0.00041405966145028,0.00041405962536397,-0.00041405949524975,0.00041405923536979,-0.00041643699522513,0.00041643694147425,-0.00041643702877757,0.00041643677474482,-0.00041405961179057,0.00041405964465257,-1.1045599179233e-10,-1.1045849207992e-10,-0.00036141606482665,0.0003614154237081,-1.331584147397e-10,-1.402252390277e-11,-0.00034897396088817,0.00034897413664105,-0.00033749526309872,0.00033749520845949,-0.00033749520878262,0.0003374951541483,-0.00034897393965476,0.00034897388257439,-0.00034897408115056,0.00034897402408771,-0.00033749538045452,0.00033749508851855,-0.00033749532822272,0.00033749503629149,-0.00038979826858078,0.00038979759190013,-0.00038979822816923,0.00038979763205182,-0.00038979829127912,0.00038979761459777,-0.00038979825161742,0.00038979765549911,-0.00038062808258193,0.00038062776875855,-0.00038062806699966,0.00038062775316866,-0.00038062810768934,0.00038062771572031,-0.00038062812080165,0.00038062772884023,-0.00034897382591031,0.00034897400164568,0.7974907371563,122718,2924,0.0015996873819149,0.0017688998730761,0.001504777477151,23.815442712603,0.00010572354170083,0.00010572354170083,0.00010572354170083,2181719.3557001,0.0048852890205327
17391759,0.29032959025814,0.005378170565405,0.0017783121592611,0.001902110203967,0.0016977482021769,-0.00043637154084809,0.0004363713705078,-9.8390830220322e-11,-9.839303089574e-11,-3.4759966209834e-11,2.815288819859e-11,-0.00032134617593504,0.00032134709611195,-0.00042622938699822,0.0004262295099882,-0.00042622944719856,0.00042622957019327,-0.00032134663930847,0.00032134743856046,-0.00032134623511897,0.00032134703441576,-0.00042622945001879,0.00042622944600081,-0.00042622951003611,0.00042622950602298,-0.00047402534364704,0.00047402496433996,-0.00047402543242521,0.00047402505311445,-0.00047402532231672,0.00047402498628054,-0.00047402541112516,0.00047402507508535,-0.0004336945658895,0.00043369426955257,-0.00043369451175922,0.00043369421541432,-0.00043369458599114,0.0004336942493751,-0.00043369453148197,0.00043369419485794,-0.00032134657891028,0.00032134749904223,-1.9964501318777e-11,-7.5095609821844e-11,-2.762192309568e-11,-6.5990756615919e-11,-0.00048964209737674,0.00048964200415102,-0.00047687308529567,0.0004768729723921,-0.0004786896688873,0.00047868963939989,-0.00047868961084344,0.00047868947437295,-0.00049333960519675,0.00049333954584489,-0.00049333994889118,0.00049333986286486,-0.0004933396664842,0.00049333956850519,-0.00049334001019411,0.00049333988554033,-0.0004768734865095,0.00047687341288638,-0.00047687312623474,0.00047687297664109,-0.00047868985536055,0.00047868980137735,-0.00047868979731517,0.00047868963634885,-0.00047687344559246,0.0004768734086594,-4.4265114739818e-11,-4.426757826065e-11,-0.00040627766488098,0.00040627738946809,-2.1202514234546e-11,2.0742343377008e-11,-0.00039106557613035,0.00039106595163322,-0.0003748482467974,0.00037484855878519,-0.00037484822910249,0.00037484854109389,-0.00039106538743497,0.00039106567770831,-0.00039106562156355,0.00039106591185312,-0.00037484828957621,0.0003748485139977,-0.00037484827308316,0.00037484849750811,-0.00044195212266559,0.00044195159630745,-0.00044195210838553,0.00044195161080341,-0.00044195213012624,0.00044195160376741,-0.00044195211620211,0.0004419516186191,-0.00043212210410743,0.00043212187416528,-0.0004321221134163,0.0004321218834664,-0.00043212212816168,0.00043212187108628,-0.0004321221171763,0.00043212186010862,-0.00039106534671485,0.00039106572220155,0.74995420140606,122718,2924,0.0018166087431372,0.0020380605676853,0.0016914128485885,22.12369564531,9.2189565162477e-05,9.2189565162477e-05,9.2189565162477e-05,2446348.2512432,0.0055615342730799
17891759,0.32402371701695,0.0059434765167179,0.0019639015298442,0.0021176703757408,0.0018619046111328,-0.00047466893603269,0.00047466890795695,-6.1145231077221e-11,-6.1147479493828e-11,3.6335555547249e-11,4.0215769788779e-11,-0.00033924469340266,0.00033924581671665,-0.00046239233238378,0.00046239256597478,-0.0004623922533103,0.00046239248690637,-0.00033924522268309,0.00033924633753402,-0.00033924469744738,0.00033924581234425,-0.00046239233854733,0.00046239255985479,-0.00046239225994948,0.00046239248126213,-0.00051937843775847,0.00051937813854963,-0.00051937845927758,0.00051937816006483,-0.00051937843563724,0.00051937814052302,-0.00051937845692504,0.00051937816180699,-0.00046958876265493,0.00046958851235357,-0.00046958863984027,0.00046958838953078,-0.00046958876336766,0.00046958851144405,-0.00046958864066429,0.00046958838873254,-0.00033924521860324,0.00033924634187105,-3.3570160954626e-11,-3.2138925501416e-11,-5.7363918483431e-11,-8.0042122121054e-12,-0.00053701964534601,0.0005370195805437,-0.00051973720623662,0.00051973718808343,-0.00052168441347642,0.00052168432821075,-0.00052168427173892,0.00052168419057516,-0.00054356894701353,0.00054356886688793,-0.00054356919073738,0.00054356914333943,-0.00054356896543567,0.00054356888515722,-0.00054356920917475,0.00054356916162361,-0.00051973775569082,0.00051973764356095,-0.00051973723225158,0.00051973721562494,-0.00052168457106053,0.00052168452005933,-0.00052168442932125,0.00052168438242195,-0.00051973772969682,0.00051973761604037,1.4206148521148e-11,1.4203713405239e-11,-0.00043809745876611,0.0004380975093875,8.2631163434788e-11,3.5280075597503e-11,-0.00041910111599915,0.00041910159956449,-0.00040081437764801,0.00040081496865385,-0.00040081439477336,0.00040081498578165,-0.0004191007800435,0.00041910135013127,-0.0004191010743951,0.00041910164449827,-0.00040081433383918,0.00040081501112696,-0.00040081435119345,0.00040081502848361,-0.00048014416940404,0.00048014380837494,-0.00048014418530183,0.00048014379317186,-0.00048014416209787,0.00048014380106811,-0.00048014417793447,0.00048014378580362,-0.00046771115185758,0.0004677109965404,-0.00046771118166632,0.00046771102634137,-0.00046771116636049,0.00046771104294941,-0.00046771113578934,0.00046771101238589,-0.00041910082434084,0.00041910130789093,0.69743113439696,122718,2924,0.0019758947770636,0.0022350292692286,0.0018237706040338,19.640238284828,7.2321906278628e-05,7.2321906278628e-05,7.2321906278628e-05,2809701.1964198,0.0060530045006185
18391759,0.35297679504241,0.0064316446960884,0.0021245226022611,0.0023044130907433,0.0020027090030839,-0.00050783187757384,0.00050783188561856,-5.0224651068444e-11,-5.0226649286812e-11,6.1382342738035e-11,2.9576738789168e-11,-0.00035604538716752,0.00035604649684978,-0.00049511637205896,0.00049511660663435,-0.00049511622577438,0.00049511646035529,-0.00035604589951723,0.00035604706978203,-0.00035604535729064,0.00035604652760286,-0.0004951163437061,0.00049511663604969,-0.00049511619818724,0.00049511649053647,-0.00055851264340971,0.00055851238505492,-0.00055851263106239,0.00055851237270374,-0.0005585126527886,0.00055851237489564,-0.00055851264011548,0.00055851236221872,-0.00050072615215373,0.0005007259151171,-0.00050072600436765,0.00050072576732339,-0.0005007261412636,0.00050072592603055,-0.00050072599367432,0.00050072577843359,-0.00035604592971309,0.00035604703934771,-3.8092536710916e-11,-2.4054993371759e-12,-7.6952546828987e-11,3.5939397664306e-11,-0.00057751200614763,0.0005775119658462,-0.00055600794221649,0.00055600799906997,-0.00055775630649474,0.00055775619148126,-0.00055775615102475,0.0005577561075345,-0.00058736976721971,0.00058736967873536,-0.00058736993246489,0.00058736991912861,-0.00058736974864283,0.00058736968282607,-0.0005873699139031,0.00058736992323407,-0.00055600854475622,0.00055600840611508,-0.00055600794902797,0.00055600803037404,-0.00055775643615685,0.00055775639772351,-0.00055775628068494,0.00055775631377482,-0.00055600853796497,0.00055600837483121,2.5231216534652e-11,2.5228474282833e-11,-0.00046541096334103,0.00046541108344627,1.1286304368272e-10,1.387357574899e-12,-0.00044491601413517,0.0004449164155315,-0.00042445417043401,0.00042445473930381,-0.00042445420276861,0.00042445477164024,-0.00044491561451808,0.0004449162275393,-0.00044491590928302,0.00044491652231953,-0.00042445406389402,0.00042445484476076,-0.00042445409598481,0.00042445487685325,-0.00051259936274339,0.00051259907836841,-0.00051259940017119,0.00051259904187482,-0.00051259934848188,0.00051259906410605,-0.00051259938563658,0.00051259902733918,-0.00049854477789381,0.00049854463003849,-0.00049854481343402,0.00049854466557173,-0.00049854477652818,0.00049854470312733,-0.00049854474071803,0.00049854466732411,-0.00044491572096681,0.00044491612234793,0.70636194742755,122718,2924,0.0021138057119971,0.0024033388554655,0.0019373702866322,17.516501818885,5.5332014551081e-05,5.5332014551081e-05,5.5332014551081e-05,3085852.3108602,0.0064754719916493
18891759,0.38095703131657,0.0069188722671929,0.0022849470836501,0.0024910307123558,0.002142894471187,-0.00054383023251392,0.00054383015161604,-7.2232517632933e-11,-7.2234479756815e-11,2.7584745437315e-11,4.490654475353e-12,-0.0003710524966691,0.00037105342433856,-0.00053128912041169,0.00053128925411462,-0.00053128900488842,0.00053128913859702,-0.00037105294339545,0.00037105391651597,-0.00037105247410783,0.00037105344727755,-0.00053128910034235,0.00053128927577759,-0.00053128898530305,0.00053128916074406,-0.00060087114701507,0.0006008708576921,-0.00060087114871929,0.00060087085939237,-0.00060087115339019,0.00060087085038229,-0.00060087115490743,0.00060087085189563,-0.00053620512007649,0.00053620485305866,-0.00053620498963671,0.00053620472261127,-0.00053620511226205,0.0005362048614049,-0.00053620498159829,0.0005362047307335,-0.00037105296554461,0.00037105389316461,-3.1019204502242e-11,-3.5564239125142e-12,-8.2594716552811e-11,4.738227185706e-11,-0.00062310808164326,0.00062310804721264,-0.00059923808833544,0.00059923817080425,-0.00060025684119265,0.00060025673461411,-0.00060025675067629,0.00060025669970057,-0.00063433642833793,0.00063433634383241,-0.00063433656733852,0.00063433656824377,-0.00063433639200063,0.00063433632355803,-0.00063433653101615,0.00063433654798398,-0.0005992386456968,0.00059923849299678,-0.00059923807818314,0.00059923817930924,-0.00060025695326378,0.00060025693431647,-0.00060025686274543,0.00060025689940092,-0.00059923865586868,0.00059923848451132,-1.6344448200778e-11,-1.6347260313816e-11,-0.00049519328635132,0.00049519318771719,6.1358903091508e-11,-6.6427992067499e-11,-0.00047395566475916,0.00047395584765736,-0.00044970101714612,0.000449701285629,-0.00044970103886309,0.00044970130734699,-0.00047395529729327,0.00047395572613737,-0.00047395554294142,0.00047395597180054,-0.00044970089391452,0.0004497014074288,-0.0004497009156944,0.00044970142920959,-0.00054805087762092,0.00054805053142638,-0.00054805092027227,0.00054805048956991,-0.00054805086712186,0.00054805052092652,-0.00054805090962185,0.0005480504789185,-0.00053376646039441,0.00053376624285947,-0.00053376648909184,0.00053376627155011,-0.00053376644674352,0.0005337663147373,-0.00053376641752859,0.00053376628552911,-0.0004739554212002,0.00047395560408345,0.73210601682484,122718,2924,0.0022634942052371,0.0025928287752287,0.0020612272729639,16.908611163862,5.0468889310898e-05,5.0468889310898e-05,5.0468889310898e-05,3168660.1901008,0.0069416301602897
19391759,0.4104511400625,0.0074503491882686,0.002459066570247,0.0026968664593205,0.0022944161587011,-0.00058505334875713,0.00058505316974002,-9.8601070628504e-11,-9.8603020370412e-11,-1.8202222493421e-11,-1.5136130969236e-11,-0.00038769054600145,0.00038769126658168,-0.00057319243553022,0.00057319248199098,-0.00057319239029144,0.00057319243675806,-0.00038769092678922,0.00038769164385076,-0.00038769054747566,0.0003876912645884,-0.00057319244075517,0.00057319247863719,-0.0005731923955495,0.00057319243343717,-0.00064892412717735,0.00064892379347527,-0.00064892415769572,0.00064892382398959,-0.00064892412487634,0.00064892379490882,-0.00064892415538646,0.00064892382541484,-0.00057782612627997,0.00057782582964444,-0.00057782602176712,0.00057782572512377,-0.00057782612722199,0.0005778258296223,-0.00057782602207077,0.0005778257244635,-0.00038769092409006,0.00038769164461849,-1.9751603866766e-11,-1.749574810514e-11,-7.5941289986896e-11,3.8259580137266e-11,-0.00067606424743892,0.00067606421055802,-0.0006508248696797,0.00065082494301919,-0.00065069750668348,0.00065069742770699,-0.0006506974880993,0.00065069741534275,-0.00068758327983125,0.00068758320762651,-0.00068758342953255,0.00068758343118637,-0.0006875832420988,0.00068758316807351,-0.00068758339181503,0.00068758339164785,-0.0006508253052187,0.0006508251567393,-0.00065082485351758,0.00065082492832322,-0.00065069760419131,0.00065069760196096,-0.00065069758560514,0.00065069758959463,-0.0006508253213995,0.00065082517145387,-6.264596073468e-11,-6.2648772720424e-11,-0.00052941344333925,0.00052941309812953,-1.0594356247207e-11,-1.2174397486947e-10,-0.00050783221229406,0.000507832194968,-0.00047867628821629,0.00047867624560154,-0.00047867629289958,0.000478676250285,-0.00050783193298108,0.00050783213142018,-0.00050783210601485,0.00050783230446954,-0.00047867618057907,0.0004786763514449,-0.00047867618575528,0.00047867635662131,-0.00058849166297967,0.00058849123106159,-0.00058849169983457,0.00058849119477667,-0.0005884916587866,0.00058849122686781,-0.00058849169567972,0.00058849119062083,-0.00057511084047854,0.00057511056008351,-0.00057511086239324,0.00057511058199127,-0.00057511082569655,0.00057511061996897,-0.00057511080283743,0.00057511059711665,-0.00050783204220865,0.00050783202486781,0.75731812320228,122718,2924,0.00243488785536,0.002812859904301,0.0022035250283668,17.474036213878,5.4992289711023e-05,5.4992289711023e-05,5.4992289711023e-05,3210127.2455461,0.0074792158397723
19891759,0.44283733671141,0.008010977247446,0.0026420284550817,0.0029173219224953,0.002451626869869,-0.00062932718963329,0.00062932693507076,-1.1899845475242e-10,-1.190001081725e-10,-6.4381670478278e-11,-2.3118038142157e-11,-0.00040416612341072,0.00040416667313282,-0.00061643655348826,0.00061643654395289,-0.00061643658319325,0.00061643657366397,-0.00040416645556476,0.00040416692842678,-0.00040416616108755,0.00040416663400307,-0.00061643659567519,0.0006164365033384,-0.00061643662508382,0.00061643653275321,-0.00070136125953981,0.00070136088698001,-0.00070136132144927,0.00070136094888551,-0.00070136124475385,0.00070136090120478,-0.00070136130678856,0.00070136096323556,-0.00062169174585699,0.00062169143574254,-0.00062169166668214,0.00062169135656059,-0.0006216917594416,0.00062169142322982,-0.00062169167935043,0.00062169134313156,-0.00040416641610677,0.00040416696577502,-5.53554342236e-12,-4.0564753421687e-11,-6.3251423124206e-11,1.7190397609859e-11,-0.00073372675030918,0.00073372670501023,-0.00070596904227684,0.00070596908690914,-0.00070518449731632,0.00070518445767075,-0.00070518455804819,0.00070518445132916,-0.00074616453617533,0.00074616447981619,-0.00074616471922546,0.00074616471372741,-0.00074616451446924,0.00074616443094248,-0.00074616469753399,0.00074616466486793,-0.00070596931999252,0.00070596918354899,-0.00070596903208334,0.00070596905302189,-0.00070518458670461,0.00070518460107239,-0.00070518464743435,0.00070518459472866,-0.00070596933020416,0.00070596921745434,-1.0023014487745e-10,-1.0023327562054e-10,-0.00056574333370582,0.00056574278554021,-8.0075577877496e-11,-1.5687253251578e-10,-0.00054162204453186,0.00054162188361692,-0.00050802420638955,0.00050802390950494,-0.00050802419442448,0.00050802389753951,-0.00054162186731421,0.00054162185649028,-0.00054162197153931,0.0005416219607318,-0.00050802413194792,0.00050802398194204,-0.00050802412086314,0.00050802397085686,-0.00063233786686998,0.0006323373590141,-0.0006323378920774,0.0006323373341473,-0.00063233786951461,0.00063233736165791,-0.00063233789493183,0.00063233733700069,-0.00061856353355765,0.00061856321458549,-0.00061856355102489,0.00061856323204657,-0.00061856352591969,0.00061856325888912,-0.00061856350710691,0.00061856324008245,-0.00054162194403063,0.00054162178309955,0.72797888980678,122718,2924,0.0026189387640583,0.003052385474015,0.0023545768608859,18.684104348394,6.467283478715e-05,6.467283478715e-05,6.467283478715e-05,3319650.7842102,0.0080583327723168
20391759,0.47488622879446,0.0085883901652642,0.0028297332261758,0.0031461898743979,0.0026124670646906,-0.00067260642187387,0.00067260628269912,-9.0115350361434e-11,-9.0116992693614e-11,-1.9277483292e-11,1.0889075875618e-12,-0.00042321874577243,0.0004232195228355,-0.00066066073878684,0.00066066083137102,-0.00066066068955114,0.0006606607821415,-0.00042321913832667,0.00042321987672473,-0.00042321876488879,0.00042321950334142,-0.00066066076104503,0.00066066081067983,-0.00066066071189939,0.00066066076154046,-0.0007517117706898,0.00075171144560397,-0.0007517118016538,0.00075171147656391,-0.00075171176293495,0.00075171145273267,-0.00075171179383136,0.00075171148362505,-0.00066485926941957,0.00066485900062833,-0.00066485916183046,0.0006648588930321,-0.00066485927600756,0.00066485899475619,-0.00066485916794294,0.00066485888668445,-0.0004232191182848,0.00042321989529297,-1.1041728623946e-11,-2.6485847169667e-11,-7.4072238320435e-11,3.6322763688032e-11,-0.00078930197477072,0.0007893019377936,-0.00075927692232766,0.00075927699759391,-0.00075707976036461,0.00075707970004927,-0.000757079755268,0.00075707966593241,-0.00080333365448033,0.00080333358844967,-0.00080333382782505,0.00080333383408985,-0.00080333364155187,0.00080333356272531,-0.00080333381491101,0.00080333380837952,-0.00075927723366906,0.00075927708314255,-0.00075927692690999,0.000759276991912,-0.00075707985375441,0.00075707986777007,-0.00075707984865556,0.00075707983365097,-0.00075927722910427,0.00075927708884195,-5.5499794139e-11,-5.5502935480405e-11,-0.00060081874658972,0.00060081845325013,-1.3983175572666e-11,-1.2192525734796e-10,-0.00057694968708582,0.00057694968508487,-0.00053817089134969,0.00053817085087512,-0.00053817090019158,0.00053817085971604,-0.00057694943751834,0.00057694964349033,-0.00057694958458683,0.00057694979057557,-0.00053817078727572,0.00053817095340547,-0.00053817079652605,0.00053817096265479,-0.0006736620617519,0.00067366165075466,-0.00067366209766659,0.00067366161539975,-0.00067366205873302,0.00067366164773502,-0.00067366209462493,0.00067366161235713,-0.00066121978186983,0.00066121952755226,-0.00066121981181652,0.00066121955749292,-0.00066121977619547,0.00066121959430509,-0.00066121974540533,0.00066121956352093,-0.00057694954268436,0.00057694954066697,0.7581955975688,122718,2924,0.0027988258375937,0.0032831804276007,0.002500394233785,18.606971571868,6.4055772574948e-05,6.4055772574948e-05,6.4055772574948e-05,3462845.5055223,0.0086194862781118
20891759,0.50397902869562,0.0090933212771056,0.0029938019066984,0.0033482162856272,0.0027513030847801,-0.00070746236505114,0.00070746236154213,-5.5618155153538e-11,-5.5619868586488e-11,4.7257487080914e-11,2.2737883843845e-11,-0.0004293739523187,0.00042937500662823,-0.00069380700078682,0.00069380720842671,-0.00069380683666965,0.00069380704431569,-0.00042937440095829,0.00042937550168089,-0.00042937392958867,0.00042937503036695,-0.00069380697983929,0.00069380723138999,-0.00069380681624472,0.00069380706780167,-0.00079480201275414,0.00079480174840881,-0.00079480199625518,0.00079480173190565,-0.00079480201977017,0.00079480174041255,-0.00079480200299603,0.00079480172363425,-0.00069976522395797,0.00069976499289928,-0.00069976508035644,0.00069976484929044,-0.00069976521570638,0.00069976500163197,-0.00069976507205889,0.00069976485797718,-0.00042937442365892,0.00042937547791239,-2.4203493688117e-11,3.5300027490744e-12,-9.6660238772526e-11,7.5152276120139e-11,-0.00083834314773098,0.00083834312705404,-0.0008065047809747,0.00080650491769796,-0.00080372327321755,0.00080372316668634,-0.00080372316922559,0.00080372311825841,-0.00085255000721235,0.00085254992140305,-0.00085255012931024,0.00085255015786088,-0.00085254997965603,0.00085254991081228,-0.00085255010176819,0.00085255014728399,-0.0008065052446988,0.00080650506506456,-0.00080650478543515,0.00080650494108364,-0.00080372336458915,0.0008037233736446,-0.00080372326059491,0.00080372332521437,-0.00080650524025541,0.0008065050416959,-3.249108171577e-12,-3.2521773724784e-12,-0.00062768900946463,0.00062768903027323,8.4249680700674e-11,-8.6367446857313e-11,-0.00060097175865032,0.00060097193697177,-0.00055745405761608,0.00055745434971515,-0.0005574540945669,0.00055745438666447,-0.00060097137993944,0.00060097188585924,-0.00060097159560725,0.00060097210154395,-0.00055745389305373,0.00055745451324128,-0.00055745392981638,0.00055745455000237,-0.00070822011716443,0.00070821983007637,-0.00070822017430944,0.00070821977378828,-0.00070822010429898,0.00070821981721027,-0.00070822016114001,0.00070821976061798,-0.00069558147471874,0.0006955812778659,-0.0006955815199269,0.00069558132306785,-0.00069558146322476,0.00069558138026033,-0.00069558141779494,0.00069558133483666,-0.00060097154433029,0.00060097172263511,0.73179652862635,122718,2924,0.0029436985640397,0.0034867905541708,0.0026120988967511,17.403698809865,5.4429590478923e-05,5.4429590478923e-05,5.4429590478923e-05,3532289.4371857,0.0090837742223936
21391759,0.52873992354134,0.0095196633139298,0.0031321002507911,0.0035202468662133,0.0028673161969254,-0.00073520395677316,0.00073520407434005,-2.6257468675885e-11,-2.625918721162e-11,1.2004392418169e-10,2.2939336454312e-11,-0.00043722588675136,0.00043722714336272,-0.00072103234651452,0.00072103262972928,-0.00072103206687698,0.00072103235009794,-0.00043722635707356,0.00043722780034841,-0.00043722579464664,0.00043722723797758,-0.00072103225547483,0.00072103272415605,-0.00072103197664356,0.00072103244533107,-0.00082876485318993,0.00082876465453744,-0.00082876478601411,0.00082876458735738,-0.0008287648837451,0.00082876462211031,-0.00082876481617292,0.00082876455453391,-0.00072674551983949,0.00072674531037107,-0.00072674534104633,0.00072674513157057,-0.00072674548772829,0.00072674534308865,-0.00072674530912046,0.00072674516447347,-0.00043722644969285,0.00043722770624771,-4.438349679111e-11,5.401708999145e-11,-1.3855144287794e-10,1.4623887626742e-10,-0.0008762614910053,0.00087626149964512,-0.00084161707406359,0.00084161732659985,-0.00083826102168993,0.00083826083808775,-0.00083826080309502,0.00083826081391802,-0.00089233605052957,0.0008923359320858,-0.00089233608721424,0.00089233615888609,-0.0008923359890984,0.00089233593517268,-0.00089233602579722,0.00089233616198674,-0.00084161773523384,0.00084161749792575,-0.00084161706261469,0.00084161738154585,-0.00083826108792703,0.00083826109533504,-0.00083826086932976,0.00083826107116295,-0.00084161774669948,0.00084161744299644,3.7429659181814e-11,3.7426590338209e-11,-0.00064851998478462,0.00064852028894765,1.9405822302306e-10,-9.044397834781e-11,-0.00062060117981974,0.00062060143996564,-0.00057358072562105,0.00057358126405176,-0.00057358079008594,0.00057358132851481,-0.00062060062572296,0.00062060143479942,-0.00062060090524871,0.00062060171434208,-0.00057358045008172,0.00057358153898488,-0.00057358051371267,0.00057358160261395,-0.00073455899605178,0.00073455884106763,-0.0007345590914145,0.00073455874689571,-0.00073455897239367,0.00073455881740891,-0.00073455906715882,0.00073455872263922,-0.00072201359349457,0.00072201341902842,-0.0007220136524695,0.00072201347799718,-0.00072201355750234,0.00072201357263633,-0.00072201349898057,0.0007220135141207,-0.0006206009002057,0.00062060116033495,0.72687224025146,122718,2924,0.0030589854068536,0.0036441843424137,0.0026986881828698,15.326405276479,3.7811242211828e-05,3.7811242211828e-05,3.7811242211828e-05,3665989.1423232,0.0094463910913088
21891759,0.55088564435204,0.0098953659590561,0.0032540534185135,0.0036723730275204,0.0029689395130222,-0.00076025147094726,0.00076025154366362,-3.8942942746301e-11,-3.8944683310775e-11,1.0614026645831e-10,5.2814639490194e-12,-0.00044205239141472,0.0004420535336391,-0.00074501294710905,0.00074501318289123,-0.00074501269234744,0.00074501292813583,-0.00044205281043467,0.00044205414804972,-0.00044205229476774,0.00044205363243933,-0.00074501285238119,0.00074501328160351,-0.00074501259816015,0.00074501302738877,-0.00085999449751322,0.00085999428421227,-0.00085999443686251,0.00085999422355724,-0.00085999452907996,0.00085999425051223,-0.00085999446815785,0.00085999418958585,-0.00075129493656114,0.0007512947069745,-0.00075129476887472,0.00075129453928068,-0.00075129490336734,0.00075129474116466,-0.00075129473555566,0.00075129457334557,-0.00044205290706508,0.00044205404923248,-4.2421827189358e-11,5.992585751207e-11,-1.4804966118448e-10,1.6342862610295e-10,-0.00091152124133477,0.00091152125770933,-0.00087453753891305,0.00087453782416431,-0.00087084217507711,0.00087084198665089,-0.00087084198289633,0.0008708419968431,-0.00092879289793049,0.00092879277789562,-0.00092879290254354,0.00092879298944277,-0.0009287928164811,0.00092879276266476,-0.00092879282110823,0.0009287929742256,-0.00087453821127857,0.00087453795659206,-0.0008745375111948,0.00087453786525957,-0.00087084221692547,0.00087084223700524,-0.00087084202474231,0.00087084224719501,-0.00087453823901337,0.00087453791551329,1.0027335204249e-11,1.0024287143585e-11,-0.00066715839074227,0.00066715858128818,1.7437581386413e-10,-1.3629191351346e-10,-0.00063746574880354,0.00063746587044273,-0.00058711385118765,0.00058711422011654,-0.00058711390937319,0.00058711427829999,-0.00063746519483607,0.00063746591849141,-0.00063746544780762,0.00063746617147984,-0.00058711354958058,0.0005871145209932,-0.00058711360707895,0.00058711457848941,-0.00075878470253641,0.00075878452027856,-0.00075878480643015,0.00075878441747685,-0.00075878467954522,0.00075878449728682,-0.00075878478292329,0.00075878439396923,-0.00074605023120715,0.00074605000528659,-0.00074605028795454,0.0007460500620278,-0.00074605018427203,0.00074605016552993,-0.00074605012780887,0.00074605010907297,-0.00063746549601808,0.0006374656176406,0.7177806921228,122718,2924,0.0031630717131089,0.0037905188110909,0.0027761610897219,13.951855096303,2.6814840770425e-05,2.6814840770425e-05,2.6814840770425e-05,3746837.9669955,0.0097774581776901
22391759,0.57402044389981,0.010292248333992,0.0033826460675201,0.0038337476264199,0.0030758546400518,-0.00079118641171092,0.0007911862441053,-1.0306101295386e-10,-1.0306277466474e-10,-4.5690962113647e-12,-4.5457211254576e-11,-0.00045209965511107,0.00045210029239738,-0.00077525170604913,0.00077525172437002,-0.00077525165128482,0.00077525166961192,-0.00045209992340767,0.00045210064438822,-0.00045209961306454,0.00045210033410212,-0.00077525166896202,0.00077525176550094,-0.00077525161374991,0.00077525171029518,-0.00089723446245461,0.00089723414001359,-0.00089723448203903,0.00089723415959364,-0.00089723447402683,0.00089723412652056,-0.00089723449380049,0.00089723414628988,-0.00078190634808147,0.00078190604066293,-0.00078190624765153,0.00078190594022561,-0.0007819063348932,0.00078190605567551,-0.00078190623331534,0.00078190595409015,-0.00045209996350531,0.00045210060073415,-2.1171328083401e-11,2.3953278684955e-11,-1.2951601743339e-10,1.3088629742522e-10,-0.0009531852612869,0.00095318526360516,-0.00091398586391664,0.00091398610520304,-0.00090968931056151,0.00090968918105874,-0.00090968929011772,0.00090968925108137,-0.00097168843912661,0.00097168834390063,-0.00097168848896254,0.00097168856389785,-0.00097168836097317,0.0009716882913128,-0.00097168841082317,0.00097168851132364,-0.0009139863192535,0.00091398608065607,-0.00091398582079608,0.00091398609189579,-0.00090968932373392,0.0009096893678796,-0.00090968930328772,0.00090968943789983,-0.00091398636239029,0.00091398609397946,-1.009804046724e-10,-1.009834440251e-10,-0.00069129060130736,0.0006912902046676,8.7933530795774e-12,-2.4834123683098e-10,-0.0006603038215453,0.00066030351881174,-0.00060621432921823,0.00060621400302288,-0.00060621434073215,0.00060621401453427,-0.0006603034526218,0.00066030365364921,-0.00066030357089558,0.00066030377193987,-0.00060621407829557,0.00060621425238306,-0.00060621409017733,0.00060621426426233,-0.00078858431729734,0.00078858391618819,-0.00078858440262489,0.00078858383137909,-0.00078858430965867,0.000788583908549,-0.00078858439497746,0.00078858382373095,-0.00077608461166739,0.0007760842358755,-0.00077608464904166,0.00077608427324362,-0.00077608456349318,0.00077608435984274,-0.00077608452526602,0.00077608432162178,-0.00066030370570839,0.00066030340295838,0.72672675554625,122718,2924,0.0032916030814455,0.0039634062431539,0.0028764556113889,14.800676479238,3.3605411833903e-05,3.3605411833903e-05,3.3605411833903e-05,3811984.292038,0.010183201248537
22891759,0.59753781617986,0.010673293920029,0.0035065082278711,0.0039891901692924,0.0031775955228659,-0.00081999680008415,0.00081999666627239,-9.2629671035957e-11,-9.2631455187335e-11,-5.2354550898525e-12,-2.1604746519236e-11,-0.00045756586962381,0.00045756659172,-0.00080186008133436,0.00080186015596568,-0.0008018600173268,0.0008018600919643,-0.00045756616684008,0.00045756692313309,-0.00045756585232611,0.00045756660867675,-0.00080186006821938,0.00080186017244378,-0.00080186000389579,0.00080186010812659,-0.00093336735009839,0.00093336703592248,-0.00093336736754574,0.00093336705336543,-0.00093336735393331,0.00093336703058956,-0.00093336737149334,0.00093336704814523,-0.0008099551469406,0.00080995486719838,-0.00080995504558288,0.00080995476583306,-0.00080995514177384,0.00080995487388318,-0.00080995503947013,0.00080995477157197,-0.00045756618253922,0.00045756690457779,-1.2057484416834e-11,8.3457216909899e-12,-1.1993872842476e-10,1.1518118476446e-10,-0.00099372327694785,0.00099372327309274,-0.00095156198007812,0.00095156219858278,-0.00094740741727719,0.00094740731419646,-0.00094740741250628,0.00094740735093284,-0.0010135196063637,0.0010135195208963,-0.0010135196722196,0.0010135197408967,-0.0010135195435628,0.0010135194679502,-0.0010135196094326,0.0010135196879641,-0.00095156240364413,0.00095156217564843,-0.00095156195088226,0.00095156218283514,-0.00094740744170073,0.0009474074956077,-0.00094740743692728,0.00094740753234156,-0.00095156243285596,0.00095156219141202,-8.9684362708288e-11,-8.9687415399627e-11,-0.00071301522955043,0.00071301488845666,9.126589598879e-12,-2.2317981854834e-10,-0.00067864874043639,0.00067864850663446,-0.00062151629616449,0.00062151605358514,-0.00062151631101573,0.00062151606843366,-0.00067864839268934,0.00067864861253599,-0.00067864851481823,0.00067864873468158,-0.00062151606996553,0.00062151627843655,-0.00062151608512746,0.00062151629359578,-0.00081703777015857,0.00081703738507156,-0.00081703784732843,0.00081703730841579,-0.00081703776202979,0.00081703737694225,-0.00081703783914899,0.00081703730023562,-0.00080346650657317,0.00080346616091451,-0.00080346654796215,0.00080346620229722,-0.00080346647072415,0.00080346628055383,-0.00080346642855429,0.00080346623839017,-0.00067864862058866,0.00067864838677034,0.68736650154966,122718,2924,0.0034113040351044,0.0041315874730755,0.0029667443366353,15.34094304963,3.792754439704e-05,3.792754439704e-05,3.792754439704e-05,3868151.3230511,0.010565329289005
23391759,0.62091604847427,0.01106188656021,0.0036325555490426,0.0041480400300254,0.0032812909811419,-0.00084940401537898,0.0008494039115478,-8.4262006294724e-11,-8.426377322604e-11,1.1835224324374e-12,-9.6847881951921e-12,-0.00046942385481068,0.00046942463876311,-0.00083108513878086,0.00083108524961904,-0.00083108506195909,0.00083108517280358,-0.00046942416671385,0.00046942497311347,-0.00046942384348403,0.00046942464994128,-0.00083108513111131,0.00083108526037651,-0.0008310850540961,0.00083108518336785,-0.00096873466452088,0.00096873436177386,-0.00096873467762125,0.00096873437486975,-0.00096873466669963,0.00096873435825625,-0.00096873467985069,0.0009687343714029,-0.00083819452241796,0.00083819425998473,-0.00083819441982732,0.00083819415738664,-0.00083819451901469,0.0008381942647257,-0.00083819441563013,0.00083819416133375,-0.00046942417673067,0.00046942496062483,-9.332828829662e-12,5.2609080475763e-12,-1.1709985044466e-10,1.1208559162682e-10,-0.0010323275915804,0.0010323275874412,-0.00098652583566053,0.00098652604989527,-0.00098201149246247,0.00098201139679468,-0.0009820114870064,0.00098201142119521,-0.0010550518555869,0.0010550517732082,-0.0010550519273741,0.0010550519957835,-0.0010550518000376,0.0010550517241231,-0.0010550518718386,0.0010550519467117,-0.00098652624388161,0.00098652601965243,-0.00098652581317786,0.00098652603707884,-0.00098201152122346,0.00098201157872632,-0.00098201151576478,0.00098201160312431,-0.00098652626638004,0.00098652603248462,-8.0171925941855e-11,-8.0174994045363e-11,-0.00073549123439132,0.00073549094891808,1.6631237428032e-11,-2.1016545885604e-10,-0.00070066065732275,0.00070066046959236,-0.00064025999915097,0.00064025982226343,-0.00064026001819746,0.00064025984130712,-0.0007006603101676,0.00070066056412115,-0.00070066043759066,0.00070066069156089,-0.00064025977867364,0.0006402600415559,-0.00064025979794295,0.00064026006082234,-0.00084453151519062,0.00084453115192347,-0.00084453159061512,0.00084453107702972,-0.00084453150613596,0.00084453114286831,-0.00084453158146327,0.00084453106787718,-0.00083106957234214,0.00083106924715979,-0.00083106961713406,0.00083106929194558,-0.00083106954173212,0.00083106936827484,-0.00083106949625528,0.00083106932280415,-0.00070066053196726,0.00070066034422007,0.7057815180979,122718,2924,0.0035334580637773,0.004291713654472,0.003060139980131,15.633964673487,4.0271717387897e-05,4.0271717387897e-05,4.0271717387897e-05,3981806.4995303,0.010945065552589
23891759,0.64564635613442,0.011495746400553,0.0037727156965447,0.0043257093504013,0.0033973213536067,-0.0008832239856375,0.00088322375181441,-1.191617230588e-10,-1.1916345957928e-10,-6.1879736322414e-11,-3.4804057083476e-11,-0.00047519502567003,0.00047519553271484,-0.00086405229078378,0.00086405228155362,-0.00086405233806837,0.00086405232884456,-0.00047519525073808,0.00047519570913318,-0.00047519504915871,0.00047519550761209,-0.0008640523195193,0.00086405225563287,-0.00086405236608796,0.00086405230220802,-0.001010302257527,0.0010103018927235,-0.0010103023213947,0.0010103019565866,-0.0010103022471407,0.0010103019020209,-0.0010103023113012,0.001010301966177,-0.00087304239735587,0.00087304209494131,-0.00087304233434244,0.00087304203192047,-0.00087304240653963,0.00087304208745501,-0.00087304234220475,0.00087304202311274,-0.00047519522497163,0.00047519573195772,2.5252026214992e-12,-1.9128962270392e-11,-1.0187557588873e-10,8.487882301022e-11,-0.0010807261000489,0.0010807260838615,-0.0010342654347855,0.0010342656081292,-0.0010286874454807,0.001028687387243,-0.0010286875356888,0.0010286874363746,-0.0011029466098179,0.0011029465430125,-0.0011029467280871,0.0011029467824505,-0.0011029465661865,0.0011029464804636,-0.0011029466844694,0.0011029467199148,-0.0010342656958507,0.0010342654886577,-0.001034265410079,0.0010342655684549,-0.0010286874630762,0.0010286875293119,-0.0010286875532816,0.0010286875784409,-0.0010342657205727,0.0010342655283474,-1.4021013900965e-10,-1.4021321975334e-10,-0.00076122975459172,0.00076122914230667,-8.0637648943743e-11,-2.6366241930511e-10,-0.00072469308706731,0.00072469267965366,-0.00065910727798463,0.000659106722878,-0.00065910727012367,0.00065910671501399,-0.00072469286384704,0.0007246928158986,-0.00072469290917759,0.000724692861246,-0.00065910709943621,0.00065910689978986,-0.00065910709241049,0.00065910689276098,-0.00087754859340524,0.00087754810257144,-0.00087754865385021,0.00087754804232439,-0.00087754859394133,0.00087754810310706,-0.00087754865457882,0.00087754804305232,-0.00086510171003625,0.00086510131184791,-0.00086510174522851,0.00086510134703403,-0.00086510168460557,0.00086510140931846,-0.00086510164806385,0.00086510137278284,-0.00072469304511937,0.00072469263768902,0.74569510903834,122718,2924,0.0036739530111593,0.0044924348417132,0.0031670981335516,16.930508335436,5.064406668349e-05,5.064406668349e-05,5.064406668349e-05,3956906.0126386,0.011398274356296
24391759,0.6709352598724,0.011929818127569,0.003912659742099,0.0045050086958394,0.0035121496896306,-0.00091563816465197,0.00091563796871967,-1.0783880289271e-10,-1.078403274932e-10,-5.639913510396e-11,-1.4852636232747e-11,-0.00047597450074867,0.00047597508372745,-0.00089388581514945,0.00089388585359096,-0.00089388585428675,0.00089388589273468,-0.00047597473830183,0.00047597524304442,-0.00047597453910327,0.00047597504390534,-0.0008938858579715,0.00089388581295186,-0.00089388589656314,0.00089388585155005,-0.0010515681301105,0.0010515677793336,-0.0010515681917546,0.0010515678409733,-0.0010515681152227,0.0010515677934581,-0.0010515681770668,0.0010515678552979,-0.00090649369179926,0.00090649341515236,-0.00090649362712503,0.00090649335047114,-0.00090649370566487,0.00090649340266496,-0.00090649363989994,0.00090649333689304,-0.00047597469811202,0.00047597528103086,7.1941835167495e-12,-2.9158643164643e-11,-9.2384557303425e-11,7.0296743541562e-11,-0.0011296991264593,0.0011296991051267,-0.0010824408224683,0.0010824409719157,-0.0010763424934546,0.0010763424524067,-0.0010763425853695,0.0010763424741001,-0.0011508199226631,0.001150819862873,-0.0011508200616107,0.0011508201077886,-0.0011508198946648,0.0011508198069377,-0.001150820033626,0.0011508200518664,-0.0010824410538553,0.0010824408604287,-0.0010824408110168,0.0010824409358195,-0.0010763425224022,0.0010763425899642,-0.0010763426143145,0.0010763426116548,-0.0010824410653221,0.0010824408965401,-1.252845531681e-10,-1.2528783808299e-10,-0.00078494985014916,0.0007849493058465,-7.5629762447782e-11,-2.350812073496e-10,-0.00074422201441408,0.00074422167475944,-0.00067406356491524,0.00067406310585203,-0.00067406356089278,0.00067406310182641,-0.00074422180958912,0.00074422178178404,-0.00074422186025551,0.00074422183246779,-0.00067406340980903,0.00067406325951647,-0.00067406340653185,0.00067406325623608,-0.0009098774170147,0.00090987695009714,-0.0009098774697399,0.00090987689759852,-0.00090987741718149,0.00090987695026333,-0.00090987747004234,0.00090987689790017,-0.00089743242291212,0.00089743206291985,-0.00089743246156667,0.00089743210156867,-0.0008974324088187,0.00089743215589174,-0.00089743236892291,0.0008974321160017,-0.00074422196690651,0.00074422162723469,0.72902888862818,122718,2924,0.0038086114494334,0.0046954920990234,0.0032656733046167,17.854147107971,5.8033176863769e-05,5.8033176863769e-05,5.8033176863769e-05,3924802.4445455,0.011839675080813
24891759,0.69583389204034,0.012333522920113,0.0040432325304016,0.0046724327666143,0.0036178576230966,-0.00094559350261514,0.00094559336195576,-9.2918756336952e-11,-9.2920337318066e-11,-3.4469037406332e-11,1.8356321579917e-14,-0.00048258592445233,0.00048258662743173,-0.00092187384489003,0.00092187393834353,-0.00092187384840718,0.00092187394186708,-0.00048258618454859,0.00048258682172525,-0.00048258595680689,0.00048258659404375,-0.00092187388095534,0.00092187390421783,-0.00092187388414092,0.00092187390740977,-0.0010891986831343,0.001089198356308,-0.0010891987321452,0.0010891984053145,-0.001089198670712,0.0010891983680543,-0.0010891987198162,0.001089198417154,-0.0009354853876894,0.0009354851325223,-0.00093548531612792,0.00093548506095358,-0.00093548539914179,0.00093548512219811,-0.00093548532673562,0.00093548504978459,-0.00048258615082237,0.00048258685374185,4.4959628278924e-12,-2.5314681771496e-11,-9.3724338315211e-11,7.2764105106536e-11,-0.00117222300808,0.0011722229878511,-0.0011212099348884,0.0011212100867748,-0.0011152097773932,0.0011152097297693,-0.0011152098404901,0.0011152097352928,-0.0011954843746094,0.0011954843117005,-0.0011954845165429,0.0011954845629497,-0.0011954843532343,0.0011954842674506,-0.0011954844951813,0.0011954845187128,-0.0011212101920465,0.0011212099984254,-0.0011212099304175,0.0011212100621877,-0.0011152098150454,0.0011152098787721,-0.0011152098781398,0.0011152098842927,-0.0011212101965325,0.0011212100230271,-1.0301510577608e-10,-1.0301836015393e-10,-0.00080650157501923,0.00080650115470739,-4.5475047023124e-11,-2.0934425495428e-10,-0.00076246090582191,0.0007624606609602,-0.00068940952684088,0.00068940921933167,-0.00068940953222242,0.00068940922470956,-0.0007624606735846,0.00076246074745102,-0.00076246074801248,0.00076246082189674,-0.00068940936787142,0.0006894093770636,-0.00068940937381434,0.0006894093830033,-0.00093840394624276,0.00093840352631307,-0.00093840400060711,0.00093840347226471,-0.00093840394398917,0.00093840352405887,-0.00093840399839105,0.00093840347004779,-0.00092530928340874,0.00092530895866215,-0.00092530932643675,0.00092530900168429,-0.00092530927217683,0.00092530905729528,-0.000925309228119,0.00092530901324337,-0.00076246083414157,0.00076246058926202,0.68841299738062,122718,2924,0.0039330253546446,0.0048717601735115,0.0033552211781406,18.325510913728,6.1804087309826e-05,6.1804087309826e-05,6.1804087309826e-05,3993670.7650203,0.012234638004814
25391759,0.72181153514459,0.012784132126354,0.0041883391118255,0.0048591466229759,0.0037366463915525,-0.00098128871308202,0.0009812884244984,-1.32549245638e-10,-1.3255106808233e-10,-1.0435069018746e-10,-3.1110252103153e-11,-0.00049627752745139,0.00049627792640755,-0.00095773371415221,0.00095773366701956,-0.00095773385850592,0.00095773381137949,-0.00049627770698361,0.00049627796796643,-0.00049627759511184,0.00049627785615392,-0.00095773378734267,0.00095773359548082,-0.00095773393080318,0.00095773373894763,-0.00113183490715,0.0011318345102117,-0.0011318350150424,0.0011318346180996,-0.0011318348818618,0.0011318345350774,-0.0011318349901195,0.0011318346433305,-0.0009710345632678,0.00097103425982445,-0.00097103453422037,0.00097103423076945,-0.00097103458757083,0.00097103423706998,-0.00097103455707219,0.00097103420656374,-0.00049627763687335,0.00049627803576981,1.5546405773857e-11,-5.1062593249298e-11,-7.7190912517667e-11,4.2118511249569e-11,-0.0012203809409739,0.0012203809065607,-0.0011664646708398,0.0011664647752959,-0.001159690859978,0.0011596908497286,-0.0011596910262786,0.001159690886498,-0.0012458406966903,0.0012458406492193,-0.0012458408974384,0.0012458409262462,-0.001245840689307,0.0012458405930279,-0.0012458408900684,0.0012458408700677,-0.0011664647690195,0.0011664645947169,-0.0011664646637083,0.0011664647230146,-0.0011596908887801,0.0011596909579863,-0.001159691055078,0.0011596909947529,-0.0011664647761658,0.0011664646470129,-1.6949606462078e-10,-1.6949907294724e-10,-0.00083336473539492,0.00083336394399982,-1.5527027662629e-10,-2.7041435072573e-10,-0.00078956900037684,0.00078956851683131,-0.00071179542705442,0.00071179469091057,-0.00071179540241543,0.00071179466626787,-0.00078956889560288,0.00078956863936279,-0.00078956888907842,0.00078956863285511,-0.00071179531475601,0.00071179480144237,-0.00071179529133986,0.00071179477802255,-0.00097125084687013,0.00097125028023173,-0.00097125088454212,0.00097125024252034,-0.0009712508553857,0.00097125028874692,-0.0009712508934155,0.00097125025139314,-0.00095969904729299,0.00095969864135403,-0.00095969907898455,0.00095969867303934,-0.00095969904117404,0.00095969871301673,-0.00095969900770904,0.00095969867955799,-0.00078956901111624,0.00078956852755404,0.73709758392954,122718,2924,0.0040812452477255,0.0050713457977615,0.0034668173186613,19.829227567658,7.3833820541266e-05,7.3833820541266e-05,7.3833820541266e-05,4059743.7690883,0.012699784762811
25891759,0.74760658795541,0.013232147360717,0.0043322938733742,0.00504570749484,0.0038541459925033,-0.0010136682993379,0.0010136680829693,-1.1217189421092e-10,-1.1217361317312e-10,-8.010635148242e-11,-7.286037916543e-12,-0.0004909825138216,0.00049098304593963,-0.00098640678450104,0.00098640681181075,-0.00098640689135911,0.00098640691867506,-0.00049098271792678,0.00049098311092172,-0.00049098258234973,0.00049098297540491,-0.00098640685738837,0.00098640674008729,-0.00098640696365217,0.00098640684635746,-0.0011744412632945,0.0011744408997389,-0.001174441356217,0.0011744409926568,-0.0011744412383765,0.0011744409244226,-0.0011744413315104,0.0011744410175519,-0.0010054560005739,0.001005455732136,-0.0010054559615009,0.0010054556930557,-0.0010054560246288,0.0010054557092356,-0.0010054559844718,0.0010054556690711,-0.00049098264764739,0.00049098317970484,1.5446629880766e-11,-5.1444018714659e-11,-7.24583555058e-11,3.6963733195089e-11,-0.001272804469063,0.00127280443419,-0.0012192486342303,0.0012192487283981,-0.0012120924367452,0.0012120924295658,-0.0012120925760789,0.0012120924385367,-0.0012955185168795,0.0012955184712127,-0.0012955187272618,0.0012955187524529,-0.0012955185209979,0.0012955184274228,-0.0012955187313935,0.0012955187086758,-0.001219248735563,0.0012192485707086,-0.0012192486397314,0.0012192486888111,-0.0012120924780087,0.0012120925439707,-0.0012120926173395,0.0012120925529388,-0.0012192487300762,0.00121924861031,-1.3885934464187e-10,-1.3886243754822e-10,-0.0008558046439666,0.0008558040071508,-1.2339317029008e-10,-2.295084066316e-10,-0.00080636849217796,0.00080636812605575,-0.0007233474736306,0.00072334693191371,-0.00072334745956286,0.00072334691784208,-0.0008063683773954,0.00080636821858814,-0.00080636839056873,0.00080636823177844,-0.00072334737074287,0.00072334703333746,-0.00072334735763442,0.00072334702022518,-0.001003973775737,0.0010039732709351,-0.0010039738106478,0.0010039732361154,-0.0010039737816198,0.0010039732768174,-0.0010039738167485,0.0010039732422155,-0.00099247370882431,0.00099247336100663,-0.00099247374602446,0.00099247339820064,-0.00099247371117053,0.00099247343490214,-0.00099247367250319,0.00099247339624095,-0.00080636848260754,0.00080636811646843,0.73853822331774,122718,2924,0.0042157508131322,0.0052885709967286,0.0035600765810641,20.75085194339,8.120681554712e-05,8.120681554712e-05,8.120681554712e-05,3967943.5527556,0.013150581458759
26391759,0.77109819595597,0.013656148888992,0.0044680156222848,0.0052229932095313,0.0039651400571755,-0.001042421742627,0.001042421712033,-6.2901041578122e-11,-6.2902716674007e-11,6.6202948427722e-12,3.2734140700354e-11,-0.00049160950621495,0.00049161042462966,-0.0010137496342484,0.0010137498372537,-0.0010137495846295,0.0010137497876411,-0.00049160977954717,0.00049161064575641,-0.00049160953214214,0.00049161039841197,-0.0010137496622482,0.0010137498103994,-0.0010137496127113,0.0010137497608688,-0.0012111563631482,0.0012111560865473,-0.0012111563932021,0.0012111561165967,-0.0012111563538213,0.0012111560954807,-0.0012111563837484,0.0012111561254032,-0.0010356138658132,0.0010356136579913,-0.0010356137898243,0.0010356135819951,-0.0010356138742931,0.0010356136500531,-0.0010356137979799,0.0010356135737326,-0.00049160975323717,0.00049161067159089,3.8643190065305e-13,-2.2133106789957e-11,-9.040510812718e-11,6.8622134405604e-11,-0.0013175808106396,0.0013175807895034,-0.0012634494230124,0.0012634495638844,-0.0012553136592076,0.0012553136059291,-0.0012553136727947,0.0012553135758478,-0.0013395354296011,0.0013395353641549,-0.001339535593578,0.0013395356342505,-0.0013395354282902,0.0013395353464302,-0.0013395355922803,0.0013395356165385,-0.0012634496973078,0.0012634495130542,-0.0012634494367564,0.0012634495626957,-0.0012553137152738,0.0012553137687716,-0.001255313728858,0.0012553137386874,-0.001263449683578,0.0012634495142568,-5.9811524364589e-11,-5.9814642589757e-11,-0.00087512747453575,0.0008751272937708,7.1902283416215e-12,-1.507104916994e-10,-0.00082290534364571,0.00082290527930507,-0.00073541839612649,0.00073541839772396,-0.00073541841746862,0.00073541841906202,-0.00082290509318317,0.00082290533221412,-0.00082290519313225,0.00082290543218019,-0.00073541824390909,0.00073541854911231,-0.00073541826548701,0.00073541857068623,-0.0010310483695012,0.0010310480435742,-0.0010310484222287,0.0010310479913273,-0.0010310483641922,0.0010310480382648,-0.0010310484167704,0.0010310479858684,-0.001020945561556,0.0010209453164554,-0.0010209456118342,0.0010209453667275,-0.0010209455595001,0.0010209454199875,-0.0010209455085954,0.0010209453690888,-0.00082290524567854,0.00082290518132097,0.76614364723843,122718,2924,0.0043351738665973,0.0054740517119033,0.0036403707893279,20.418395049877,7.8547160399014e-05,7.8547160399014e-05,7.8547160399014e-05,3958815.6484705,0.013540950448581
26891759,0.79394056723558,0.014058150735743,0.0045968564504876,0.0053915817833136,0.0040697125019416,-0.0010710773325557,0.0010710771289605,-1.1011238359815e-10,-1.1011370357253e-10,-6.548409950571e-11,-1.6768264976309e-11,-0.00048805459492642,0.00048805512065646,-0.001039162478884,0.0010391624963272,-0.001039162587396,0.0010391626048457,-0.00048805476775923,0.00048805520201209,-0.00048805463969671,0.00048805507401127,-0.0010391625282169,0.001039162448438,-0.0010391626361024,0.0010391625563301,-0.001248786503345,0.0012487861521599,-0.0012487865961892,0.0012487862449998,-0.0012487864861784,0.0012487861688275,-0.0012487865792523,0.001248786261897,-0.0010658156484213,0.001065815375663,-0.0010658156144091,0.0010658153416442,-0.0010658156645292,0.0010658153608168,-0.0010658156293815,0.0010658153256625,-0.00048805472125604,0.00048805524692402,7.1583055539731e-12,-3.5793820699818e-11,-8.3670339810905e-11,5.528843215282e-11,-0.0013640715041587,0.001364071476392,-0.0013096559802794,0.0013096561024776,-0.0013011288842014,0.0013011288508749,-0.0013011289988877,0.0013011288824183,-0.0013841171045437,0.0013841170482776,-0.0013841173090988,0.0013841173431605,-0.0013841171030971,0.0013841170147239,-0.0013841173076652,0.0013841173096194,-0.001309656109148,0.0013096559304189,-0.0013096559797141,0.0013096560727538,-0.00130112891571,0.001301128975119,-0.0013011290303933,0.0013011290066594,-0.0013096561097272,0.0013096559601563,-1.3938529121113e-10,-1.3938876668798e-10,-0.00089407271072683,0.00089407209424327,-1.0825047713252e-10,-2.4397523023706e-10,-0.00083633038601174,0.00083632999300903,-0.0007449555107656,0.00074495496685522,-0.00074495549953389,0.00074495495561953,-0.00083633024690937,0.00083633011948346,-0.00083633025516789,0.00083633012775959,-0.00074495537884703,0.00074495509733272,-0.00074495536851765,0.00074495508699941,-0.001059135300389,0.0010591348162944,-0.0010591353451472,0.0010591347716585,-0.0010591353058232,0.0010591348217279,-0.0010591353507759,0.0010591347772863,-0.0010492004119357,0.0010492000571766,-0.0010492004508276,0.0010492000960631,-0.0010492004060431,0.0010492001425918,-0.001049200365744,0.0010492001022981,-0.00083633038122176,0.00083632998820151,0.74659954437257,122718,2924,0.0044541988744323,0.0056666007838485,0.0037191047612989,21.226102058778,8.5008816470223e-05,8.5008816470223e-05,8.5008816470223e-05,3902114.6646556,0.013936669609429
27391759,0.81616225088387,0.014444379500112,0.0047208753844394,0.0055534547894635,0.0041700493262096,-0.0010996572733262,0.0010996570381085,-1.1769675734191e-10,-1.1769805824335e-10,-8.4726407078187e-11,-1.9253399057169e-11,-0.00049221796033149,0.00049221842291334,-0.0010658146834995,0.0010658146759105,-0.001065814834295,0.0010658148267123,-0.00049221812321141,0.00049221846221005,-0.00049221802095525,0.00049221836001576,-0.0010658147489877,0.0010658146115903,-0.0010658148990334,0.0010658147616425,-0.0012849326162661,0.0012849322497409,-0.0012849327274177,0.0012849323608881,-0.0012849325936406,0.0012849322720518,-0.0012849327050784,0.0012849323834853,-0.0010946982241696,0.0010946979462862,-0.0010946982022457,0.0010946979243557,-0.0010946982457988,0.0010946979259548,-0.0010946982226189,0.0010946979027683,-0.00049221806066487,0.00049221852318428,1.2170892011133e-11,-4.7003623659797e-11,-7.6533826061796e-11,4.2216040211303e-11,-0.0014069591116787,0.0014069590779406,-0.0013501492298621,0.0013501493318826,-0.0013416236604019,0.0013416236436445,-0.0013416238082542,0.0013416236764891,-0.0014275745567749,0.0014275745069396,-0.001427574788858,0.0014275748156327,-0.0014275745651505,0.0014275744722428,-0.0014275747972466,0.0014275747809483,-0.0013501493054376,0.0013501491350644,-0.0013501492333829,0.001350149295342,-0.00134162369416,0.0013416237565895,-0.0013416238420093,0.0013416237894312,-0.0013501493019304,0.0013501491716184,-1.5441041805729e-10,-1.544139311501e-10,-0.00091324208251497,0.00091324137184019,-1.4039461039029e-10,-2.5556289614623e-10,-0.00085233906591503,0.00085233862261904,-0.00075768318188161,0.00075768253121471,-0.00075768316309952,0.00075768251242862,-0.00085233896566672,0.00085233874851932,-0.00085233895497817,0.0008523387378483,-0.00075768306988624,0.0007576826416784,-0.00075768305215832,0.00075768262394636,-0.001085519422234,0.0010855189024359,-0.001085519460049,0.0010855188646573,-0.0010855194305967,0.0010855189107979,-0.0010855194686767,0.0010855188732842,-0.0010762205431494,0.0010762201767278,-0.0010762205798004,0.0010762202133734,-0.0010762205419225,0.0010762202532005,-0.0010762205036855,0.0010762202149688,-0.00085233908041436,0.0008523386371009,0.7366184848189,122718,2924,0.0045728708818201,0.0058441775260393,0.0037987480256158,22.21265141023,9.2901211281842e-05,9.2901211281842e-05,9.2901211281842e-05,3903565.3590408,0.014317904842177
27891759,0.83714031924071,0.014818495392402,0.0048407457873606,0.0057102757678943,0.0042674738371469,-0.0011263053049527,0.0011263051217582,-1.028965727421e-10,-1.0289791350996e-10,-6.5587781897108e-11,-1.8349540904709e-12,-0.000492875998775,0.00049287657084428,-0.0010903487437808,0.0010903487946366,-0.0010903488608716,0.0010903489117342,-0.00049287618262059,0.00049287663297745,-0.00049287605865723,0.00049287650907867,-0.0010903488077227,0.0010903487315704,-0.0010903489242623,0.0010903488481162,-0.0013192287934869,0.0013192284508588,-0.0013192288919838,0.0013192285493525,-0.0013192287716002,0.001319228472563,-0.001319228870278,0.0013192285712363,-0.0011223698500594,0.0011223695958422,-0.0011223698230542,0.0011223695688316,-0.0011223698710494,0.0011223695758866,-0.0011223698430374,0.0011223695478687,-0.00049287612125017,0.00049287669325978,1.1445607815126e-11,-4.6507316351056e-11,-7.6062614339343e-11,4.1542171973985e-11,-0.0014487602081822,0.0014487601742246,-0.0013905962289452,0.001390596329017,-0.0013820750475078,0.001382075029698,-0.0013820751737899,0.0013820750431565,-0.0014688354928056,0.0014688354419627,-0.0014688357264131,0.0014688357522169,-0.0014688355068674,0.0014688354144993,-0.0014688357404877,0.0014688357247665,-0.0013905963300845,0.0013905961612585,-0.001390596239493,0.0013905963004927,-0.0013820750905691,0.0013820751513776,-0.0013820752168471,0.0013820751648331,-0.0013905963195501,0.0013905961897949,-1.3259629568232e-10,-1.3259976508364e-10,-0.00093053874202054,0.00093053814956863,-1.1235089143845e-10,-2.2697146281364e-10,-0.00086647984703952,0.00086647949641187,-0.00076804673832215,0.00076804624336417,-0.00076804672784879,0.00076804623288532,-0.00086647973071141,0.0008664796034165,-0.00086647973731024,0.00086647961003198,-0.00076804662729303,0.00076804635305509,-0.00076804661769864,0.00076804634345643,-0.0011102805983061,0.0011102801251168,-0.0011102806361115,0.0011102800874391,-0.001110280604404,0.0011102801312147,-0.0011102806423802,0.0011102800937076,-0.0011019123206731,0.0011019119905837,-0.0011019123603647,0.0011019120302692,-0.0011019123226387,0.0011019120697315,-0.0011019122815685,0.0011019120286671,-0.00086647984385517,0.00086647949321127,0.7559414087826,122718,2924,0.004683529680602,0.0060172242619798,0.0038706221868443,22.88094220286,9.8247537622879e-05,9.8247537622879e-05,9.8247537622879e-05,3876257.9507608,0.014678675766946
28391759,0.8566092567438,0.015178353216849,0.0049556858397161,0.0058613268147864,0.0043613405623461,-0.0011507531496763,0.0011507529889545,-9.6785664632029e-11,-9.6787084882759e-11,-5.4931556643357e-11,2.7690396724446e-12,-0.00048638096959945,0.00048638157969688,-0.0011117522847016,0.0011117523554912,-0.0011117523897495,0.0011117524605456,-0.00048638115312435,0.00048638165288285,-0.00048638102389037,0.00048638152371129,-0.0011117523427904,0.0011117522982424,-0.0011117524473484,0.0011117524028067,-0.00135200664719,0.0013520063167068,-0.0013520067409959,0.0013520064105082,-0.0013520066273113,0.0013520063363829,-0.00135200672126,0.0013520064303271,-0.0011490752336835,0.0011490749876821,-0.001149075206818,0.0011490749608096,-0.0011490752526498,0.0011490749696704,-0.0011490752248679,0.0011490749418815,-0.00048638109752205,0.00048638170755742,9.5088687458811e-12,-4.2645841963507e-11,-7.7689685809897e-11,4.504110743685e-11,-0.0014907843544378,0.0014907843223448,-0.0014333966019553,0.0014333967068874,-0.0014245372050767,0.0014245371817478,-0.0014245373177116,0.0014245371929121,-0.0015079576382961,0.0015079575853827,-0.0015079578722238,0.0015079578996712,-0.0015079576535661,0.0015079575632546,-0.0015079578875067,0.0015079578775555,-0.0014333967153762,0.0014333965454161,-0.0014333966139497,0.0014333966837417,-0.0014245372503251,0.0014245373090872,-0.0014245373629569,0.0014245373202484,-0.0014333967033947,0.0014333965685746,-1.2437394747468e-10,-1.2437731990972e-10,-0.00094543145420667,0.00094543091152363,-9.8832863808411e-11,-2.1886688020822e-10,-0.00087620391229362,0.00087620359130112,-0.00077385891056869,0.00077385847719524,-0.00077385890383148,0.00077385847045333,-0.00087620378842889,0.00087620370071433,-0.00087620379748551,0.00087620370978842,-0.00077385879440191,0.00077385859210107,-0.00077385878846469,0.00077385858615941,-0.0011339369887985,0.0011339365389239,-0.0011339370284786,0.0011339364994172,-0.0011339369940177,0.0011339365441427,-0.0011339370338241,0.0011339365047621,-0.0011263300270406,0.0011263297098196,-0.0011263300682267,0.0011263297509996,-0.001126330028666,0.0011263297921837,-0.0011263299861997,0.0011263297497235,-0.00087620390646292,0.00087620358545334,0.78325231977196,122718,2924,0.0047850852306633,0.0061911689301187,0.003932534100105,23.414339183725,0.0001025147134698,0.0001025147134698,0.0001025147134698,3793918.1862926,0.015021148177542
28891759,0.87451916470396,0.015504764277282,0.0050601974224183,0.0059981235736542,0.0044464432812093,-0.0011724685430385,0.0011724683828851,-9.6714946763e-11,-9.6716241282276e-11,-5.2641619334664e-11,2.0680482931324e-13,-0.00047760853902742,0.00047760914067419,-0.0011299129805884,0.001129913046591,-0.001129913091255,0.0011299131572639,-0.00047760871389025,0.00047760921487879,-0.00047760858847987,0.00047760908953148,-0.001129913033925,0.0011299129941516,-0.0011299131440725,0.0011299131043055,-0.0013819930566229,0.0013819927285161,-0.0013819931528527,0.0013819928247415,-0.0013819930382915,0.0013819927465835,-0.0013819931346742,0.0013819928429618,-0.001172825562583,0.0011728253154923,-0.0011728255394011,0.0011728252923038,-0.0011728255799461,0.00117282529911,-0.0011728255558313,0.0011728252749885,-0.00047760866311984,0.00047760926470384,7.9179519943546e-12,-3.9378467544259e-11,-7.9880304182128e-11,4.8862352818074e-11,-0.0015296926174657,0.0015296925869991,-0.0014729820197731,0.0014729821305998,-0.0014639508474858,0.001463950819022,-0.0014639509567305,0.0014639508363933,-0.0015438202340783,0.0015438201791828,-0.0015438204716773,0.0015438205011153,-0.0015438202498295,0.0015438201607558,-0.0015438204874411,0.0015438204827005,-0.001472982131332,0.0014729819587237,-0.0014729820311034,0.001472982110021,-0.0014639508914147,0.0014639509490175,-0.0014639510006563,0.0014639509663857,-0.0014729821200144,0.0014729819793148,-1.2595643690543e-10,-1.2595992099985e-10,-0.00095770857786045,0.00095770803104274,-9.828455040184e-11,-2.2433214898698e-10,-0.00088185220300755,0.00088185187008753,-0.00077662536080238,0.00077662491707348,-0.00077662535411311,0.00077662491037949,-0.00088185207811682,0.00088185199036783,-0.00088185208223579,0.00088185199450419,-0.0007766252387279,0.0007766250378892,-0.00077662523283324,0.00077662503199015,-0.001155173907333,0.0011551734607483,-0.0011551739490129,0.0011551734192467,-0.0011551739128065,0.0011551734662213,-0.0011551739546092,0.0011551734248422,-0.0011476625054581,0.0011476621855774,-0.0011476625469606,0.0011476622270743,-0.0011476625053761,0.0011476622702655,-0.0011476624625995,0.0011476622274945,-0.00088185220209887,0.00088185186916181,0.77096717169231,122718,2924,0.0048753085428504,0.006352183098536,0.0039835911276073,23.939255962432,0.00010671404769945,0.00010671404769945,0.00010671404769945,3702237.1923561,0.015328087125596
29391759,0.89110300887063,0.015782055935453,0.0051497934051092,0.0061136825310225,0.0045185799993214,-0.0011919855225113,0.0011919853128729,-1.0937830468552e-10,-1.0937960486639e-10,-7.5549496220632e-11,-1.1936761604833e-11,-0.00047579994819281,0.00047580044020276,-0.0011466115506411,0.0011466115652659,-0.0011466117153351,0.0011466117299662,-0.00047580010742384,0.00047580047911741,-0.00047580000725203,0.00047580037900863,-0.0011466116142491,0.001146611502524,-0.0011466117782308,0.001146611666512,-0.0014083949369416,0.0014083945874347,-0.0014083950555649,0.0014083947060535,-0.0014083949149948,0.0014083946091581,-0.0014083950338708,0.0014083947280296,-0.0011923553039118,0.0011923550414862,-0.0011923552928215,0.0011923550303892,-0.0011923553248596,0.0011923550216949,-0.0011923553126115,0.00119235500944,-0.00047580004670983,0.00047580053865724,1.1078218803314e-11,-4.6306836887331e-11,-7.5620478905101e-11,4.0990462710678e-11,-0.0015617323896173,0.0015617323555205,-0.0015024170348852,0.0015024171338103,-0.0014943642351542,0.0014943642169218,-0.0014943643790261,0.0014943642492598,-0.0015760693687004,0.0015760693181952,-0.0015760696298523,0.0015760696549488,-0.0015760693889728,0.0015760692970569,-0.0015760696501375,0.0015760696338227,-0.0015024170906296,0.0015024169227276,-0.0015024170453963,0.0015024171055342,-0.0014943642754843,0.0014943643350576,-0.0014943644193529,0.0014943643673924,-0.001502417080131,0.0015024169510161,-1.4873839278334e-10,-1.4874187293127e-10,-0.00096867065844283,0.00096866997388559,-1.377548755094e-10,-2.5107274167582e-10,-0.00088803482907861,0.00088803440338669,-0.00078121969222875,0.00078121907550899,-0.00078121967589975,0.00078121905917524,-0.00088803473879298,0.0008880345349967,-0.00088803472016004,0.00088803451638141,-0.00078121958222698,0.00078121918410458,-0.00078121956686799,0.00078121916874108,-0.0011729968687257,0.0011729963728459,-0.0011729969060003,0.00117299633565,-0.0011729968774489,0.0011729963815686,-0.0011729969149396,0.0011729963445884,-0.0011651447277459,0.0011651443811305,-0.0011651447667527,0.0011651444201313,-0.0011651447294561,0.0011651444592782,-0.0011651446889483,0.0011651444187762,-0.00088803485133297,0.00088803442562418,0.70574332785676,122718,2924,0.0049563653465302,0.0064847313261768,0.0040291617417771,24.733452815682,0.00011306762252546,0.00011306762252546,0.00011306762252546,3662355.8893007,0.015591313397153
29891759,0.90621731466318,0.016041340059416,0.0052334675722829,0.0062213207183931,0.0045865517687395,-0.0012111858135904,0.0012111856237602,-1.034157780425e-10,-1.034168241723e-10,-6.9350161547228e-11,-3.5036846707207e-12,-0.00048580294903486,0.00048580349048823,-0.0011656402313469,0.0011656402724771,-0.0011656403850818,0.0011656404262185,-0.00048580311966125,0.00048580353579569,-0.00048580301064674,0.00048580342684464,-0.0011656402971753,0.0011656402073209,-0.0011656404502764,0.0011656403604286,-0.0014319116199298,0.0014319112789797,-0.0014319117355025,0.0014319113945482,-0.0014319115973563,0.0014319113014457,-0.0014319117131409,0.0014319114172261,-0.0012104395066856,0.0012104392545349,-0.001210439495084,0.0012104392429272,-0.0012104395283312,0.0012104392339256,-0.001210439515665,0.0012104392212532,-0.0004858030565503,0.00048580359794068,1.1281969637689e-11,-4.8481535098852e-11,-7.4204707097134e-11,3.7672509071884e-11,-0.0015879355970155,0.0015879355610061,-0.0015234967415179,0.0015234968346157,-0.0015171528701448,0.0015171528538726,-0.001517153008446,0.0015171528758567,-0.0016057841021571,0.0016057840518046,-0.0016057843690734,0.0016057843915068,-0.0016057841264207,0.0016057840333821,-0.0016057843933494,0.0016057843730964,-0.0015234968094662,0.0015234966436023,-0.001523496755726,0.0015234968085175,-0.0015171529164525,0.0015171529749214,-0.0015171530547505,0.0015171529969023,-0.0015234967952704,0.0015234966697126,-1.4032032771332e-10,-1.4032409004831e-10,-0.00098073051530582,0.00098072987417306,-1.2824985008085e-10,-2.3707541004572e-10,-0.00090177501051343,0.00090177462858236,-0.00079251588278797,0.00079251533293501,-0.00079251586933879,0.00079251531948124,-0.00090177491509933,0.00090177474550814,-0.00090177490632826,0.00090177473675486,-0.00079251577736572,0.00079251543701602,-0.00079251576483603,0.00079251542448204,-0.0011880955516581,0.0011880950710901,-0.0011880955875003,0.0011880950353543,-0.0011880955596637,0.001188095079095,-0.0011880955956923,0.0011880950435455,-0.0011817464976205,0.0011817461666939,-0.0011817465373737,0.001181746206442,-0.0011817465015808,0.0011817462440362,-0.0011817464603828,0.0011817462028434,-0.0009017750228088,0.00090177464086024,0.72403000811017,122718,2924,0.0050360350859826,0.0065930992095347,0.0040792475162368,25.429472217243,0.00011863577773794,0.00011863577773794,0.00011863577773794,3699281.1009044,0.015833181955424
30391759,0.91982302306452,0.016259693317655,0.0053042621405391,0.0063116396371098,0.004643791540006,-0.0012251627116313,0.001225162531556,-1.0039234675919e-10,-1.0039341857939e-10,-6.5668784775467e-11,-2.6114072821236e-13,-0.00047318671549459,0.0004731872726163,-0.0011748920396754,0.0011748920913606,-0.0011748921910907,0.0011748922427823,-0.00047318688852281,0.00047318732095893,-0.00047318677683595,0.00047318720933582,-0.0011748921050881,0.0011748920265665,-0.0011748922558986,0.0011748921773835,-0.0014534728801436,0.0014534725447673,-0.0014534729948972,0.0014534726595167,-0.0014534728577295,0.0014534725670877,-0.0014534729726751,0.001453472682029,-0.0012254630707633,0.0012254628240266,-0.0012254630607618,0.0012254628140188,-0.0012254630922526,0.0012254628035188,-0.0012254630812427,0.0012254627925026,-0.00047318682578339,0.00047318738284167,1.1322730274833e-11,-4.8084650752809e-11,-7.339970145421e-11,3.7305230997859e-11,-0.001616062737194,0.0016160627016164,-0.0015510798728955,0.0015510799651195,-0.0015462334979047,0.0015462334820944,-0.0015462336330435,0.0015462335016018,-0.0016315299310131,0.0016315298812021,-0.0016315302016832,0.0016315302240575,-0.0016315299569844,0.0016315298648678,-0.001631530227667,0.0016315302077352,-0.0015510799375262,0.0015510797734093,-0.0015510798886453,0.001551079940833,-0.0015462335466879,0.0015462336048672,-0.0015462336818235,0.0015462336243714,-0.0015510799217885,0.0015510797977077,-1.3692416975141e-10,-1.3692788788452e-10,-0.00098702581921952,0.0009870251967951,-1.2497249033613e-10,-2.3276222089893e-10,-0.00090063127369158,0.00090063090546887,-0.00078968681530606,0.00078968629112208,-0.0007896868033822,0.0007896862791935,-0.0009006311803717,0.00090063102210711,-0.00090063117064694,0.00090063101240011,-0.00078968671098126,0.00078968639414838,-0.00078968669993908,0.00078968638310182,-0.0012025454955619,0.0012025450257617,-0.0012025455310973,0.0012025449903516,-0.0012025455033138,0.001202545033513,-0.0012025455390161,0.0012025449982696,-0.0011946831950916,0.0011946828714747,-0.0011946832357642,0.001194682912142,-0.0011946832003068,0.0011946829493493,-0.0011946831582343,0.001194682907282,-0.00090063128685093,0.0009006309186109,0.67708915242738,122718,2924,0.0050941389856791,0.0067094507833066,0.0041054739628501,26.075098460008,0.00012380078768006,0.00012380078768006,0.00012380078768006,3591017.8389916,0.01603713363081
30891759,0.93217721434557,0.016471879406681,0.0053727253519176,0.0063991740883685,0.0046999799663951,-0.001241060682372,0.0012410604331432,-1.1825820336659e-10,-1.1825922183548e-10,-9.8960200686739e-11,-1.4205226687134e-11,-0.00047965020683629,0.00047965063124592,-0.0011903892620078,0.0011903892478463,-0.0011903894847363,0.0011903894705812,-0.0004796503715449,0.00047965063517503,-0.00047965028590645,0.00047965054960034,-0.0011903893460176,0.0011903891643373,-0.0011903895678911,0.0011903893862173,-0.0014733887190716,0.0014733883492594,-0.0014733888644565,0.0014733884946401,-0.001473388690238,0.0014733883781274,-0.0014733888359447,0.0014733885238299,-0.0012408724621326,0.0012408721932753,-0.0012408724652923,0.001240872196429,-0.0012408724900449,0.0012408721665624,-0.001240872491896,0.0012408721684073,-0.00047965029061443,0.00047965071496059,1.6564717312198e-11,-6.1172584866582e-11,-6.4536043703458e-11,2.0872568357364e-11,-0.0016387859657081,0.0016387859225381,-0.0015700471367876,0.0015700472030809,-0.0015667584677654,0.001566758470629,-0.0015667586502981,0.0015667585016829,-0.0016566180075778,0.001656617965558,-0.0016566183147561,0.0016566183272033,-0.0016566180410371,0.0016566179438126,-0.0016566183482278,0.0016566183054698,-0.0015700471327513,0.0015700469794864,-0.001570047152893,0.00157004716674,-0.0015667585167287,0.0015667585765312,-0.0015667586992581,0.0015667586075819,-0.0015700471166579,0.0015700470158391,-1.6689915828992e-10,-1.6690295061913e-10,-0.00099658397999794,0.00099658317019654,-1.7997059176369e-10,-2.6157109474143e-10,-0.00091125576616771,0.00091125529446575,-0.00079803444148878,0.00079803370069898,-0.00079803441642645,0.00079803367563197,-0.00091125572358595,0.00091125541265388,-0.00091125568804675,0.00091125537713255,-0.00079803436232521,0.00079803377835301,-0.00079803433839328,0.00079803375441675,-0.0012151036845488,0.0012151031362522,-0.0012151037111354,0.0012151031096535,-0.0012151036966664,0.0012151031483691,-0.0012151037235512,0.0012151031220684,-0.001208648306327,0.0012086479473594,-0.0012086483438541,0.0012086479848814,-0.0012086483172046,0.0012086480136442,-0.0012086482779487,0.0012086479743934,-0.00091125580575233,0.00091125533403294,0.72443257994931,122718,2924,0.0051601130957438,0.0068034050093686,0.0041451773290228,27.063499750057,0.00013170799800046,0.00013170799800046,0.00013170799800046,3593794.2595247,0.016239995570833
31391759,0.94342425647546,0.016667456248785,0.0054356751011327,0.0064798959605824,0.0047518851870697,-0.0012540312695139,0.0012540309613841,-1.3164253901374e-10,-1.3164382582737e-10,-1.360552980158e-10,-1.75401137498e-11,-0.00046090407734769,0.00046090437256394,-0.0011979778558839,0.0011979777962937,-0.0011979781537524,0.0011979780941683,-0.00046090425355405,0.00046090432308709,-0.00046090418864095,0.00046090425823783,-0.0011979779725146,0.0011979776797513,-0.0011979782693771,0.00119797797662,-0.0014942012194162,0.0014942008215886,-0.0014942013944353,0.0014942009966034,-0.0014942011795357,0.0014942008617999,-0.0014942013549564,0.0014942010372161,-0.0012566671763408,0.0012566669012786,-0.0012566671906858,0.0012566669156169,-0.0012566672154375,0.0012566668634427,-0.0012566672283034,0.0012566668763019,-0.0004609041401822,0.00046090443533488,2.7803785613435e-11,-8.2771727909941e-11,-4.4887695182313e-11,-8.7171033455353e-12,-0.001668127750802,0.0016681276976491,-0.0016024466013236,0.0016024466206826,-0.0015996102298337,0.0015996102711324,-0.0015996104768972,0.0015996103022857,-0.0016802435398607,0.0016802435157689,-0.001680243889404,0.0016802438864497,-0.001680243584608,0.0016802434830195,-0.0016802439341636,0.0016802438537122,-0.0016024464897331,0.0016024463636051,-0.001602446623253,0.0016024465681548,-0.001599610283897,0.0015996103492102,-0.0015996105309572,0.0015996103803603,-0.0016024464678155,0.0016024464161443,-1.9124754341683e-10,-1.9125105147416e-10,-0.001002013968539,0.0010020129819215,-2.4534419435272e-10,-2.7702237556651e-10,-0.00090676719902318,0.00090676664497394,-0.00079167969468088,0.00079167875438926,-0.00079167965751164,0.000791678717215,-0.00090676724196952,0.0009067667524129,-0.00090676716927988,0.0009067666797405,-0.00079167966402959,0.0007916787834182,-0.00079167962817361,0.00079167874755755,-0.0012299440152368,0.0012299433993758,-0.0012299440250281,0.001229943389447,-0.0012299440313877,0.0012299434155262,-0.0012299440415867,0.0012299434060048,-0.0012220033909645,0.0012220030197657,-0.0012220034269146,0.00122200305571,-0.0012220034170088,0.0012220030680259,-0.0012220033790685,0.0012220030300915,-0.00090676727618674,0.00090676672212068,0.73350948587479,122718,2924,0.0052140810755824,0.0069247779570217,0.0041678386089871,28.356831271611,0.00014205465017288,0.00014205465017288,0.00014205465017288,3426949.1577073,0.016441323421264
31891759,0.95330498836522,0.016840382927301,0.0054915065347776,0.0065507766887897,0.0047980997037336,-0.0012657050716545,0.0012657048450796,-1.0862755339987e-10,-1.0862906572131e-10,-1.0463316585214e-10,9.8331313987032e-12,-0.00045384487446017,0.00045384534712201,-0.0012071858769305,0.0012071859133373,-0.0012071861053835,0.0012071861417958,-0.00045384507930197,0.00045384533170856,-0.00045384498336784,0.00045384523583805,-0.0012071859898725,0.0012071858001578,-0.0012071862176461,0.0012071860279379,-0.0015112688291525,0.0015112684691571,-0.00151126897623,0.0015112686162305,-0.0015112687908576,0.0015112685079417,-0.001511268938157,0.0015112686552377,-0.0012695438756351,0.0012695436365652,-0.001269543880251,0.0012695436411749,-0.0012695439133013,0.0012695435997407,-0.0012695439168635,0.0012695436032966,-0.00045384496895597,0.00045384544155286,2.6765986670421e-11,-8.0734091040702e-11,-4.2973986056577e-11,-9.6556623202617e-12,-0.001690543866616,0.0016905438144334,-0.001625096390541,0.0016250964066818,-0.0016226056307174,0.0016226056709306,-0.0016226058413796,0.0016226056713858,-0.0017007540787329,0.0017007540543218,-0.0017007544132636,0.0017007544094415,-0.0017007541259801,0.0017007540271857,-0.0017007544605247,0.0017007543823174,-0.0016250963256425,0.0016250962046777,-0.0016250964205157,0.0016250963645095,-0.0016226056981151,0.0016226057607705,-0.0016226059087737,0.0016226057612204,-0.0016250962956808,0.0016250962468637,-1.5485168820763e-10,-1.5485503855325e-10,-0.0010069323439456,0.0010069315621191,-1.9733078866883e-10,-2.2729120683612e-10,-0.00090627350665684,0.00090627310675769,-0.00079030841505751,0.00079030774494558,-0.00079030839222036,0.00079030772210373,-0.00090627352145396,0.00090627317956371,-0.00090627347984208,0.00090627313796676,-0.00079030838678352,0.00079030777185749,-0.00079030836500667,0.00079030775007361,-0.0012408911486886,0.0012408906149364,-0.001240891158208,0.0012408906054202,-0.0012408911605258,0.0012408906267732,-0.0012408911703112,0.0012408906175242,-0.0012328736331686,0.0012328733198323,-0.0012328736727229,0.001232873359382,-0.0012328736633601,0.0012328733708045,-0.0012328736221513,0.0012328733296021,-0.00090627355213531,0.00090627315222025,0.73628229516246,122718,2924,0.005262609344232,0.0070174574603544,0.0041883285233894,29.265611288644,0.00014932489030915,0.00014932489030915,0.00014932489030915,3339242.3415714,0.016605741182328
32391759,0.96151795098427,0.016990203729129,0.0055398391466274,0.00661193513846,0.0048384294440413,-0.0012742864667715,0.0012742864253471,-6.0446309097926e-11,-6.0447818640045e-11,-1.4490507677878e-11,4.986685148427e-11,-0.00044701990960929,0.00044702076578119,-0.0012139703520138,0.0012139705725963,-0.0012139703960809,0.0012139706166694,-0.00044702012741367,0.00044702085663733,-0.00044701997262071,0.00044702070190798,-0.0012139704167894,0.0012139705076999,-0.0012139704608052,0.0012139705517217,-0.0015243157326194,0.0015243154625901,-0.0015243158048865,0.0015243155348526,-0.0015243157110264,0.0015243154844609,-0.001524315783169,0.0015243155565988,-0.0012792529512739,0.0012792527701101,-0.0012792529330229,0.001279252751852,-0.0012792529722361,0.0012792527493429,-0.0012792529537455,0.001279252730845,-0.00044702006414001,0.00044702092024838,1.1205789906104e-11,-4.8599998362234e-11,-6.3067305043004e-11,2.6399561158587e-11,-0.0017082353985105,0.001708235362332,-0.0016429306367057,0.0016429307070414,-0.0016408008834544,0.0016408008744504,-0.0016408009636786,0.0016408008376813,-0.0017168744126387,0.0017168743672277,-0.0017168746738648,0.0017168746890122,-0.0017168744480038,0.0017168743619423,-0.0017168747092422,0.0017168746837386,-0.0016429307581737,0.0016429306148093,-0.0016429306690011,0.0016429306994785,-0.0016408009614479,0.0016408010128661,-0.0016408010416688,0.0016408009760936,-0.0016429307258897,0.0016429306223833,-7.5530201009849e-11,-7.5533523370356e-11,-0.0010095875174401,0.0010095872374691,-5.1636835596294e-11,-1.4009908204531e-10,-0.00090496473609011,0.00090496464307732,-0.00078800699061804,0.00078800694422247,-0.00078800700224121,0.0007880069558404,-0.00090496462232826,0.00090496469568288,-0.0009049646543361,0.00090496472770749,-0.00078800690646024,0.00078800702752173,-0.00078800691855516,0.00078800703961166,-0.001248497144607,0.0012484968142699,-0.001248497174235,0.0012484967849949,-0.0012484971458919,0.0012484968155544,-0.0012484971754559,0.0012484967862153,-0.0012408168552263,0.0012408166376582,-0.0012408169016691,0.0012408166840948,-0.0012408168726425,0.0012408167143005,-0.0012408168253513,0.0012408166670155,-0.00090496470654002,0.0009049646135109,0.76665023348977,122718,2924,0.0052982983908988,0.0070905880406432,0.0041994173533728,29.297781394991,0.00014958225115993,0.00014958225115993,0.00014958225115993,3268613.2580817,0.016727686092164
32891759,0.96827867266038,0.017103365689457,0.0055766136385719,0.0066578831121762,0.0048688689387089,-0.0012796417062571,0.0012796416900168,-5.5992609478921e-11,-5.5994097154062e-11,1.0250133924268e-11,4.1066271130077e-11,-0.00043339266735954,0.00043339356644452,-0.0012160465680328,0.0012160467914145,-0.0012160465763806,0.0012160467997682,-0.00043339285966111,0.00043339369742028,-0.00043339269768392,0.00043339353550719,-0.0012160466002663,0.0012160467596056,-0.0012160466085614,0.001216046767907,-0.0015346473538127,0.0015346470989538,-0.0015346474120385,0.0015346471571753,-0.0015346473430387,0.0015346471096043,-0.0015346474011318,0.0015346471676929,-0.0012859904629561,0.0012859902750443,-0.001285990443196,0.0012859902552771,-0.001285990472844,0.001285990265441,-0.0012859904528717,0.0012859902454614,-0.00043339282909563,0.00043339372811679,4.5750202362722e-13,-2.6422060471248e-11,-8.0785706110955e-11,5.5119279202679e-11,-0.0017236163567783,0.0017236163316346,-0.0016596793407267,0.001659679456418,-0.0016577750058444,0.0016577749602819,-0.0016577750371916,0.0016577749394398,-0.0017291246889164,0.0017291246279467,-0.0017291249250745,0.0017291249556809,-0.0017291247145924,0.0017291246349343,-0.001729124950763,0.0017291249626803,-0.0016596795250644,0.0016596793582518,-0.0016596793654211,0.0016596794632246,-0.0016577750754231,0.0016577751211938,-0.0016577751067667,0.0016577751003484,-0.0016596795003811,0.0016596793514562,-6.8100635000002e-11,-6.810393253411e-11,-0.0010095024223055,0.001009502224128,-1.2698394510264e-11,-1.4802457684417e-10,-0.00089773595486617,0.00089773587150814,-0.00078051535721716,0.00078051538803858,-0.00078051537547392,0.00078051540629008,-0.0008977357819672,0.0008977359564198,-0.00089773582722986,0.00089773600169877,-0.00078051522728606,0.00078051551715644,-0.00078051524590431,0.0007805155357695,-0.0012545403173012,0.0012545400238863,-0.0012545403625974,0.0012545399790193,-0.0012545403167424,0.0012545400233272,-0.0012545403619124,0.0012545399783338,-0.0012457818869087,0.0012457816595454,-0.0012457819345748,0.0012457817072052,-0.0012457818898213,0.0012457817529393,-0.0012457818414567,0.0012457817045809,-0.00089773591181138,0.00089773582843709,0.70183472838334,122718,2924,0.0053206345454439,0.0071541778662896,0.0041991528200564,29.182826626735,0.00014866261301388,0.00014866261301388,0.00014866261301388,3168138.8731791,0.016814845992023
33391759,0.97389752903718,0.017204037210531,0.0056092646981638,0.006698523124539,0.0048962493878286,-0.0012866384486547,0.0012866383842346,-7.0357306264942e-11,-7.0358322748595e-11,1.1003407971087e-12,1.0978363500884e-11,-0.00044456188483961,0.00044456264731934,-0.0012249018241377,0.0012249019665286,-0.0012249018772772,0.0012249020196743,-0.00044456204507649,0.00044456278937833,-0.00044456189344796,0.00044456263781444,-0.0012249018357894,0.0012249019559477,-0.0012249018886309,0.0012249020087956,-0.0015423165151551,0.0015423162455745,-0.0015423165905815,0.0015423163209967,-0.0015423165109119,0.0015423162492695,-0.0015423165863552,0.0015423163247085,-0.0012916639147134,0.0012916636972645,-0.0012916638984605,0.0012916636810055,-0.0012916639177691,0.0012916636949292,-0.0012916639009428,0.0012916636780966,-0.00044456203576811,0.00044456279818341,-6.2616505932255e-12,-1.1798119987298e-11,-9.7416120180868e-11,7.9357064166751e-11,-0.0017307414763893,0.0017307414588792,-0.0016619354644961,0.0016619356209708,-0.0016618011202128,0.001661801047869,-0.0016618011531267,0.0016618010709207,-0.0017405469907524,0.001740546917653,-0.00174054722472,0.0017405472692012,-0.0017405470077365,0.0017405469293198,-0.0017405472417164,0.0017405472808798,-0.0016619356477073,0.0016619354552536,-0.0016619354774644,0.001661935630089,-0.0016618011663103,0.0016618012121969,-0.0016618011992209,0.0016618012352453,-0.0016619356347503,0.0016619354461464,-9.3609547263511e-11,-9.3613357962938e-11,-0.0010132386905108,0.0010132383602504,-2.8991602229945e-11,-2.0438382512436e-10,-0.00090665110229517,0.00090665087158736,-0.0007882569219773,0.00078825673039105,-0.00078825693313545,0.00078825674154423,-0.00090665090438559,0.00090665101284347,-0.00090665093406496,0.00090665104254046,-0.00078825675220992,0.00078825689921534,-0.00078825676380836,0.00078825691080905,-0.0012573631571244,0.0012573628245679,-0.0012573632155499,0.0012573627665251,-0.0012573631585103,0.0012573628259531,-0.0012573632168649,0.0012573627678392,-0.0012508631284397,0.0012508628505423,-0.00125086317483,0.0012508628969273,-0.0012508631166357,0.0012508629562177,-0.0012508630694023,0.0012508629089896,-0.00090665107504117,0.00090665084431615,0.75084859103007,122718,2924,0.0053496240368965,0.0071835723204542,0.004214641459561,29.274726240413,0.0001493978099233,0.0001493978099233,0.0001493978099233,3209474.8299398,0.0168899317599
33891759,0.97870762721491,0.017289614722954,0.0056369622921224,0.0067331656517229,0.0049194867791083,-0.0012916416860326,0.0012916414753562,-1.0817442091922e-10,-1.0817566886639e-10,-6.72469941799e-11,-2.2877126119501e-11,-0.00042708932838366,0.00042708979182337,-0.0012255273934885,0.0012255273856706,-0.0012255275966549,0.0012255275888431,-0.00042708948518564,0.00042708986690013,-0.00042708936816916,0.00042708974994838,-0.0012255274382306,0.0012255273419962,-0.0012255276405536,0.0012255275443254,-0.0015522581762393,0.0015522578359758,-0.0015522583129121,0.0015522579726443,-0.0015522581604126,0.0015522578513423,-0.0015522582973965,0.0015522579883218,-0.0012990668057022,0.0012990665404947,-0.0012990668083193,0.0012990665431052,-0.0012990668202956,0.0012990665271923,-0.0012990668216554,0.0012990665285454,-0.00042708944375561,0.00042708990713078,4.0592882856469e-12,-3.3932359625e-11,-8.8532241636083e-11,5.9096780222165e-11,-0.0017465706589112,0.0017465706299917,-0.0016814835214981,0.0016814836495458,-0.0016813056604031,0.0016813056179913,-0.0016813057894954,0.00168130567391,-0.0017508704241307,0.0017508703621322,-0.0017508707181154,0.0017508707521057,-0.0017508704508169,0.0017508703602988,-0.0017508707448138,0.0017508707502841,-0.0016814835650054,0.0016814833783179,-0.0016814835328274,0.0016814836349986,-0.0016813056960087,0.0016813057518978,-0.0016813058250976,0.0016813058078132,-0.0016814835536871,0.001681483392876,-1.5930185456481e-10,-1.5930542012288e-10,-0.001013944687599,0.0010139439503442,-1.4158004950498e-10,-2.8577629675603e-10,-0.00089845014267384,0.00089844965041002,-0.00077942777532443,0.00077942706507722,-0.00077942776050209,0.00077942705024963,-0.00089845003101763,0.00089844982208484,-0.00089845000292538,0.00089844979400973,-0.00077942763496805,0.00077942720411505,-0.00077942762101527,0.00077942719015727,-0.0012647890937748,0.0012647885998585,-0.0012647891412993,0.0012647885524564,-0.0012647891033917,0.0012647886094749,-0.0012647891510956,0.001264788562252,-0.0012565547877727,0.0012565544238083,-0.001256554830377,0.0012565544664068,-0.0012565547826726,0.0012565545158785,-0.0012565547386044,0.0012565544718163,-0.00089845017425058,0.00089844968197001,0.74591026409431,122718,2924,0.005370512597064,0.0072490514625823,0.0042176769960061,30.026758286123,0.00015541406628899,0.00015541406628899,0.00015541406628899,3079029.7615497,0.016980928507323
34391759,0.98290460687023,0.01736250726344,0.0056606668029736,0.0067624654779804,0.0049393749824864,-0.001298300009909,0.0012982996642075,-1.4227634620234e-10,-1.4227761675177e-10,-1.3482374396246e-10,-5.0222905665883e-11,-0.00042751203905273,0.00042751222605733,-0.0012315598881718,0.001231559748037,-0.0012315602363416,0.0012315600962128,-0.00042751220612349,0.00042751223612425,-0.00042751211595312,0.00042751214601874,-0.0012315599716118,0.0012315596654901,-0.0012315603184961,0.0012315600123805,-0.0015611091491292,0.0015611087434807,-0.0015611093449407,0.0015611089392878,-0.0015611091199413,0.0015611087724152,-0.0015611093163138,0.0015611089687832,-0.001305924105574,0.0013059238013872,-0.0013059241231481,0.0013059238189546,-0.001305924133557,0.0013059237751518,-0.0013059241492826,0.0013059237908707,-0.00042751212678452,0.00042751231372494,1.6460441203644e-11,-5.9785648354187e-11,-7.0803196481537e-11,2.8414722243858e-11,-0.0017573841036746,0.0017573840617648,-0.0016917013010001,0.001691701382065,-0.0016917836792623,0.0016917836772897,-0.0016917839083288,0.0016917837583585,-0.001761582754103,0.0017615827097401,-0.001761583112956,0.0017615831304544,-0.0017615827923952,0.0017615826926378,-0.0017615831512604,0.0017615831133639,-0.0016917011956789,0.0016917010301727,-0.0016917013135337,0.001691701342891,-0.0016917837100888,0.0016917837737648,-0.0016917839391521,0.0016917838548305,-0.0016917011831563,0.0016917010693574,-2.175971537849e-10,-2.1760070060973e-10,-0.0010171231477604,0.0010171220260408,-2.5650800703293e-10,-3.5034458668395e-10,-0.00089960802789621,0.00089960731173195,-0.00078063769119867,0.00078063650072796,-0.00078063765191474,0.000780636461439,-0.00089960801258988,0.00089960748572604,-0.00089960793568669,0.00089960740883997,-0.00078063759914714,0.0007806365911321,-0.00078063756112317,0.00078063655310292,-0.0012703652482383,0.0012703646001439,-0.0012703652785425,0.0012703645697178,-0.0012703652653402,0.0012703646172451,-0.0012703652960546,0.0012703645872293,-0.0012623595324554,0.0012623591035593,-0.0012623595714469,0.0012623591425449,-0.0012623595406347,0.0012623591757591,-0.0012623594996015,0.0012623591347317,-0.00089960810926138,0.00089960739308063,0.7264527437022,122718,2924,0.0053981687255065,0.0072937319312529,0.0042308964297594,31.388878610963,0.00016631102888771,0.00016631102888771,0.00016631102888771,3036557.3545646,0.017067957402723
34891759,0.98661374184913,0.017428992473119,0.0056822655630908,0.0067891152825761,0.0049576116274517,-0.0013062126272508,0.001306212126884,-1.8120301773984e-10,-1.8120426803988e-10,-2.1452557253807e-10,-7.7178701684818e-11,-0.00043284589188776,0.0004328457808338,-0.0012394791767934,0.0012394788932826,-0.001239479689409,0.0012394794059034,-0.000432846079573,0.00043284571203511,-0.00043284601791966,0.00043284565044047,-0.0012394793110802,0.0012394787595426,-0.0012394798219252,0.0012394792703928,-0.0015704012877052,0.0015704008033659,-0.0015704015519045,0.0015704010675612,-0.0015704012410912,0.0015704008500771,-0.0015704015061216,0.001570401115103,-0.0013136940145242,0.0013136936667382,-0.0013136940495149,0.0013136937017239,-0.0013136940600226,0.0013136936234454,-0.0013136940925263,0.0013136936559425,-0.00043284595022174,0.00043284583910297,3.237703496263e-11,-9.43329398405e-11,-4.4838735089775e-11,-1.5507043682225e-11,-0.0017677047109616,0.0017677046510459,-0.0017003925590141,0.0017003925711951,-0.0017013213998733,0.0017013214523657,-0.0017013217465821,0.0017013215522367,-0.0017728566432306,0.0017728566228784,-0.0017728570846553,0.0017728570776108,-0.0017728566982068,0.0017728565873267,-0.001772857139645,0.0017728570420719,-0.0017003922791381,0.0017003921467455,-0.0017003925757616,0.0017003925022347,-0.0017013214331319,0.00170132150432,-0.0017013217798362,0.00170132160419,-0.0017003922623994,0.0017003922157141,-2.825257797978e-10,-2.8252935745515e-10,-0.0010223685224431,0.0010223669641841,-3.9148721933602e-10,-4.1330613710107e-10,-0.00090527759948382,0.00090527665460563,-0.00078585635179844,0.00078585463947353,-0.0007858562843446,0.00078585457201285,-0.00090527770567283,0.00090527681391904,-0.00090527757599945,0.00090527668426236,-0.00078585632920796,0.00078585466002976,-0.00078585626347876,0.00078585459429405,-0.0012766591199982,0.0012766582883764,-0.0012766591258194,0.0012766582821472,-0.0012766591457936,0.0012766583141702,-0.0012766591522945,0.0012766583086226,-0.0012693626758041,0.0012693621778678,-0.0012693627105495,0.0012693622126089,-0.001269362703895,0.0012693622224268,-0.0012693626664248,0.0012693621849611,-0.0009052777347954,0.00090527678990039,0.74954793455598,122718,2924,0.0054309903559561,0.0073363757200052,0.004252675052364,33.427555293736,0.00018262044234989,0.00018262044234989,0.00018262044234989,3015223.6397885,0.017166867026054
35391759,0.98984888666929,0.017483730297366,0.0057001132874135,0.0068109951908088,0.0049726218191435,-0.0013133279063532,0.0013133273437963,-1.9016482630097e-10,-1.9016607967445e-10,-2.8182885367492e-10,-4.7470424634642e-11,-0.00042812815124012,0.00042812793947008,-0.0012442789756791,0.00124427869776,-0.0012442795910474,0.0012442793131343,-0.00042812842590053,0.00042812776752648,-0.00042812837207162,0.0004281277137625,-0.0012442792041536,0.0012442784682382,-0.0012442798177859,0.0012442790818767,-0.0015803322006797,0.0015803316785942,-0.0015803325049207,0.001580331982831,-0.0015803321227511,0.0015803317577803,-0.0015803324278138,0.0015803320628385,-0.0013218826457022,0.0013218823245263,-0.0013218826868201,0.0013218823656376,-0.0013218827232482,0.001321882248837,-0.0013218827619051,0.0013218822874872,-0.00042812820183735,0.00042812799000254,6.4204570712084e-11,-1.5815967703631e-10,1.6357564052352e-11,-1.0747461848888e-10,-0.0017807489034959,0.0017807488127061,-0.0017149449228871,0.0017149447865271,-0.0017159597976724,0.0017159599635989,-0.001715960282829,0.0017159600136709,-0.0017833536147766,0.0017833536466104,-0.0017833541388881,0.0017833540821508,-0.0017833536994821,0.0017833535771363,-0.0017833542236058,0.0017833540126885,-0.0017149444360347,0.0017149443909089,-0.0017149449639531,0.0017149446781087,-0.0017159598643387,0.0017159599470769,-0.0017159603494919,0.0017159599971456,-0.0017149443949796,0.001714944499338,-2.9960576357143e-10,-2.9960933808891e-10,-0.0010266113705151,0.0010266095938966,-5.0986007780475e-10,-3.7798233861409e-10,-0.00090449920430646,0.00090449826283363,-0.00078504782705659,0.00078504593483686,-0.00078504774386954,0.00078504585164447,-0.00090449949877297,0.00090449830942436,-0.00090449933167997,0.00090449814234844,-0.00078504795482352,0.00078504580497401,-0.00078504787360478,0.00078504572375016,-0.0012846770647229,0.0012846761368929,-0.0012846770192202,0.0012846761817926,-0.0012846770951992,0.0012846761673688,-0.001284677050533,0.0012846762131046,-0.0012764236269464,0.0012764231735939,-0.0012764236607881,0.0012764232074298,-0.0012764237057129,0.0012764231661505,-0.0012764236687824,0.0012764231292259,-0.00090449937760376,0.0009044984361143,0.70668892055843,122718,2924,0.0054605641360255,0.0073903167564054,0.0042703384127795,35.835922217078,0.00020188737773662,0.00020188737773662,0.00020188737773662,2935169.765751,0.017269830872106
35891759,0.9924784417369,0.017529545627473,0.0057150499824673,0.0068292280130784,0.0049852676319276,-0.0013196205389737,0.0013196201670734,-1.3791781264667e-10,-1.3791872369237e-10,-2.0919596191284e-10,2.2350497942924e-11,-0.00043919935498414,0.00043919959293804,-0.0012519579503332,0.001251957912515,-0.0012519583782655,0.0012519583404477,-0.00043919966602416,0.0004391994566591,-0.00043919957680821,0.00043919936750693,-0.0012519581766892,0.0012519576841724,-0.0012519586036431,0.0012519581111495,-0.001586566277303,0.0015865658364907,-0.001586566508153,0.0015865660673417,-0.0015865662010302,0.0015865659145719,-0.0015865664322617,0.0015865661458063,-0.0013271124790037,0.0013271122382961,-0.0013271125033432,0.0013271122626237,-0.0013271125553585,0.0013271121627246,-0.0013271125782819,0.0013271121856302,-0.00043919944231671,0.00043919968019609,6.2106492395171e-11,-1.5964810921279e-10,2.4744518895462e-11,-1.1936183993066e-10,-0.0017860294299481,0.0017860293356484,-0.0017167043396856,0.0017167041788466,-0.0017190852946776,0.001719085463178,-0.0017190856919238,0.0017190854256391,-0.0017918232579892,0.0017918232899143,-0.001791823735555,0.0017918236688639,-0.0017918233469978,0.0017918232276564,-0.0017918238245768,0.0017918236066127,-0.0017167039947591,0.0017167039671424,-0.001716704397259,0.0017167040879075,-0.001719085400511,0.0017190854731584,-0.0017190857977347,0.0017190854356219,-0.0017167039371877,0.0017167040580944,-2.1092443231126e-10,-2.1092836998897e-10,-0.0010314022052864,0.0010314009515124,-3.8564052972411e-10,-2.3627735362065e-10,-0.00091330458161687,0.00091330405471691,-0.00079329437890222,0.00079329323105373,-0.00079329432696529,0.00079329317911449,-0.00091330482147716,0.00091330400420335,-0.00091330472971252,0.00091330391243902,-0.0007932945255041,0.00079329308281397,-0.00079329447509952,0.00079329303240251,-0.0012882252540498,0.0012882245166404,-0.0012882252034587,0.0012882245669022,-0.0012882252751183,0.0012882245377112,-0.001288225225089,0.0012882245885326,-0.0012814072301576,0.0012814069116721,-0.0012814072681853,0.0012814069496997,-0.0012814073189748,0.0012814069018799,-0.0012814072785388,0.0012814068614521,-0.00091330467850174,0.0009133041515779,0.72723604077729,122718,2924,0.0054866186046289,0.0074121058207132,0.0042901958894545,37.444966123086,0.00021475972898469,0.00021475972898469,0.00021475972898469,2958141.8642407,0.017338675986276
36391759,0.99443602216244,0.017563387489617,0.0057260735752343,0.0068427049963586,0.0049946089180241,-0.001320926416725,0.0013209264072389,-4.2573634801739e-11,-4.2574543126932e-11,-4.7022392498187e-11,1.1690273649576e-10,-0.00043001400580275,0.00043001499169136,-0.0012510912822662,0.0012510916335307,-0.0012510913449834,0.0012510916962541,-0.00043001432430638,0.00043001498499626,-0.00043001416794012,0.00043001482869543,-0.0012510914440099,0.0012510914695408,-0.0012510915070446,0.0012510915325832,-0.0015901908831401,0.0015901906168688,-0.001590190963601,0.0015901906973257,-0.0015901908297751,0.0015901906719985,-0.0015901909098935,0.0015901907521124,-0.0013295183203105,0.0013295182091233,-0.001329518308861,0.0013295181976682,-0.0013295183740337,0.0013295181546904,-0.0013295183628955,0.0013295181435467,-0.00043001416258716,0.00043001514841293,4.3176957444176e-11,-1.1591111293624e-10,4.4761947847337e-12,-7.5149827871402e-11,-0.0017923200471081,0.0017923199768068,-0.0017246956288257,0.0017246955325061,-0.0017271900003423,0.0017271901103156,-0.0017271901802673,0.0017271899774185,-0.0017955112656637,0.0017955112741439,-0.0017955115971053,0.0017955115555249,-0.0017955113368222,0.001795511239908,-0.0017955116682759,0.0017955115213006,-0.0017246955990117,0.0017246955545868,-0.0017246956959909,0.0017246954938978,-0.001727190134254,0.0017271901925746,-0.0017271903141753,0.0017271900596749,-0.0017246955318567,0.0017246955932056,-5.2782775602953e-11,-5.2786699068019e-11,-0.0010306705354668,0.0010306702818979,-1.1583156309713e-10,-3.6183009069572e-11,-0.00090817700734055,0.00090817711377765,-0.00078797136280504,0.00078797150023108,-0.00078797137428946,0.00078797151171023,-0.00090817706150307,0.00090817700069591,-0.00090817709251114,0.00090817703172133,-0.00078797144398087,0.00078797141834473,-0.00078797145598855,0.00078797143034805,-0.0012906853718719,0.0012906850401047,-0.0012906853457633,0.0012906850664963,-0.0012906853736603,0.0012906850418916,-0.0012906853475167,0.0012906850682481,-0.0012829594199218,0.0012829593121555,-0.0012829594673787,0.0012829593596086,-0.0012829594947615,0.0012829593335655,-0.0012829594464146,0.001282959285223,-0.00090817697889024,0.00090817708530897,0.7216918482127,122718,2924,0.005492104959344,0.0074381247971716,0.004287215922532,37.533394630514,0.00021546715704412,0.00021546715704412,0.00021546715704412,2896210.7095451,0.017367736623959
36891759,0.99584263344308,0.017586625577199,0.0057336746442683,0.0068519185857734,0.0050010323471577,-0.0013205774878273,0.0013205776569965,7.4849473694075e-13,7.4758447063111e-13,5.5436901940699e-11,1.3662716154576e-10,-0.00042728714232755,0.00042728846835525,-0.0012504294834564,0.0012504299831639,-0.001250429347304,0.0012504298470177,-0.00042728741421655,0.0004272885731427,-0.00042728722616196,0.0004272883851538,-0.0012504295652199,0.0012504298999033,-0.0012504294299226,0.0012504297646127,-0.0015907557442191,0.0015907555713224,-0.0015907557433679,0.0015907555704671,-0.001590755717995,0.0015907555986507,-0.0015907557164975,0.001590755597149,-0.0013291873733539,0.0013291873001244,-0.0013291873443534,0.001329187271118,-0.001329187399612,0.0013291872727075,-0.0013291873716472,0.0013291872447367,-0.00042728733177712,0.00042728865773928,1.7301191754586e-11,-6.1850615623796e-11,-3.103812980644e-11,-1.2491346162655e-11,-0.0017935619931555,0.0017935619500761,-0.0017254348859202,0.001725434885404,-0.0017283045020084,0.0017283045285298,-0.0017283045196526,0.00172830439017,-0.0017968476679067,0.0017968476420869,-0.0017968478990352,0.001796847890836,-0.0017968477145616,0.0017968476381906,-0.0017968479457021,0.0017968478869514,-0.0017254350753741,0.0017254349892081,-0.001725434942658,0.0017254348900301,-0.0017283046305931,0.001728304671289,-0.0017283046482337,0.001728304532926,-0.001725435018647,0.0017254349845925,2.1936119172137e-11,2.1932190736628e-11,-0.0010288975353128,0.0010288977997913,5.1468440429989e-11,3.0385097344369e-11,-0.00090583275661385,0.00090583312054712,-0.00078553495399346,0.00078553570547468,-0.00078553499958912,0.00078553575106527,-0.00090583264719027,0.0009058330355703,-0.0009058327451726,0.00090583313357005,-0.00078553493775598,0.00078553572142668,-0.00078553498331777,0.00078553576698359,-0.0012898047186092,0.0012898046054887,-0.0012898047266362,0.0012898045980989,-0.0012898047100768,0.0012898045969556,-0.0012898047177409,0.0012898045892027,-0.0012822183034733,0.0012822182661287,-0.0012822183552332,0.0012822183178834,-0.001282218348819,0.0012822183247089,-0.0012822182969822,0.0012822182728775,-0.00090583265980548,0.00090583302372141,0.68857595707769,122718,2924,0.0054906835464772,0.0074432412551492,0.0042798742601486,36.818673735867,0.00020974938988694,0.00020974938988694,0.00020974938988694,2882978.6547067,0.01736403357415
37391759,0.99693026124106,0.017605068397457,0.0057396973509881,0.0068592254209573,0.0050061456255113,-0.0013235925287906,0.0013235923146247,-1.0480489898816e-10,-1.048057449329e-10,-8.7964140638238e-11,9.9596922088279e-13,-0.00043534451249285,0.00043534500331631,-0.0012546077765337,0.0012546078064801,-0.0012546080074681,0.0012546080374207,-0.00043534472201236,0.00043534504287005,-0.00043534459646524,0.0004353449173885,-0.0012546078645786,0.0012546077184438,-0.0012546080949166,0.0012546079487885,-0.0015932576965735,0.0015932573490146,-0.0015932578465682,0.0015932574990053,-0.0015932576665169,0.0015932573793331,-0.0015932578166889,0.0015932575295011,-0.0013313189995353,0.0013313187569142,-0.001331319005756,0.001331318763129,-0.0013313190287018,0.0013313187285437,-0.0013313190339928,0.0013313187338287,-0.00043534463684379,0.00043534512760168,1.7610894469851e-11,-6.4542651560416e-11,-3.4302157563221e-11,-1.1576406466376e-11,-0.0017949018405724,0.0017949017951561,-0.0017240653433882,0.0017240653473536,-0.0017280531202197,0.0017280531458542,-0.0017280532980809,0.0017280531634783,-0.0018007221209262,0.0018007220980888,-0.0018007224768774,0.0018007224680062,-0.0018007221663274,0.0018007220859939,-0.0018007225222909,0.0018007224559229,-0.0017240652599534,0.0017240651646003,-0.0017240653709651,0.001724065319703,-0.0017280531974546,0.0017280532385672,-0.0017280533753123,0.001728053256188,-0.0017240652323873,0.0017240651922615,-1.4822552127029e-10,-1.4822952599855e-10,-0.0010314981537472,0.0010314973896639,-1.9792023479952e-10,-2.1757198375723e-10,-0.00091212353434944,0.0009121231674839,-0.00079129860398562,0.00079129797128127,-0.00079129858698774,0.00079129795427837,-0.00091212354416197,0.0009121232141819,-0.00091212351792618,0.0009121231879639,-0.000791298585992,0.00079129798800433,-0.00079129856990252,0.00079129797191003,-0.0012908595966539,0.0012908590775202,-0.0012908596028449,0.0012908590714109,-0.0012908596071955,0.0012908590880611,-0.0012908596135909,0.001290859082156,-0.0012843891962825,0.0012843889025183,-0.0012843892392078,0.0012843889454386,-0.0012843892332461,0.0012843889533,-0.0012843891887803,0.0012843889088393,-0.00091212356420965,0.00091212319732657,0.70704502274884,122718,2924,0.0055031445357846,0.00744875475992,0.0042906384431043,37.626991236317,0.00021621592989054,0.00021621592989054,0.00021621592989054,2909892.5212092,0.017393246342828
37891759,0.99773642167126,0.017618155567575,0.0057439779763367,0.0068644090342537,0.0050097685569843,-0.0013238223383992,0.0013238222979991,-5.8828619311356e-11,-5.8829465344334e-11,-1.130252342155e-11,4.7640356149233e-11,-0.00042761194160142,0.00042761279518031,-0.0012530225369197,0.0012530227545032,-0.0012530225952814,0.0012530228128715,-0.00042761215620004,0.00042761289367605,-0.00042761199925085,0.00042761273679268,-0.001253022596322,0.0012530226949664,-0.0012530226546573,0.0012530227533082,-0.001595078896943,0.001595078632696,-0.0015950789754848,0.0015950787112334,-0.0015950788770937,0.0015950786528042,-0.0015950789554847,0.0015950787311908,-0.0013324636352911,0.001332463456352,-0.0013324636245756,0.00133246344563,-0.0013324636544211,0.0013324634373364,-0.0013324636435577,0.0013324634264665,-0.00042761209839372,0.00042761295190614,9.1228913019329e-12,-4.5336032074164e-11,-4.9985728264431e-11,1.4456450424186e-11,-0.0017986328725298,0.0017986328374847,-0.0017295363517924,0.0017295363969439,-0.001733471167102,0.0017334711622531,-0.0017334712438021,0.0017334711325646,-0.0018021263071905,0.0018021262692406,-0.0018021265902299,0.0018021265965787,-0.0018021263447683,0.0018021262697619,-0.0018021266278198,0.0018021265971116,-0.0017295364289176,0.0017295363129989,-0.0017295363847771,0.0017295363936152,-0.0017334712539261,0.0017334712928791,-0.0017334713306225,0.0017334712631875,-0.0017295363959434,0.001729536316337,-7.511849614836e-11,-7.5122490581538e-11,-0.0010306305996274,0.0010306303081773,-6.6766337043792e-11,-1.3054279927731e-10,-0.00090755118149017,0.00090755110124835,-0.00078665432812692,0.00078665428890079,-0.00078665434087171,0.00078665430163964,-0.00090755109179702,0.00090755112882573,-0.00090755112424222,0.00090755116128961,-0.00078665426821762,0.00078665434797668,-0.00078665428140264,0.00078665436115601,-0.0012923593256746,0.0012923590003537,-0.001292359347142,0.0012923589792499,-0.0012923593271347,0.0012923590018132,-0.0012923593485289,0.0012923589806357,-0.0012849887778965,0.0012849885772714,-0.0012849888254975,0.0012849886248668,-0.0012849888047354,0.001284988646771,-0.0012849887563022,0.0012849885983433,-0.000907551151468,0.0009075510712089,0.67665412959275,122718,2924,0.00550415108225,0.0074641975935631,0.0042870804057864,37.709244029216,0.00021687395223373,0.00021687395223373,0.00021687395223373,2861396.7688161,0.017406394811954
38391759,0.99831862395699,0.017628089591001,0.0057472194747021,0.0068683390746075,0.0050125310416911,-0.001323704383601,0.0013237044834529,-2.3011090174049e-11,-2.3011863841591e-11,6.0757833889881e-11,7.161351028583e-11,-0.00043256896921046,0.00043257008354641,-0.0012540939670791,0.0012540943134928,-0.0012540938802459,0.0012540942266684,-0.00043256916357979,0.00043257025260824,-0.00043256898201884,0.00043257007111064,-0.0012540939800777,0.0012540943006616,-0.0012540938936643,0.001254094214254,-0.0015943506769788,0.0015943504869398,-0.0015943506947888,0.0015943505047456,-0.0015943506730229,0.0015943504908371,-0.0015943506904444,0.0015943505082545,-0.0013315107082808,0.0013315105706584,-0.0013315106827224,0.0013315105450958,-0.0013315107114402,0.0013315105672104,-0.0013315106862949,0.0013315105420599,-0.00043256915142163,0.00043257026568441,-5.3619440786419e-12,-1.3879372877039e-11,-7.5978573494969e-11,5.6812803407854e-11,-0.0017967041637144,0.0017967041450761,-0.0017252403186001,0.0017252404311412,-0.0017300511962101,0.0017300511402345,-0.0017300511690443,0.0017300510966693,-0.0018025244737667,0.001802524412445,-0.0018025246806861,0.0018025247109256,-0.0018025244961856,0.0018025244297882,-0.0018025247031169,0.0018025247282805,-0.0017252405523803,0.001725240401665,-0.0017252403477528,0.0017252404549185,-0.0017300512770339,0.0017300513107139,-0.0017300512498679,0.0017300512671435,-0.0017252405232341,0.0017252403778939,-1.7385317435042e-11,-1.7389397133501e-11,-0.0010302939138017,0.0010302940084542,5.4919741791057e-11,-7.9203353779777e-11,-0.00091066245762511,0.00091066256731256,-0.00078933339217504,0.0007893338006117,-0.00078933343024066,0.0007893338386697,-0.00091066225273762,0.00091066261333495,-0.00091066233297184,0.00091066269359115,-0.00078933326426985,0.00078933392803715,-0.00078933330234652,0.00078933396610929,-0.0012904580850263,0.0012904579292529,-0.0012904581303654,0.0012904578845366,-0.0012904580785929,0.0012904579228194,-0.0012904581236123,0.0012904578777832,-0.0012841644013102,0.0012841642622233,-0.0012841644521974,0.001284164313107,-0.0012841644078395,0.001284164357917,-0.00128416435674,0.001284164306822,-0.00091066237873616,0.0009106624884018,0.7114433863703,122718,2924,0.005503630729262,0.0074561970293466,0.0042856596950447,37.199367718583,0.00021279494174866,0.00021279494174866,0.00021279494174866,2893720.7968015,0.017396255648913
38880000,0.9987434754641,0.01763548406097,0.0057496256183754,0.0068712730436637,0.0050145853989309,-0.00132321611073,0.0013232160703909,-6.3979930133523e-11,-6.3980966160696e-11,1.9629560653926e-11,1.0370994526177e-11,-0.00042113387930658,0.00042113469589281,-0.0012511321258405,0.0012511322829548,-0.0012511321588434,0.0012511323159637,-0.00042113402908737,0.00042113486468396,-0.00042113386943975,0.00042113470510191,-0.0012511321188782,0.0012511322911303,-0.0012511321516338,0.0012511323238923,-0.0015958201738008,0.0015958199190113,-0.001595820242199,0.0015958199874053,-0.0015958201757779,0.0015958199163237,-0.0015958202441447,0.0015958199846862,-0.0013324424208058,0.0013324422059956,-0.0013324424096989,0.0013324421948824,-0.001332442417481,0.0013324422099515,-0.0013324424059453,0.0013324421984094,-0.00042113403843599,0.0004211348549566,-1.2773194728845e-11,4.8179204628958e-13,-1.0013140776011e-10,8.7637846606296e-11,-0.0018008093225091,0.0018008093105699,-0.0017325094995065,0.0017325096658791,-0.0017367270145042,0.0017367269256745,-0.0017367270146575,0.0017367269529181,-0.0018029162010751,0.0018029161231917,-0.0018029164359424,0.001802916483496,-0.0018029162174025,0.0018029161469647,-0.0018029164522821,0.0018029165072807,-0.0017325096898128,0.0017325094985441,-0.0017325095122352,0.0017325096873162,-0.0017367270649691,0.0017367271017496,-0.0017367270651189,0.0017367271289899,-0.0017325096770947,0.0017325094771174,-8.5787418172028e-11,-8.5791223239961e-11,-0.00102871449277,0.001028714224189,-1.1289382833096e-11,-1.9811825521337e-10,-0.00090339280159331,0.0009033926018692,-0.00078220372047522,0.00078220360877712,-0.00078220373762052,0.00078220362591719,-0.0009033925828169,0.00090339274354628,-0.00090339262259206,0.00090339278333887,-0.0007822035397422,0.00078220378864973,-0.00078220355722767,0.00078220380613015,-0.0012921496628942,0.0012921493627519,-0.0012921497252559,0.0012921493008352,-0.0012921496631688,0.0012921493630259,-0.0012921497254014,0.0012921493009799,-0.0012844514478088,0.0012844511785283,-0.0012844514958355,0.0012844512265496,-0.0012844514337743,0.0012844512895468,-0.0012844513850308,0.0012844512408088,-0.00090339276403506,0.00090339256429376,0.72623818468566,122718,2924,0.005501681685573,0.0074732004056827,0.0042791609788966,37.193711349161,0.00021274969079329,0.00021274969079329,0.00021274969079329,2826781.2786215,0.017405007104416
