time,ASR_ext,ASR_strain,ASR_strain_xx,ASR_strain_yy,ASR_strain_zz,disp_x_101,disp_x_102,disp_x_103,disp_x_104,disp_x_105,disp_x_106,disp_x_p1_neg,disp_x_p1_pos,disp_x_p2_neg,disp_x_p2_pos,disp_x_p3_neg,disp_x_p3_pos,disp_x_p4_neg,disp_x_p4_pos,disp_x_p5_neg,disp_x_p5_pos,disp_x_p6_neg,disp_x_p6_pos,disp_y_101,disp_y_102,disp_y_103,disp_y_104,disp_y_105,disp_y_106,disp_y_p1_neg,disp_y_p1_pos,disp_y_p2_neg,disp_y_p2_pos,disp_y_p3_neg,disp_y_p3_pos,disp_y_p4_neg,disp_y_p4_pos,disp_y_p5_neg,disp_y_p5_pos,disp_y_p6_neg,disp_y_p6_pos,disp_y_p7_neg,disp_y_p7_pos,disp_y_p8_neg,disp_y_p8_pos,disp_z_101,disp_z_102,disp_z_103,disp_z_104,disp_z_105,disp_z_106,disp_z_p1_neg,disp_z_p1_pos,disp_z_p2_neg,disp_z_p2_pos,disp_z_p3_neg,disp_z_p3_pos,disp_z_p4_neg,disp_z_p4_pos,disp_z_p5_neg,disp_z_p5_pos,disp_z_p6_neg,disp_z_p6_pos,humidity,ndof,nelem,strain_xx,strain_yy,strain_zz,temp,thermal_strain_xx,thermal_strain_yy,thermal_strain_zz,vonmises,vstrain
2419200,0,0,0,0,0,0,0,0,0,0,0,0,0,0,0,0,0,0,0,0,0,0,0,0,0,0,0,0,0,0,0,0,0,0,0,0,0,0,0,0,0,0,0,0,0,0,0,0,0,0,0,0,0,0,0,0,0,0,0,0,0,0,0,0,0,0,0,0,0,0,0,0,0,0,0
3419200,0.15971932819352,0.0026614135275545,0.00088713784251816,0.00088713784251816,0.00088713784251816,-0.00024698091529905,0.00024698091011571,-1.7296535913362e-12,-1.7292490619463e-12,-1.3515987982793e-12,-2.1124840459448e-12,-0.00025201335870101,0.00025201335500554,-0.00025201335984141,0.00025201335614621,-0.00025201335895628,0.00025201335475108,-0.00025201336008638,0.00025201335588145,-0.00024443136450862,0.00024443136039579,-0.00024443136491975,0.00024443136080772,-2.3504734520024e-13,4.8978802995895e-13,-6.4391941693911e-13,8.8793305807811e-13,-0.00026120341406502,0.00026120341431013,-0.00026469696419957,0.00026469696364791,-0.00026469696479471,0.00026469696531959,-0.00026469696457141,0.00026469696453146,-0.00026469696516654,0.00026469696620312,-0.00025500889388422,0.00025500889288544,-0.00025500889285245,0.00025500889483284,-0.00025803202042255,0.00025803202048665,-0.00025803202005472,0.00025803202153483,-3.2248887171575e-12,-3.2252933040623e-12,-0.00023488563375516,0.00023488562434591,-2.4125916425696e-12,-3.9960719337749e-12,-0.00024076308775501,0.00024076308095623,-0.00024076308829517,0.00024076308042355,-0.00024076308835587,0.00024076308155682,-0.00024076308888919,0.0002407630810173,-0.00023792799622186,0.00023792798852413,-0.00023792799597617,0.00023792798827923,0.75746877217741,122718,2924,0.0010285561046777,0.0010877523569989,0.00097821397793305,31.872947277411,0.00017018357821929,0.00017018357821929,0.00017018357821929,1675306.6979329,0.0030993176017017
4419200,0.3509707212767,0.0056965157608902,0.0018909602704488,0.0020285584134345,0.001776997077007,-0.00047963267494923,0.00047963266350451,-4.1854345385831e-12,-4.1850634460595e-12,-2.82817956521e-12,-5.8638574955316e-12,-0.0004979171391148,0.0004979171303581,-0.0004979171422725,0.00049791713351605,-0.00049791714013605,0.0004979171293385,-0.00049791714325886,0.00049791713246157,-0.00046846093982971,0.00046846092966941,-0.00046846094113779,0.00046846093097824,-8.2462874933423e-13,2.0616020856479e-12,-9.677333481752e-13,2.1594370895027e-12,-0.00054873187241382,0.00054873187361143,-0.00056686178957344,0.00056686178867798,-0.00056686179201018,0.00056686179329686,-0.00056686179113358,0.00056686179221763,-0.0005668617935703,0.0005668617968365,-0.00051885454801685,0.0005188545471351,-0.00051885454668268,0.00051885455189788,-0.00053396146021422,0.00053396145968387,-0.00053396145918744,0.00053396146431827,-6.328692618667e-12,-6.3290620338523e-12,-0.00042911124587409,0.00042911122910505,-4.6559457787583e-12,-7.9362279374158e-12,-0.00044639472016282,0.00044639470661583,-0.00044639472128911,0.00044639470551238,-0.00044639472189697,0.00044639470834973,-0.00044639472299997,0.00044639470722298,-0.00044275107537907,0.0004427510605379,-0.0004427510744909,0.00044275105965044,0.73992840791513,122718,2924,0.0019964708553998,0.0022837452765689,0.0017864265437207,33.606623197779,0.00018405298558224,0.00018405298558224,0.00018405298558224,3108465.6617152,0.0060850989580496
5419200,0.55104521726457,0.0087456396939188,0.002870787859119,0.0032994284996066,0.0025754233351932,-0.00070183713243152,0.00070183712589776,-2.4041152342387e-12,-2.4036688393567e-12,-1.4432024185097e-12,-2.784049537433e-12,-0.00073896529887782,0.00073896529334376,-0.00073896530075225,0.00073896529521849,-0.00073896529935768,0.0007389652928804,-0.00073896530121566,0.00073896529473868,-0.00067738962474996,0.00067738961860869,-0.00067738962507161,0.00067738961893122,-9.7241794035824e-14,1.1249433249301e-12,5.7278011960758e-13,4.2605774893411e-13,-0.00087290224149884,0.00087290224250445,-0.00091726658510385,0.00091726658578329,-0.00091726658684544,0.00091726658736811,-0.0009172665860689,0.00091726658753442,-0.0009172665878105,0.00091726658911924,-0.00080473915775799,0.00080473915929832,-0.00080473915791095,0.00080473915918327,-0.00083569244526488,0.0008356924450625,-0.00083569244346109,0.0008356924456632,-1.7918483190874e-12,-1.7923013787761e-12,-0.00059836462668849,0.00059836462067678,-1.7068230341985e-12,-1.6432932778382e-12,-0.00063182430326388,0.00063182429785573,-0.00063182430324787,0.00063182429787561,-0.00063182430465052,0.00063182429924206,-0.00063182430462533,0.00063182429925277,-0.00062370461134665,0.00062370460694435,-0.00062370461079618,0.00062370460639475,0.72499638738019,122718,2924,0.0029200708925334,0.0036303849072585,0.0024903582729187,36.277814906448,0.00020542251925158,0.00020542251925158,0.00020542251925158,3890965.8890939,0.0090818615853692
6419200,0.70726060902715,0.010679892700283,0.0034582698179124,0.0041810745501793,0.0030405483321913,-0.00082166425579192,0.00082166425105066,-1.633802696905e-12,-1.633420957935e-12,-1.2830954218009e-12,-2.168724011676e-12,-0.0008795349035459,0.00087953489952443,-0.00087953490459411,0.0008795349005729,-0.00087953490386394,0.00087953489921984,-0.00087953490490342,0.00087953490025958,-0.00078273390558341,0.00078273390147606,-0.00078273390551985,0.00078273390141326,-3.0599032867609e-13,5.118977736391e-13,4.4000470521711e-13,-2.4796839532397e-13,-0.0011006193749957,0.0011006193751896,-0.0011784463047181,0.0011784463048571,-0.0011784463062933,0.0011784463059771,-0.0011784463057128,0.0011784463064023,-0.001178446307288,0.0011784463075223,-0.00098992609756399,0.0009899260987042,-0.00098992609917171,0.00098992609896179,-0.0010339140287042,0.001033914027888,-0.0010339140282788,0.0010339140290821,-1.119171898302e-12,-1.1195617834501e-12,-0.00068225375856362,0.00068225375457482,-1.6909718125601e-12,-1.0509030858894e-12,-0.00073383514263067,0.00073383513876824,-0.00073383514242128,0.00073383513898393,-0.00073383514361491,0.00073383513975219,-0.00073383514339978,0.00073383513996216,-0.00070933210825484,0.00070933210593654,-0.0007093321083442,0.00070933210602666,0.59839168540088,122718,2924,0.0034178456704524,0.004575224434168,0.0028392796312039,36.740412350882,0.00020912329880706,0.00020912329880706,0.00020912329880706,4100652.5791884,0.01089135261011
7419200,0.83251497697346,0.012035359780029,0.0038586085634316,0.0048082022608505,0.003368548955747,-0.0008995748533178,0.00089957484831772,-1.6454192427628e-12,-1.6450513844004e-12,-1.3659762758771e-12,-2.0984009247039e-12,-0.00097324273664187,0.00097324273255893,-0.0009732427377685,0.00097324273368581,-0.00097324273691023,0.00097324273230659,-0.00097324273802696,0.00097324273342358,-0.00084969502646909,0.0008496950223257,-0.00084969502650141,0.00084969502235874,-2.5051746451048e-13,4.1787017552945e-13,4.6917601993582e-13,-3.1356865598692e-13,-0.0012742665891567,0.0012742665893143,-0.0013835720268136,0.0013835720269915,-0.001383572028344,0.0013835720280141,-0.0013835720278187,0.0013835720284527,-0.0013835720293491,0.0013835720294753,-0.0011270702650565,0.0011270702662056,-0.0011270702667018,0.0011270702663111,-0.0011792052328432,0.0011792052321055,-0.0011792052325296,0.0011792052331149,-1.4647820754425e-12,-1.465157681615e-12,-0.00073847445259912,0.00073847444752644,-2.0290638664329e-12,-1.2978238395049e-12,-0.00080349319081516,0.00080349318630957,-0.00080349319057725,0.00080349318655356,-0.00080349319180804,0.00080349318730217,-0.00080349319156418,0.00080349318754022,-0.00076505592942614,0.00076505592635053,-0.00076505592954251,0.00076505592646759,0.52694121020036,122718,2924,0.0037414272387678,0.0052951092109784,0.0030731703976754,40.777849915722,0.00024142279932577,0.00024142279932577,0.00024142279932577,4067930.8872257,0.012183514767484
8419200,0.90803875550399,0.012767230721608,0.00407118308816,0.0051458736975198,0.0035501739359284,-0.00092584642734838,0.0009258464246173,-8.666657041047e-13,-8.6633194046134e-13,-8.7741460735073e-13,-1.0222489180561e-12,-0.0010106781152506,0.0010106781128177,-0.001010678115987,0.0010106781135543,-0.0010106781153255,0.0010106781127631,-0.0010106781160545,0.0010106781134923,-0.0008712244922795,0.00087122449007446,-0.00087122449232184,0.00087122449011747,-8.6253894414498e-14,1.3217802087572e-14,7.5283488376401e-13,-8.2940601515674e-13,-0.0013717633284121,0.0013717633283367,-0.0015000909072046,0.0015000909076202,-0.0015000909086102,0.0015000909079701,-0.0015000909081348,0.0015000909086179,-0.0015000909095404,0.0015000909089678,-0.0012027479313039,0.0012027479328105,-0.0012027479336733,0.0012027479320783,-0.001257948868859,0.0012579488681716,-0.001257948869028,0.0012579488685476,-4.1965815031981e-13,-4.1999994870163e-13,-0.00075589795172138,0.00075589794974433,-1.3855623484919e-12,1.6141900442198e-13,-0.0008318048061565,0.00083180480388857,-0.00083180480564303,0.00083180480440526,-0.00083180480689796,0.00083180480462978,-0.00083180480638131,0.00083180480514328,-0.00078120550522933,0.00078120550479876,-0.00078120550535625,0.00078120550492634,0.47156008474719,122718,2924,0.003850598280826,0.0056990287604807,0.0031458088882678,41.436037208495,0.00024668829766796,0.00024668829766796,0.00024668829766796,3844215.857795,0.012776608114889
9419200,0.94982738767693,0.013117370060222,0.0041719596919015,0.0053057646848769,0.0036396456834435,-0.00092851004835141,0.00092851004675621,-4.7215878543203e-13,-4.7184169792215e-13,-6.2314165095031e-13,-4.6676962286137e-13,-0.0010206620888796,0.0010206620872956,-0.001020662089447,0.0010206620878632,-0.0010206620888552,0.0010206620873426,-0.001020662089416,0.0010206620879037,-0.0008721730611511,0.0008721730599268,-0.00087217306122413,0.00087217306000045,-6.9836395957806e-15,-1.982526494e-13,9.1275940994422e-13,-1.1174134520214e-12,-0.0014212231730998,0.0014212231728959,-0.0015602469041648,0.0015602469047044,-0.0015602469055084,0.0015602469046882,-0.0015602469050253,0.0015602469054339,-0.001560246906369,0.0015602469054178,-0.0012401516885661,0.001240151690285,-0.0012401516913264,0.0012401516890675,-0.0012959574204767,0.0012959574197926,-0.001295957420874,0.0012959574198271,3.5242791003985e-14,3.4919639111348e-14,-0.00075666097411599,0.00075666097347245,-1.1467360562359e-12,8.5603541488215e-13,-0.00084016977436169,0.00084016977305113,-0.00084016977369468,0.00084016977372014,-0.00084016977497919,0.0008401697736684,-0.0008401697743103,0.00084016977433553,-0.00078046153513591,0.00078046153588807,-0.00078046153524097,0.00078046153599376,0.40621133923259,122718,2924,0.0038617533689462,0.0059038438959245,0.00314915524679,41.144274719397,0.00024435419775517,0.00024435419775517,0.00024435419775517,3616658.6995228,0.012998787232936
10419200,0.97072043648298,0.013306868635773,0.00422707923607,0.0053896565546707,0.0036901328450322,-0.00092317614924424,0.00092317614997588,3.237865791305e-13,3.2408743189967e-13,-1.1241643707854e-13,6.5958970292851e-13,-0.0010187055662678,0.0010187055663898,-0.0010187055664646,0.001018705566587,-0.001018705566041,0.0010187055666441,-0.0010187055662335,0.0010187055668368,-0.00086661203076942,0.00086661203153423,-0.00086661203087323,0.00086661203163872,1.6913748002491e-13,-6.1777683322416e-13,1.2686799485808e-12,-1.7082848718933e-12,-0.0014422387267635,0.0014422387263239,-0.0015863888514323,0.0015863888522645,-0.0015863888526673,0.0015863888514954,-0.0015863888521728,0.0015863888524664,-0.0015863888534079,0.0015863888516974,-0.0012551670408443,0.0012551670430535,-0.0012551670444307,0.0012551670408112,-0.0013110858795561,0.0013110858788972,-0.0013110858804279,0.0013110858782375,1.0628901029664e-12,1.0625864357726e-12,-0.00075091981405209,0.00075091981641066,-5.8247288232386e-13,2.3830626531159e-12,-0.00083804846171677,0.00083804846254444,-0.00083804846072522,0.00083804846353525,-0.00083804846208198,0.00083804846290939,-0.00083804846109123,0.00083804846390108,-0.00077429698484427,0.00077429698823132,-0.00077429698490349,0.00077429698829114,0.43665130715676,122718,2924,0.0038396752766489,0.0059908455833122,0.0031254083429504,38.087766245938,0.0002199021299675,0.0002199021299675,0.0002199021299675,3503729.4108338,0.0130405155052
11419200,0.98279131952726,0.013408440972437,0.0042565652538753,0.0054344190456873,0.0037174566728746,-0.00091735011732022,0.00091735011646147,-2.1060651832131e-13,-2.1030456620613e-13,-6.7202303265765e-13,1.4096901702271e-13,-0.0010181822411458,0.0010181822399423,-0.0010181822416463,0.001018182240443,-0.0010181822409109,0.0010181822402093,-0.0010181822414029,0.0010181822407016,-0.0008615257185193,0.00086152571809836,-0.00086152571862188,0.00086152571820153,2.0207959131308e-13,-6.4048952172006e-13,1.3866009932326e-12,-1.8151293137513e-12,-0.0014595031254403,0.0014595031250116,-0.0016052807681028,0.0016052807690189,-0.0016052807697028,0.0016052807684896,-0.0016052807690593,0.0016052807694161,-0.0016052807706593,0.0016052807688868,-0.0012700455120196,0.0012700455144487,-0.0012700455158634,0.001270045512014,-0.0013252160545794,0.0013252160539179,-0.0013252160555529,0.0013252160532437,2.8847354027254e-13,2.8816607907703e-13,-0.00074668031017381,0.00074668031024155,-1.4529541720709e-12,1.7159036621224e-12,-0.00083971807305715,0.00083971807192941,-0.00083971807200315,0.000839718072985,-0.0008397180736079,0.00083971807247992,-0.00083971807255231,0.00083971807353393,-0.00076927119471921,0.00076927119643322,-0.00076927119480056,0.00076927119651516,0.40445605707229,122718,2924,0.0038155590659111,0.0060622641388919,0.003107894831263,37.626141271886,0.00021620913017509,0.00021620913017509,0.00021620913017509,3327315.0632985,0.01307071808673
12419200,0.98971400749407,0.013474028759452,0.0042757825144787,0.0054626921644376,0.0037355540805355,-0.00091405386314262,0.00091405386266381,-8.5246381075691e-14,-8.4945671569605e-14,-5.822700190359e-13,3.1080418161618e-13,-0.0010163257658118,0.0010163257648921,-0.0010163257662546,0.0010163257653351,-0.0010163257655505,0.0010163257651862,-0.0010163257659851,0.001016325765621,-0.00085844361238521,0.00085844361227836,-0.00085844361249874,0.00085844361239249,2.2264093376642e-13,-6.9651672189226e-13,1.4750954662578e-12,-1.9378570350919e-12,-0.0014677718128987,0.0014677718124356,-0.0016154548221336,0.0016154548231131,-0.0016154548237328,0.0016154548224413,-0.0016154548230577,0.0016154548234249,-0.0016154548246569,0.0016154548227531,-0.0012759954984598,0.0012759955010359,-0.0012759955024924,0.001275995498376,-0.0013310036417706,0.0013310036410782,-0.0013310036427995,0.0013310036403096,4.3956988026542e-13,4.3926231613188e-13,-0.0007439868308576,0.00074398683138039,-1.4034071562865e-12,1.9781869776722e-12,-0.00083854796555468,0.00083854796472829,-0.00083854796442951,0.00083854796585472,-0.00083854796606164,0.00083854796523508,-0.00083854796493528,0.00083854796636034,-0.00076640083150733,0.00076640083363953,-0.0007664008315767,0.00076640083370946,0.45322610794666,122718,2924,0.0038019079214074,0.006096486038175,0.0030967499042295,36.800802158212,0.0002096064172657,0.0002096064172657,0.0002096064172657,3266656.8286767,0.013080272210704
13419200,0.99357981717679,0.013507572331996,0.0042855739950543,0.005477180994275,0.0037448173426671,-0.00090481756435968,0.00090481756489733,2.4965372251485e-13,2.5000218745543e-13,-3.2147866250342e-13,7.5068659645154e-13,-0.0010109280104039,0.0010109280101945,-0.0010109280107035,0.0010109280104943,-0.0010109280100835,0.0010109280105489,-0.0010109280103756,0.0010109280108412,-0.00084996829806288,0.00084996829878226,-0.00084996829818687,0.000849968298907,2.9344897651167e-13,-7.9779848074522e-13,1.6277450382123e-12,-2.1185961606945e-12,-0.0014721909309632,0.0014721909304718,-0.0016198826077985,0.001619882608924,-0.0016198826093335,0.0016198826079603,-0.0016198826086423,0.0016198826090356,-0.0016198826101773,0.0016198826080718,-0.0012799075820917,0.001279907584907,-0.0012799075863813,0.001279907581853,-0.001334273512612,0.0013342735119465,-0.0013342735137407,0.0013342735109404,8.6221246882445e-13,8.6185775907236e-13,-0.0007363497417873,0.00073634974357338,-1.1375014265828e-12,2.5838361712771e-12,-0.0008350766961686,0.00083507669618742,-0.00083507669492872,0.00083507669742754,-0.00083507669657283,0.00083507669659137,-0.00083507669533272,0.00083507669783127,-0.00075831773779935,0.000758317741011,-0.00075831773784825,0.00075831774106063,0.4150894025916,122718,2924,0.0037636145026311,0.0061147210274845,0.0030650867055055,34.786205536932,0.00019348964429546,0.00019348964429546,0.00019348964429546,3152981.3307839,0.013027893308223
14419200,0.99581223953148,0.013525477578799,0.0042908008177614,0.0054848732890259,0.0037498034720121,-0.00089927042845086,0.00089927042915474,3.0626590665443e-13,3.0661430513334e-13,-3.3618739330884e-13,8.8212966919118e-13,-0.0010051369094161,0.0010051369093179,-0.0010051369096869,0.0010051369095889,-0.0010051369090489,0.0010051369097214,-0.0010051369093118,0.0010051369099846,-0.00084428712463125,0.00084428712552644,-0.00084428712476723,0.00084428712566311,3.3122549893543e-13,-9.0383141798236e-13,1.7459703676861e-12,-2.3027298884767e-12,-0.0014707443706023,0.0014707443700448,-0.0016200039435402,0.0016200039447475,-0.0016200039451395,0.0016200039436489,-0.0016200039444025,0.0016200039447824,-0.0016200039460018,0.0016200039436838,-0.0012767781064243,0.0012767781094227,-0.00127677811101,0.0012767781060711,-0.0013312089880757,0.0013312089873838,-0.0013312089893453,0.0013312089862351,9.3146258857495e-13,9.3110695238057e-13,-0.00073084105792318,0.00073084105991227,-1.2157154489628e-12,2.8070110809184e-12,-0.00082926204668089,0.00082926204679412,-0.00082926204534089,0.00082926204813417,-0.00082926204706288,0.00082926204717586,-0.00082926204572285,0.00082926204851585,-0.00075277021965259,0.00075277022312057,-0.00075277021968988,0.00075277022315856,0.38312450045663,122718,2924,0.0037405968201376,0.0061087373664447,0.0030422158837811,32.634956996485,0.00017627965597188,0.00017627965597188,0.00017627965597188,3147715.6416184,0.012975344285061
15419200,0.9969741872059,0.013537945567695,0.0042944867576031,0.0054901316195762,0.0037533271905156,-0.00088770724571961,0.00088770724902358,1.1795658363969e-12,1.1798565701623e-12,3.0023750809728e-13,2.0470269647314e-12,-0.00099355436184345,0.00099355436366008,-0.00099355436169653,0.00099355436351336,-0.00099355436130147,0.00099355436424165,-0.00099355436114938,0.00099355436408977,-0.00083260758394753,0.00083260758699173,-0.0008326075841134,0.00083260758715818,4.8941163704573e-13,-1.2527295240906e-12,2.074274808799e-12,-2.8145909573547e-12,-0.0014620803453032,0.0014620803445616,-0.0016121609970962,0.0016121609985863,-0.0016121609985078,0.0016121609967223,-0.0016121609977777,0.0016121609980881,-0.0016121609991893,0.0016121609962241,-0.0012671416628812,0.0012671416663448,-0.0012671416681712,0.0012671416620575,-0.00132173014165,0.0013217301409828,-0.0013217301432928,0.0013217301392142,2.0862443549023e-12,2.085944099369e-12,-0.00071876927186571,0.00071876927726323,-4.7076985359824e-13,4.4113091033438e-12,-0.00081719104467407,0.00081719104724071,-0.00081719104304324,0.00081719104886858,-0.00081719104477448,0.0008171910473409,-0.00081719104314655,0.00081719104897166,-0.00074082413967851,0.00074082414604369,-0.00074082413965901,0.00074082414602476,0.51103778709309,122718,2924,0.0036926011766353,0.0060728569110825,0.0029920804138079,27.046978029128,0.00013157582423302,0.00013157582423302,0.00013157582423302,3163968.6688915,0.012839603670274
16419200,0.99772075911422,0.013545226989359,0.0042966218880133,0.0054932401403307,0.0037553649610153,-0.00087451589897378,0.00087451590021516,4.8292737557664e-13,4.8325954988437e-13,-3.5351786387486e-13,1.2878060995841e-12,-0.00098607185645774,0.00098607185657986,-0.00098607185668639,0.00098607185680874,-0.0009860718559553,0.00098607185712455,-0.00098607185617472,0.0009860718573442,-0.00082074578073196,0.00082074578217774,-0.0008207457808751,0.00082074578232154,5.0139741794717e-13,-1.1554456136943e-12,2.1530212855012e-12,-2.7855484328192e-12,-0.0014636573912143,0.0014636573905804,-0.0016119512635425,0.0016119512651054,-0.0016119512653537,0.0016119512636341,-0.0016119512644723,0.0016119512649307,-0.0016119512662836,0.0016119512634594,-0.0012698834302516,0.0012698834339081,-0.0012698834356397,0.0012698834296113,-0.0013234807982323,0.0013234807975822,-0.0013234807998563,0.0013234807959543,1.1344012712904e-12,1.1340794870031e-12,-0.00070812429138984,0.00070812429397276,-1.4339530760708e-12,3.4727726518264e-12,-0.00081261910820548,0.00081261910841736,-0.00081261910657209,0.00081261911005053,-0.00081261910854767,0.00081261910875931,-0.00081261910691431,0.00081261911039249,-0.00072970434323023,0.00072970434746033,-0.00072970434325549,0.00072970434748621,0.46538451425637,122718,2924,0.0036378978338523,0.0060792845784174,0.0029479300229454,24.40750804377,0.00011046006435016,0.00011046006435016,0.00011046006435016,3012989.7122059,0.012746022806039
17419200,0.99822221875988,0.013550765657997,0.0042982577909578,0.00549556521355,0.0037569426534892,-0.00086874283840465,0.00086874283951034,4.3537341839092e-13,4.3571105318211e-13,-3.7189910197301e-13,1.2015440877705e-12,-0.00097882794264603,0.00097882794272764,-0.00097882794288154,0.00097882794296338,-0.0009788279421657,0.00097882794325013,-0.00097882794239181,0.00097882794347647,-0.00081466063521624,0.00081466063653234,-0.00081466063537216,0.00081466063668896,4.5865316493123e-13,-1.1288465439247e-12,2.142430609039e-12,-2.7915073684249e-12,-0.001459339710745,0.0014593397100947,-0.0016096398994522,0.001609639900974,-0.0016096399012735,0.0016096398995171,-0.0016096399003673,0.00160963990083,-0.0016096399021886,0.001609639899373,-0.0012635359510956,0.0012635359547543,-0.0012635359565053,0.0012635359504876,-0.0013173449460255,0.0013173449452919,-0.0013173449476055,0.0013173449437574,1.0745391147441e-12,1.0741941252833e-12,-0.0007020452340542,0.00070204523646977,-1.4945978998836e-12,3.4080134449735e-12,-0.00080495109231028,0.00080495109244558,-0.00080495109067857,0.00080495109407717,-0.00080495109265549,0.00080495109279052,-0.00080495109102387,0.0008049510944222,-0.00072370287513407,0.00072370287922772,-0.00072370287515042,0.00072370287924476,0.52521873377382,122718,2924,0.0036139283395605,0.0060614321193845,0.0029226733400833,21.970372470549,9.0962979764394e-05,9.0962979764394e-05,9.0962979764394e-05,3033847.2552134,0.012678082050679
18419200,0.9985337748507,0.013554071718003,0.0042992304399309,0.0054969616246648,0.0037578796534078,-0.0008548801302415,0.00085488013295996,9.650604224783e-13,9.6538148723341e-13,8.6909561884306e-14,1.8464532980016e-12,-0.00096766296258127,0.00096766296383187,-0.00096766296257897,0.0009676629638298,-0.00096766296203799,0.0009676629644171,-0.00096766296202815,0.00096766296440749,-0.0008013422772746,0.00080134227986618,-0.00080134227744893,0.00080134228004119,5.3075478580562e-13,-1.2313947052664e-12,2.2752331402482e-12,-2.952584153522e-12,-0.001454396901082,0.0014543969004032,-0.0016044003377212,0.0016044003393825,-0.0016044003393632,0.0016044003375377,-0.001604400338478,0.0016044003389536,-0.00160440034012,0.0016044003371088,-0.0012585802246713,0.0012585802285274,-0.001258580230272,0.0012585802238807,-0.0013119501674702,0.0013119501667771,-0.0013119501691224,0.0013119501649745,1.7503499691864e-12,1.7500213909889e-12,-0.00068933504022123,0.00068933504466661,-9.553434031501e-13,4.2538464688662e-12,-0.00079509680353188,0.00079509680511839,-0.0007950968017951,0.00079509680685342,-0.00079509680370982,0.00079509680529606,-0.00079509680197465,0.00079509680703274,-0.00071074265198558,0.00071074265772777,-0.00071074265196623,0.00071074265770903,0.50516361584657,122718,2924,0.0035564073288149,0.0060409121177527,0.0028699076176743,17.468055192363,5.4944441538903e-05,5.4944441538903e-05,5.4944441538903e-05,2965708.359874,0.012545639516307
19419200,0.99879191496967,0.013557624188434,0.0043002851176175,0.0054984384660247,0.0037589006047922,-0.00085372506034777,0.00085372505967482,-1.5738608902184e-13,-1.5706570048688e-13,-8.8207841524225e-13,4.9297088125444e-13,-0.00096583682379447,0.00096583682253511,-0.00096583682432533,0.00096583682306618,-0.00096583682338178,0.00096583682299041,-0.00096583682390051,0.00096583682350937,-0.0008001145751751,0.00080011457508098,-0.00080011457532679,0.00080011457523338,4.0270902104525e-13,-1.0012725588695e-12,2.0980840226204e-12,-2.6781855362114e-12,-0.0014551934184663,0.0014551934178852,-0.0016063659173645,0.0016063659188258,-0.0016063659194506,0.0016063659177569,-0.0016063659184532,0.0016063659189901,-0.0016063659205392,0.0016063659179211,-0.0012582462672175,0.0012582462708576,-0.0012582462725566,0.001258246266822,-0.001311584211765,0.0013115842109796,-0.0013115842132546,0.0013115842097112,2.7565710827633e-13,2.7533386815109e-13,-0.00068843368375278,0.00068843368379511,-2.2133475896328e-12,2.5134306479447e-12,-0.00079349123500947,0.00079349123332325,-0.00079349123344035,0.00079349123489432,-0.00079349123554842,0.00079349123386196,-0.00079349123397738,0.00079349123543107,-0.00070975107728535,0.0007097510795088,-0.00070975107732973,0.00070975107955383,0.65325215552177,122718,2924,0.0035516145972223,0.0060442239688941,0.0028661633287141,17.55168895622,5.5613511649762e-05,5.5613511649762e-05,5.5613511649762e-05,2957558.2459138,0.012540344370439
20419200,0.99901659270554,0.0135609367202,0.0043012665495074,0.0054998191131931,0.0037598510574993,-0.00084753957970703,0.00084753957832179,-4.0356099317985e-13,-4.0323181892409e-13,-9.6817977019908e-13,7.5253083422898e-14,-0.00096479365141663,0.00096479364966615,-0.00096479365206793,0.00096479365031768,-0.00096479365111099,0.00096479365000999,-0.0009647936517502,0.00096479365064944,-0.00079519560264539,0.00079519560189159,-0.00079519560279313,0.00079519560204001,3.1615554754739e-13,-7.617714636988e-13,1.9276680522407e-12,-2.3598592020389e-12,-0.0014628283346682,0.0014628283342354,-0.0016124706550242,0.0016124706563603,-0.001612470657077,0.0016124706555845,-0.0016124706560991,0.0016124706567286,-0.0016124706581519,0.0016124706559529,-0.0012669923545348,0.0012669923579528,-0.0012669923594148,0.0012669923544156,-0.001319263700407,0.001319263699616,-0.001319263701597,0.0013192636986893,-6.2739362767298e-14,-6.3069352686333e-14,-0.00068553916065106,0.00068553915971987,-2.311727260672e-12,1.9263431956553e-12,-0.00079584027384667,0.00079584027150996,-0.00079584027244076,0.00079584027291867,-0.00079584027446453,0.00079584027212757,-0.00079584027305592,0.00079584027353358,-0.00070624756722193,0.00070624756852494,-0.00070624756728186,0.00070624756858549,0.70012779305903,122718,2924,0.0035259941492589,0.0060757488344417,0.0028541972414674,18.599612990704,6.3996903925636e-05,6.3996903925636e-05,6.3996903925636e-05,2801056.8037664,0.012534231212267
21419200,0.99916935986458,0.01356303018015,0.0043018858017257,0.005500688205088,0.0037604561733368,-0.00083537875890808,0.00083537876098647,7.3089503562896e-13,7.3127439570797e-13,4.2846656137596e-14,1.4191072354834e-12,-0.00095382531956927,0.00095382532039264,-0.00095382531969051,0.00095382532051416,-0.00095382531914981,0.00095382532084938,-0.00095382531926345,0.00095382532096328,-0.00078337622771229,0.00078337622967156,-0.0007833762279048,0.00078337622986483,4.176005367079e-13,-9.6716165975753e-13,2.0456567418849e-12,-2.5773098531884e-12,-0.0014591278309806,0.001459127830448,-0.0016099510324862,0.0016099510339651,-0.0016099510340488,0.0016099510324445,-0.0016099510331909,0.0016099510337351,-0.0016099510347535,0.0016099510322145,-0.0012618896948162,0.0012618896983508,-0.0012618896998404,0.001261889694313,-0.0013138000496816,0.0013138000489683,-0.0013138000509784,0.0013138000475537,1.3879759365232e-12,1.3875798603877e-12,-0.00067472529113905,0.00067472529458357,-1.0134060411411e-12,3.5880851746043e-12,-0.00078620464739917,0.00078620464833886,-0.00078620464586542,0.00078620464987189,-0.00078620464764537,0.00078620464858476,-0.00078620464611246,0.00078620465011864,-0.00069518119179995,0.00069518119654824,-0.00069518119177571,0.00069518119652473,0.64990944923706,122718,2924,0.0034755307343396,0.0060604025441634,0.0028092969684914,15.218210656424,3.6945685251395e-05,3.6945685251395e-05,3.6945685251395e-05,2747615.5200361,0.012422143504707
22419200,0.99929587660331,0.013564809860243,0.0043024134673338,0.0055014228353119,0.0037609735575972,-0.0008340061429813,0.00083400614277235,-1.7102867225029e-14,-1.6700656626257e-14,-6.5224154505675e-13,5.5867960919202e-13,-0.00095037730639362,0.00095037730553659,-0.00095037730686236,0.00095037730600561,-0.00095037730603198,0.00095037730593715,-0.00095037730649005,0.00095037730639551,-0.00078162408259846,0.00078162408278497,-0.00078162408277775,0.00078162408296508,3.5230547260376e-13,-8.837568547759e-13,1.9386503049757e-12,-2.4540542656208e-12,-0.0014581428518444,0.0014581428513283,-0.001611083249906,0.001611083251256,-0.0016110832517877,0.001611083250229,-0.0016110832508668,0.0016110832513976,-0.0016110832527485,0.0016110832503705,-0.0012590208478339,0.0012590208512158,-0.0012590208527733,0.0012590208475361,-0.0013110137713267,0.0013110137705675,-0.0013110137726219,0.0013110137694381,4.1604748121151e-13,4.1564012600887e-13,-0.0006731271121306,0.00067312711265034,-1.8801734443448e-12,2.4704435475682e-12,-0.00078256741932988,0.00078256741812132,-0.00078256741788439,0.00078256741956848,-0.00078256741981575,0.0007825674186069,-0.00078256741836881,0.0007825674200526,-0.0006934419343362,0.00069344193677497,-0.00069344193435456,0.00069344193679412,0.66642562144511,122718,2924,0.0034698231910957,0.0060563627352685,0.0028026446098237,14.858153796718,3.4065230373743e-05,3.4065230373743e-05,3.4065230373743e-05,2763496.1732763,0.012405529571672
23419200,0.99940824253671,0.013566299974881,0.0043028540262309,0.0055020406745865,0.0037614052740637,-0.00083336696955614,0.00083336696841546,-3.2651351788322e-13,-3.2609349225538e-13,-8.5432794866172e-13,1.1901983461399e-13,-0.00095033477406591,0.00095033477255026,-0.00095033477468115,0.00095033477316581,-0.00095033477378187,0.00095033477287093,-0.00095033477438576,0.00095033477347513,-0.00078117291679439,0.00078117291619762,-0.00078117291696334,0.00078117291636743,2.7653778725454e-13,-7.2905278676134e-13,1.7871645798194e-12,-2.2271716673167e-12,-0.0014611352340048,0.0014611352335644,-0.0016143225382108,0.0016143225394283,-0.0016143225401335,0.0016143225386993,-0.0016143225392223,0.0016143225397782,-0.001614322541145,0.0016143225390491,-0.0012618463969192,0.001261846400084,-0.0012618464015345,0.0012618463968199,-0.0013135258019841,0.0013135258012035,-0.0013135258031007,0.0013135258003481,8.015725713317e-15,7.596032652299e-15,-0.0006734023804926,0.00067340237980117,-2.1057009958094e-12,1.86200263548e-12,-0.00078349460497377,0.0007834946029322,-0.00078349460365717,0.00078349460425151,-0.00078349460555988,0.00078349460351801,-0.00078349460424087,0.0007834946048349,-0.00069341958444738,0.00069341958583164,-0.00069341958448784,0.00069341958587291,0.62875729639221,122718,2924,0.0034671825399634,0.0060687440540458,0.0028037968043022,15.707577898754,4.0860623190032e-05,4.0860623190032e-05,4.0860623190032e-05,2723935.4317227,0.012416561271456
24419200,0.99951432894115,0.013567784082124,0.0043032942974105,0.0055026521843065,0.0037618376004068,-0.00083770412483413,0.00083770412264327,-6.7611717964309e-13,-6.7569460678724e-13,-1.0731038828542e-12,-3.907346515599e-13,-0.00095346652885987,0.00095346652661635,-0.00095346652963406,0.00095346652739084,-0.00095346652867077,0.00095346652683933,-0.00095346652943295,0.00095346652760181,-0.00078536794244439,0.00078536794095609,-0.00078536794259932,0.00078536794111188,1.7678086417183e-13,-5.4592843990796e-13,1.5793049886108e-12,-1.9400116163297e-12,-0.0014649892525972,0.0014649892522365,-0.0016191250616024,0.0016191250626351,-0.0016191250635473,0.0016191250622627,-0.0016191250626627,0.0016191250632264,-0.0016191250646076,0.001619125062854,-0.001264947427982,0.0012649474308367,-0.001264947432171,0.001264947428115,-0.0013166015553357,0.0013166015545252,-0.0013166015562335,0.0013166015540068,-4.470212996885e-13,-4.4745109538206e-13,-0.00067782240090114,0.00067782239886185,-2.3225791938587e-12,1.1441860743935e-12,-0.00078672901375421,0.00078672901081813,-0.00078672901260592,0.00078672901197029,-0.00078672901445008,0.00078672901151368,-0.00078672901329832,0.00078672901266237,-0.00069771956391671,0.00069771956410165,-0.00069771956398292,0.00069771956416869,0.66255127740754,122718,2924,0.0034851853882618,0.0060847273808638,0.0028221508325333,17.886371124805,5.8290968998441e-05,5.8290968998441e-05,5.8290968998441e-05,2725129.3153534,0.012469546579409
25419200,0.99961104092238,0.01356937803854,0.004303769134342,0.0055033051417272,0.0037623037624707,-0.00083924433129336,0.0008392443291976,-6.4798854998283e-13,-6.4756516511134e-13,-9.786333809955e-13,-4.2742041318801e-13,-0.00095641060904671,0.00095641060691268,-0.00095641060980533,0.00095641060767158,-0.00095641060889888,0.00095641060709176,-0.00095641060964637,0.00095641060783952,-0.0007872941505876,0.00078729414912279,-0.00078729415074561,0.00078729414928162,1.3684193721981e-13,-4.541116272015e-13,1.4546195035491e-12,-1.7655054179626e-12,-0.0014705454198839,0.0014705454195732,-0.0016242617518498,0.0016242617527927,-0.0016242617536803,0.0016242617524997,-0.0016242617528532,0.0016242617534117,-0.0016242617546837,0.0016242617531187,-0.0012709094685168,0.0012709094711704,-0.0012709094724073,0.0012709094687388,-0.0013221511359639,0.0013221511351733,-0.0013221511367239,0.001322151134778,-4.188653657153e-13,-4.1929652901415e-13,-0.00068065134100576,0.00068065133906845,-2.1481600222447e-12,1.0234094143133e-12,-0.00079098173626757,0.00079098173349908,-0.00079098173521665,0.00079098173455376,-0.00079098173695249,0.0007909817341837,-0.00079098173589824,0.00079098173523509,-0.00070025462882984,0.00070025462898532,-0.00070025462889355,0.00070025462904983,0.77991302017261,122718,2924,0.0034915993037592,0.0061077108598196,0.0028339184548184,19.931081933017,7.4648655464135e-05,7.4648655464135e-05,7.4648655464135e-05,2670465.6063553,0.012511232632661
26419200,0.99969032183964,0.013570768217991,0.0043041834454817,0.005503873136615,0.0037627116358941,-0.00083383017830814,0.00083383017748142,-2.322827917878e-13,-2.3183111193971e-13,-5.9734647757809e-13,5.8399951215695e-14,-0.00095471969612767,0.00095471969493215,-0.00095471969669946,0.00095471969550426,-0.00095471969594358,0.00095471969514659,-0.00095471969650611,0.00095471969570943,-0.00078280636988173,0.00078280636940502,-0.00078280637006064,0.00078280636958485,1.7708323728748e-13,-5.0922106129318e-13,1.4625579080951e-12,-1.7870474069284e-12,-0.0014752949946488,0.0014752949943243,-0.0016280089399177,0.0016280089408997,-0.001628008941541,0.001628008940367,-0.0016280089407807,0.0016280089413057,-0.0016280089424039,0.001628008940773,-0.0012763465165754,0.0012763465192086,-0.0012763465204212,0.0012763465166794,-0.0013268065480154,0.0013268065472907,-0.001326806548791,0.0013268065467265,1.0080971445007e-13,1.0035044906855e-13,-0.00067795513925127,0.00067795513888529,-1.6367442044704e-12,1.5758281646783e-12,-0.00079192640016792,0.00079192639859396,-0.00079192639910047,0.00079192639966385,-0.00079192640072056,0.00079192639914627,-0.00079192639965108,0.00079192640021412,-0.00069713759477453,0.00069713759613463,-0.0006971375948056,0.0006971375961666,0.82922923068302,122718,2924,0.0034691673260205,0.0061273105078721,0.0028227584657107,20.395173348263,7.8361386786105e-05,7.8361386786105e-05,7.8361386786105e-05,2561971.2085265,0.012497082388524
27419200,0.99975947320083,0.013571861498458,0.0043045085629167,0.0055043193551492,0.0037630335803918,-0.00083326686162533,0.00083326685970611,-5.9326215198378e-13,-5.9277965750376e-13,-9.2440844378011e-13,-3.6305617358899e-13,-0.00095510585180926,0.00095510584979702,-0.00095510585254939,0.00095510585053726,-0.00095510585165786,0.00095510584997927,-0.00095510585238728,0.00095510585070901,-0.00078262878809144,0.00078262878675904,-0.00078262878826072,0.00078262878692942,1.4797792055257e-13,-4.5192342934356e-13,1.3885025821992e-12,-1.6857855004101e-12,-0.0014807669475429,0.0014807669472457,-0.0016341432028353,0.0016341432037484,-0.00163414320459,0.0016341432034733,-0.0016341432038156,0.0016341432043372,-0.0016341432055705,0.001634143204062,-0.0012811306958124,0.0012811306983328,-0.0012811306995452,0.0012811306960306,-0.0013310953621316,0.0013310953614112,-0.0013310953628835,0.0013310953609903,-3.6852362420919e-13,-3.6901238868953e-13,-0.00067920939161867,0.00067920938985228,-2.0231788697449e-12,1.0055438704794e-12,-0.00079407837600266,0.00079407837339943,-0.00079407837499852,0.00079407837440718,-0.00079407837667094,0.00079407837406745,-0.0007940783756637,0.00079407837507201,-0.0006979921169952,0.00069799211722435,-0.00069799211705071,0.00069799211728096,0.74718867332314,122718,2924,0.0034668529342048,0.0061499539638616,0.0028279859561048,22.256950459136,9.3255603673086e-05,9.3255603673086e-05,9.3255603673086e-05,2500584.9683127,0.012522961119979
28419200,0.99981630000397,0.013572884698019,0.0043048148252594,0.0055047321608544,0.0037633377119052,-0.00083658426538205,0.00083658426399951,-4.1667410912728e-13,-4.1620294320168e-13,-7.5895117669487e-13,-1.6686528473303e-13,-0.00095551467306611,0.00095551467148227,-0.00095551467371802,0.00095551467213451,-0.00095551467290337,0.00095551467167522,-0.00095551467354558,0.00095551467231776,-0.00078546301070825,0.00078546300978986,-0.00078546301088857,0.00078546300997115,1.4637279311753e-13,-4.795158511199e-13,1.3527737913363e-12,-1.6789280628413e-12,-0.0014817636426037,0.0014817636422777,-0.0016372930213288,0.0016372930222132,-0.001637293022976,0.0016372930218527,-0.0016372930222425,0.0016372930227137,-0.0016372930238898,0.0016372930223532,-0.0012803193743865,0.0012803193768257,-0.0012803193780629,0.0012803193745532,-0.001330438703216,0.0013304387025041,-0.0013304387039747,0.001330438702041,-1.4704256677405e-13,-1.4752121391641e-13,-0.00068184591100713,0.00068184590991319,-1.7816474836571e-12,1.2096397719787e-12,-0.00079395624232047,0.00079395624027425,-0.00079395624132762,0.00079395624127013,-0.00079395624292644,0.00079395624087988,-0.00079395624193106,0.00079395624187324,-0.00070051928712216,0.00070051928784761,-0.00070051928716006,0.00070051928788645,0.8493285419621,122718,2924,0.0034806068254993,0.006154136274193,0.0028389173345534,23.444427180348,0.00010275541744279,0.00010275541744279,0.00010275541744279,2534471.5443136,0.012552176174126
29419200,0.99986247359548,0.013573478829186,0.0043049902469441,0.0055049767113215,0.0037635118709204,-0.00083431634076331,0.00083431633927983,-4.5055388110879e-13,-4.5007754182906e-13,-7.8826786748715e-13,-2.0248175549783e-13,-0.00095642865400379,0.00095642865232577,-0.00095642865467996,0.00095642865300227,-0.00095642865384329,0.00095642865251633,-0.00095642865450969,0.00095642865318306,-0.00078391259021241,0.00078391258921533,-0.00078391259039356,0.00078391258939743,1.5303632484532e-13,-4.6797511544616e-13,1.3392911443984e-12,-1.6475046698632e-12,-0.0014873745608431,0.0014873745605351,-0.0016417663199348,0.0016417663208196,-0.0016417663215876,0.0016417663204952,-0.0016417663208616,0.0016417663213375,-0.0016417663225145,0.0016417663210131,-0.0012869517016336,0.0012869517040486,-0.0012869517052607,0.0012869517018145,-0.0013363660941908,0.0013363660935077,-0.0013363660949405,0.0013363660930446,-1.9967934110967e-13,-2.0016156167228e-13,-0.00068198146802346,0.00068198146677508,-1.8097655070237e-12,1.1360702423633e-12,-0.00079718905259236,0.00079718905042062,-0.00079718905161476,0.00079718905140141,-0.00079718905321378,0.0007971890510417,-0.00079718905223346,0.00079718905201976,-0.00070019575413617,0.00070019575472716,-0.00070019575417698,0.00070019575476891,0.60881578646039,122718,2924,0.0034712298222702,0.0061773113835511,0.0028395105119834,24.783777900226,0.00011347022320181,0.00011347022320181,0.00011347022320181,2441164.9236809,0.012566764238759
30419200,0.99989920183134,0.013573879167386,0.0043051086349498,0.0055051405698188,0.0037636299626169,-0.00084457953128692,0.00084457952976689,-4.5931094630705e-13,-4.5884756303088e-13,-8.0872108824353e-13,-2.1232071963011e-13,-0.0009589927760736,0.00095899277441034,-0.00095899277673899,0.00095899277507603,-0.00095899277590941,0.0009589927746048,-0.00095899277656503,0.00095899277526074,-0.00079275597924246,0.00079275597822491,-0.0007927559794228,0.00079275597840618,1.3204128975865e-13,-4.9834298184633e-13,1.2934236044438e-12,-1.6526825705054e-12,-0.0014844871954277,0.0014844871950686,-0.0016427690168245,0.0016427690176484,-0.001642769018468,0.0016427690173415,-0.0016427690177573,0.0016427690181659,-0.0016427690194008,0.001642769017859,-0.0012808028707467,0.0012808028730677,-0.0012808028743638,0.0012808028709035,-0.0013312629950068,0.0013312629942945,-0.0013312629957922,0.0013312629938493,-2.0583675594605e-13,-2.0630703569697e-13,-0.00068858275757646,0.00068858275630724,-1.8025379337034e-12,1.1024016918703e-12,-0.0007963196679965,0.00079631966587,-0.00079631966703268,0.00079631966683705,-0.00079631966861179,0.00079631966648496,-0.00079631966764534,0.00079631966744938,-0.00070726117935501,0.00070726117991778,-0.00070726117939321,0.00070726117995689,0.51512748248588,122718,2924,0.0035137685662112,0.006165497777964,0.0028668668842146,26.134523742361,0.00012427618993889,0.00012427618993889,0.00012427618993889,2597149.8485697,0.012625540002888
31419200,0.99992893576275,0.013574297517804,0.004305233470703,0.0055053106378584,0.003763753409243,-0.00085372761905605,0.00085372761674197,-7.213384617669e-13,-7.2088450378299e-13,-1.0188878920566e-12,-5.4422428608634e-13,-0.00096639203995038,0.00096639203768693,-0.00096639204074149,0.00096639203847835,-0.00096639203982682,0.00096639203784019,-0.0009663920406072,0.00096639203862089,-0.00080134529758654,0.00080134529593108,-0.00080134529774757,0.00080134529609303,9.4604374607177e-14,-4.2120710300037e-13,1.2143069037576e-12,-1.5357416723814e-12,-0.0014867012353917,0.0014867012350707,-0.0016447320095036,0.0016447320102557,-0.0016447320112257,0.0016447320101642,-0.0016447320105099,0.0016447320109283,-0.001644732012232,0.0016447320108368,-0.0012836482717215,0.0012836482739283,-0.001283648275181,0.0012836482719885,-0.0013344810704286,0.0013344810697099,-0.0013344810711388,0.0013344810694133,-5.4277680089425e-13,-5.4323746329192e-13,-0.00069634772529843,0.00069634772301923,-2.0451496985511e-12,6.5708170831441e-13,-0.0008023601866763,0.00080236018380099,-0.00080236018578159,0.00080236018469986,-0.00080236018737981,0.00080236018450417,-0.00080236018648152,0.00080236018539946,-0.00071512665243759,0.00071512665216589,-0.00071512665250095,0.00071512665223014,0.66479676253864,122718,2924,0.0035517222934406,0.0061746973389222,0.0028990966370354,28.445480072449,0.0001427638405796,0.0001427638405796,0.0001427638405796,2647944.4802963,0.012705923054042
32419200,0.99995065248858,0.013574657518694,0.0043053410078982,0.005505457125873,0.0037638593849232,-0.00084946789816137,0.00084946789703181,-3.2892685408392e-13,-3.2848448334942e-13,-6.6302037018281e-13,-8.0352574695764e-14,-0.00096833566162527,0.00096833566023789,-0.00096833566224201,0.00096833566085493,-0.00096833566146448,0.00096833566042758,-0.0009683356620723,0.0009683356610357,-0.00079838109521997,0.0007983810944933,-0.00079838109540083,0.00079838109467504,1.4402901177726e-13,-4.7100466995417e-13,1.2674953965327e-12,-1.5881006022638e-12,-0.0014927396352479,0.0014927396349275,-0.0016474369718291,0.0016474369726604,-0.0016474369733798,0.0016474369723154,-0.0016474369727099,0.0016474369731329,-0.0016474369742606,0.0016474369727879,-0.001292512023279,0.0012925120255534,-0.0012925120267685,0.0012925120234411,-0.0013424081961289,0.0013424081954697,-0.00134240819686,0.0013424081950014,-4.4651180054746e-14,-4.5102916254515e-14,-0.00069512483949142,0.0006951248387002,-1.5928495454221e-12,1.2266104024346e-12,-0.0008072512589242,0.00080725125716282,-0.00080725125798758,0.00080725125810223,-0.00080725125950745,0.00080725125774576,-0.00080725125856853,0.00080725125868286,-0.0007135378416484,0.00071353784254703,-0.00071353784168286,0.00071353784258236,0.7835582016357,122718,2924,0.0035340950996185,0.0061995864657338,0.0028940716700405,29.298069702856,0.00014958455762285,0.00014958455762285,0.00014958455762285,2510024.6371947,0.012708218214141
33419200,0.99996574479925,0.01357491644315,0.0043054184719359,0.00550556172169,0.003763936249524,-0.00084331328382133,0.00084331328340679,-9.6714387353619e-14,-9.627142033104e-14,-4.7633425897712e-13,2.2100348378939e-13,-0.00096577670086638,0.00096577669997769,-0.00096577670138413,0.00096577670049574,-0.00096577670066771,0.00096577670020593,-0.0009657767011772,0.00096577670071571,-0.00079313995648802,0.00079313995633604,-0.00079313995668183,0.00079313995653075,1.8837056893783e-13,-5.3614765046907e-13,1.332814401082e-12,-1.6725614926298e-12,-0.0014962088856839,0.0014962088853442,-0.0016500390075707,0.0016500390084738,-0.0016500390090501,0.0016500390079529,-0.0016500390083901,0.0016500390088081,-0.0016500390098695,0.0016500390082871,-0.0012964035556171,0.0012964035579809,-0.0012964035592047,0.0012964035556753,-0.0013456311022414,0.0013456311016184,-0.001345631103031,0.0013456311009942,2.4435949086764e-13,2.4391184277828e-13,-0.00069164232910119,0.00069164232918486,-1.3714039869025e-12,1.6031212040565e-12,-0.00080714496410966,0.00080714496295816,-0.00080714496312021,0.00080714496394973,-0.00080714496462038,0.00080714496346858,-0.00080714496362925,0.00080714496445847,-0.0007097781050958,0.00070977810671108,-0.00070977810511169,0.00070977810672776,0.80945760226261,122718,2924,0.0035085895905018,0.0062138860439941,0.0028796454301558,29.317375146517,0.00014973900117214,0.00014973900117214,0.00014973900117214,2413469.0214042,0.012682275069883
34419200,0.99997716907864,0.013575094285985,0.0043054716025169,0.0055056334357106,0.0037639892477578,-0.00084465412452586,0.0008446541223621,-6.7490880479341e-13,-6.7442982267162e-13,-9.9921548016768e-13,-4.56125800964e-13,-0.00096727832492296,0.00096727832272877,-0.00096727832570579,0.00096727832351189,-0.00096727832477759,0.00096727832290459,-0.00096727832554986,0.0009672783236772,-0.00079467320706059,0.00079467320553702,-0.00079467320723556,0.00079467320571293,1.3967902701925e-13,-4.4373962052978e-13,1.2671729946172e-12,-1.5649808967902e-12,-0.0015013673106758,0.0015013673103782,-0.0016560886034124,0.0016560886042383,-0.0016560886051344,0.0016560886040915,-0.0016560886044186,0.0016560886048658,-0.0016560886061406,0.0016560886047188,-0.0013007231272169,0.0013007231295054,-0.0013007231307287,0.0013007231274569,-0.0013495935231984,0.0013495935225424,-0.0013495935239483,0.0013495935221514,-4.9587191027705e-13,-4.9635943950102e-13,-0.00069431252396437,0.0006943125218337,-2.0318381934438e-12,7.5412078427843e-13,-0.00080995163263751,0.00080995162982809,-0.0008099516317145,0.00080995163075516,-0.00080995163333198,0.00080995163052224,-0.00080995163240544,0.00080995163144578,-0.00071209409524648,0.00071209409510996,-0.00071209409530327,0.00071209409516761,0.73398852679868,122718,2924,0.0035141712256814,0.0062352445808646,0.0028907459920421,31.489045063225,0.0001671123605058,0.0001671123605058,0.0001671123605058,2373938.4009317,0.012720797501489
35419200,0.99998612975975,0.013575217734256,0.0043055084260265,0.0055056832372414,0.0037640260709877,-0.00085494260579386,0.00085494260168042,-1.3210259229766e-12,-1.3205318253354e-12,-1.4786944408704e-12,-1.3214969527046e-12,-0.00097482159081007,0.0009748215872061,-0.00097482159188933,0.00097482158828574,-0.00097482159079223,0.00097482158725213,-0.00097482159185891,0.00097482158831916,-0.00080455688485991,0.00080455688173644,-0.00080455688499963,0.00080455688187715,1.139197551238e-14,-2.0178262979682e-13,1.0525769621434e-12,-1.2418548268934e-12,-0.0015082898394293,0.0015082898392406,-0.0016646755239151,0.0016646755245338,-0.0016646755258029,0.0016646755249249,-0.0016646755250661,0.0016646755255634,-0.0016646755269539,0.0016646755259546,-0.0013064151884524,0.00130641519045,-0.0013064151915382,0.0013064151890244,-0.001355329188984,0.0013553291882588,-0.0013553291894761,0.0013553291883356,-1.320370781226e-12,-1.3208721776734e-12,-0.00070422070272682,0.00070422069813459,-2.6000260121665e-12,-3.6664259895263e-13,-0.00081728612652978,0.00081728612195924,-0.00081728612579427,0.00081728612270079,-0.00081728612743097,0.00081728612286006,-0.00081728612668998,0.00081728612359613,-0.00072178696274414,0.00072178696054824,-0.00072178696285578,0.00072178696066087,0.64952121200817,122718,2924,0.0035568660100105,0.0062639605757513,0.0029318823408774,35.94376194424,0.00020275009555392,0.00020275009555392,0.00020275009555392,2395503.8410612,0.012834768862471
36419200,0.99999186285222,0.01357530060194,0.0043055332235921,0.0055057165414518,0.0037640508368963,-0.00086060787031407,0.00086060786859124,-5.3363345337901e-13,-5.3313674342678e-13,-7.422775151079e-13,-4.3126344284491e-13,-0.00097818458179574,0.00097818458003972,-0.00097818458249601,0.00097818458074034,-0.00097818458172268,0.00097818458013851,-0.00097818458241408,0.00097818458083027,-0.00080976337829938,0.00080976337702468,-0.00080976337847988,0.00080976337720617,5.0230112563364e-14,-2.971090411698e-13,1.0723131239231e-12,-1.3164319015561e-12,-0.0015095401391625,0.0015095401389189,-0.0016668716554256,0.0016668716560881,-0.0016668716569239,0.0016668716560017,-0.0016668716562922,0.001666871656725,-0.0016668716577905,0.0016668716566386,-0.0013070454092025,0.0013070454111851,-0.0013070454122766,0.0013070454095726,-0.0013562102624232,0.001356210261735,-0.0013562102629312,0.001356210261571,-3.1608765256272e-13,-3.1659003427412e-13,-0.00070881486425374,0.00070881486268668,-1.6393632715185e-12,7.1138355862133e-13,-0.00081971703032329,0.00081971702811388,-0.00081971702954319,0.00081971702889741,-0.00081971703096114,0.00081971702875136,-0.00081971703017826,0.0008197170295321,-0.00072640734797811,0.00072640734811494,-0.00072640734802183,0.0007264073481596,0.6811981079479,122718,2924,0.0035803623850024,0.0062691797892411,0.0029509434912846,37.485516756206,0.00021508413404965,0.00021508413404965,0.00021508413404965,2436870.2644762,0.01288315016342
37419200,0.99999524784768,0.013575347606186,0.0043055472592877,0.0055057355180236,0.0037640648288744,-0.00085948607598538,0.00085948607540934,-1.5002425142092e-13,-1.4953535585543e-13,-4.7012681993365e-13,9.5628519790833e-14,-0.00097874200860894,0.00097874200767224,-0.00097874200913883,0.00097874200820245,-0.00097874200845203,0.00097874200785658,-0.0009787420089742,0.00097874200837909,-0.0008089522383284,0.00080895223800828,-0.00080895223852833,0.00080895223820921,1.3334151474355e-13,-4.5948955114491e-13,1.1871752032007e-12,-1.5071739568702e-12,-0.0015110911985986,0.0015110911982789,-0.0016674515029493,0.0016674515037269,-0.0016674515043504,0.0016674515033317,-0.0016674515037432,0.0016674515041219,-0.0016674515051444,0.0016674515037267,-0.0013094827986247,0.0013094828007465,-0.001309482801938,0.0013094827987774,-0.0013584002439269,0.0013584002432979,-0.0013584002446128,0.0013584002428304,1.6977750459025e-13,1.6928135798248e-13,-0.00070851806070043,0.00070851806057495,-1.2990803728099e-12,1.366721667628e-12,-0.00082104642944256,0.00082104642826472,-0.00082104642855551,0.00082104642915398,-0.00082104642996195,0.00082104642878376,-0.00082104642907325,0.00082104642967138,-0.00072599543042616,0.00072599543177009,-0.0007259954304391,0.000725995431784,0.65495763090949,122718,2924,0.0035757208062077,0.0062755704706956,0.0029497234801584,37.681073039715,0.00021664858431772,0.00021664858431772,0.00021664858431772,2400146.3415885,0.012883694901543
38419200,0.99999719333221,0.013575377707733,0.0043055562880504,0.0055057475807314,0.0037640738389515,-0.00085861731006045,0.00085861731007442,4.9587007209791e-14,5.0078651255201e-14,-3.9005315767319e-13,4.3064378530444e-13,-0.00097750888756947,0.00097750888702629,-0.00097750888801045,0.0009775088874676,-0.00097750888732995,0.00097750888729607,-0.00097750888776338,0.00097750888772984,-0.00080805192351352,0.00080805192372872,-0.00080805192372362,0.00080805192393979,2.128023519754e-13,-6.304252703525e-13,1.3311621574392e-12,-1.7390578729757e-12,-0.0015099984898214,0.0015099984894135,-0.0016666533709734,0.0016666533718735,-0.0016666533723953,0.0016666533712474,-0.0016666533717699,0.0016666533721033,-0.0016666533731918,0.0016666533714772,-0.0013080852927839,0.0013080852951026,-0.001308085296438,0.0013080852927377,-0.0013570472530379,0.0013570472524394,-0.0013570472539418,0.0013570472516969,4.2528352258619e-13,4.2478490546566e-13,-0.00070749445771117,0.00070749445833573,-1.2253428019126e-12,1.8177879264663e-12,-0.00081967447869568,0.0008196744779979,-0.0008196744776824,0.00081967447901275,-0.00081967447915316,0.00081967447845502,-0.00081967447813878,0.00081967447946881,-0.00072501962404276,0.0007250196260897,-0.00072501962403909,0.00072501962608702,0.72891346290552,122718,2924,0.003572111611625,0.0062710525145951,0.0029454698916015,37.194402189165,0.00021275521751332,0.00021275521751332,0.00021275521751332,2407988.5828982,0.012871152603755
38880000,0.999997872764,0.013575388456455,0.0043055595114585,0.0055057518904304,0.0037640770545656,-0.00085564906606387,0.00085564906570981,-7.263118925526e-14,-7.2134422233311e-14,-5.4429621587423e-13,3.390825236146e-13,-0.00097695928816596,0.00097695928728904,-0.00097695928867575,0.00097695928779917,-0.00097695928790772,0.00097695928757939,-0.00097695928840891,0.00097695928808093,-0.00080557875365076,0.00080557875361042,-0.00080557875385429,0.00080557875381496,2.4368705552773e-13,-6.6569913393665e-13,1.4074257688147e-12,-1.8187718495332e-12,-0.0015119094596002,0.0015119094591887,-0.0016675193872075,0.0016675193881723,-0.0016675193887485,0.0016675193875682,-0.0016675193880771,0.001667519388436,-0.0016675193896182,0.001667519387832,-0.0013108255493943,0.0013108255518423,-0.0013108255532041,0.001310825549325,-0.0013594198024115,0.0013594198018242,-0.0013594198033881,0.0013594198010219,2.6560537123235e-13,2.6510303363724e-13,-0.00070594523056161,0.00070594523070303,-1.4583428015696e-12,1.7357686958843e-12,-0.00082040994449081,0.00082040994333711,-0.00082040994342857,0.00082040994440141,-0.00082040994499399,0.00082040994383993,-0.00082040994393011,0.00082040994490261,-0.00072330929757471,0.00072330929930864,-0.00072330929758254,0.00072330929931745,0.74537476942469,122718,2924,0.0035598150119097,0.0062789203091402,0.0029390564904457,37.193613676958,0.00021274890941566,0.00021274890941566,0.00021274890941566,2352394.9865225,0.01286018230712
