time,ASR_ext,ASR_strain,ASR_strain_xx,ASR_strain_yy,ASR_strain_zz,disp_x_101,disp_x_102,disp_x_103,disp_x_104,disp_x_105,disp_x_106,disp_x_p1_neg,disp_x_p1_pos,disp_x_p2_neg,disp_x_p2_pos,disp_x_p3_neg,disp_x_p3_pos,disp_x_p4_neg,disp_x_p4_pos,disp_x_p5_neg,disp_x_p5_pos,disp_x_p6_neg,disp_x_p6_pos,disp_y_101,disp_y_102,disp_y_103,disp_y_104,disp_y_105,disp_y_106,disp_y_p1_neg,disp_y_p1_pos,disp_y_p2_neg,disp_y_p2_pos,disp_y_p3_neg,disp_y_p3_pos,disp_y_p4_neg,disp_y_p4_pos,disp_y_p5_neg,disp_y_p5_pos,disp_y_p6_neg,disp_y_p6_pos,disp_y_p7_neg,disp_y_p7_pos,disp_y_p8_neg,disp_y_p8_pos,disp_z_101,disp_z_102,disp_z_103,disp_z_104,disp_z_105,disp_z_106,disp_z_p1_neg,disp_z_p1_pos,disp_z_p2_neg,disp_z_p2_pos,disp_z_p3_neg,disp_z_p3_pos,disp_z_p4_neg,disp_z_p4_pos,disp_z_p5_neg,disp_z_p5_pos,disp_z_p6_neg,disp_z_p6_pos,humidity,ndof,nelem,strain_xx,strain_yy,strain_zz,temp,thermal_strain_xx,thermal_strain_yy,thermal_strain_zz,vonmises,vstrain
2419200,0,0,0,0,0,0,0,0,0,0,0,0,0,0,0,0,0,0,0,0,0,0,0,0,0,0,0,0,0,0,0,0,0,0,0,0,0,0,0,0,0,0,0,0,0,0,0,0,0,0,0,0,0,0,0,0,0,0,0,0,0,0,0,0,0,0,0,0,0,0,0,0,0,0,0
2919200,0.07643491153712,0.0015601530058995,0.0005200510019665,0.0005200510019665,0.0005200510019665,-0.00016347270194473,0.00016346336355177,-3.2601285852066e-09,-3.2601284294552e-09,-2.710757464845e-09,-3.800264972374e-09,-0.00016371992784715,0.00016371297889133,-0.00016372163714497,0.00016371468818911,-0.00016372030618182,0.00016371262071321,-0.00016372198229867,0.0001637142968304,-0.00016449323445837,0.00016448594977484,-0.00016449431834406,0.00016448703366064,-3.2938164852115e-10,6.8960728058124e-10,-1.4217636954112e-09,1.7671605071581e-09,-0.00017026343663325,0.00017026378345261,-0.00016955253610305,0.00016955135769391,-0.00016955302774704,0.00016955415190232,-0.00016955304407474,0.00016955260615265,-0.00016955353571884,0.00016955540036067,-0.0001694987805985,0.00016949638735917,-0.0001694967508328,0.00016950053636676,-0.00017088849783659,0.00017088895632943,-0.00017088836970235,0.00017089081069203,-8.5582471418027e-09,-8.5582472435394e-09,-0.0001575587912125,0.0001575369081256,-6.7854761271268e-09,-1.0139145618722e-08,-0.00015834813750952,0.00015833059129981,-0.00015834928988031,0.00015832945327482,-0.00015834897379915,0.00015833142758921,-0.00015835011263433,0.00015833027602865,-0.00016127661646478,0.00016125761034009,-0.00016127591650702,0.00016125691038257,0.81617709124945,122718,2924,0.00068088416189119,0.00070917907951208,0.00065623417162204,32.411138174518,0.00017448910539614,0.00017448910539614,0.00017448910539614,1097477.6224589,0.0020483939941808
3419200,0.15578362547636,0.0031036390729561,0.0010379666930775,0.0010622403236787,0.0010034320561999,-0.00028237364888878,0.00028236419416134,-3.444350071726e-09,-3.4444107877078e-09,-2.9719746753971e-09,-3.8428537675729e-09,-0.00028754294754605,0.00028753534129815,-0.00028754541907786,0.00028753781258989,-0.00028754323209921,0.00028753505908078,-0.00028754568819294,0.00028753751492318,-0.0002810997363043,0.00028109221233915,-0.00028110185965462,0.00028109433555844,-3.5571483503832e-10,4.5557847969899e-10,-9.8693822794989e-10,1.0723079680218e-09,-0.00030380500076894,0.00030380508953739,-0.00030516179766073,0.00030516090338937,-0.00030516344056996,0.00030516394964097,-0.00030516281707165,0.00030516248029637,-0.0003051644600159,0.00030516552656634,-0.00029753301458195,0.00029753138073666,-0.00029753324217124,0.00029753561156067,-0.00030267348102386,0.00030267350077192,-0.00030267471660025,0.00030267632382445,-7.7083405407359e-09,-7.7084015823991e-09,-0.00026236996387429,0.00026235093384885,-6.4621749152789e-09,-8.6661963084233e-09,-0.00026838614656422,0.00026837006438765,-0.00026838689267119,0.00026836933378534,-0.00026838741333266,0.00026837133105042,-0.00026838814904083,0.00026837059005542,-0.00027021758796127,0.0002702008699271,-0.00027021630886731,0.0002701995910771,0.7877653870208,122718,2924,0.001175843829518,0.0012650486323275,0.0010925796547174,31.910917492222,0.00017048733993777,0.00017048733993777,0.00017048733993777,1837870.7856132,0.0035397262198636
3919200,0.24287787120889,0.0047455257144634,0.0015755524785912,0.001691533966722,0.0014784392691502,-0.00040704774441153,0.00040704042434943,-2.7731286591236e-09,-2.773194992633e-09,-2.779032494748e-09,-2.3723546379001e-09,-0.00042006644105222,0.00042005992189656,-0.00042006801523297,0.00042006149595174,-0.00042006631145281,0.0004200600664821,-0.00042006787557951,0.00042006163048962,-0.00040057558252575,0.00040056968211402,-0.00040057676298696,0.00040057086240368,5.8553496583813e-11,-3.8789587757661e-10,2.0188931976986e-09,-2.342492966242e-09,-0.00046067225572333,0.00046067193294708,-0.00046987631102589,0.00046987756350912,-0.00046987909034773,0.00046987747364809,-0.0004698773151786,0.00046987829235231,-0.00046988009380859,0.00046987820179337,-0.00044088725638777,0.00044089109449361,-0.00044089215383156,0.00044088739439867,-0.00045238440448684,0.00045238309846751,-0.00045238564894908,0.00045238344428975,-3.6333340393809e-09,-3.6334007167354e-09,-0.00036679653784075,0.000366787041439,-5.4917944063477e-09,-1.2423681275855e-09,-0.00037981955717192,0.00037981003545715,-0.00037981815048368,0.00037981145019992,-0.00037982053932751,0.00037981101754486,-0.00037981912719025,0.00037981242685299,-0.00037962513604604,0.00037961876086564,-0.00037962429617145,0.0003796179212464,0.77553102828843,122718,2924,0.0016945779236713,0.0019176093831486,0.0015271702237459,32.496473031616,0.00017517178425293,0.00017517178425293,0.00017517178425293,2605965.6412498,0.0051525965556812
4419200,0.33817700629835,0.0065190911891127,0.0021460810005806,0.0024082328344323,0.0019647773540998,-0.00053920881195117,0.0005392044598589,-1.4024190771793e-09,-1.4024806402543e-09,-2.321114971927e-09,-5.0092834912984e-10,-0.00056210090136378,0.00056209681007867,-0.00056210187470779,0.00056209778324691,-0.00056210030223647,0.00056209742905526,-0.00056210127305415,0.00056209839969739,-0.0005262061824715,0.0005262036585045,-0.00052620696307369,0.00052620443896377,3.7841127185422e-10,-1.4431842662995e-09,2.8398686910785e-09,-3.8738173862438e-09,-0.00064052346209346,0.00064052242553673,-0.0006625556953275,0.00066255749107987,-0.00066255864932449,0.00066255599944937,-0.00066255700888155,0.00066255760655686,-0.00066255996232791,0.00066255611438479,-0.00060100632680618,0.00060101129325611,-0.00060101355411265,0.00060100532441974,-0.00062071487951113,0.00062071340144926,-0.00062071768962679,0.00062071261835349,-1.5219331328073e-09,-1.5219950679419e-09,-0.0004736870355124,0.00047368246693218,-4.6789031915869e-09,1.949941811078e-09,-0.00049435901229201,0.0004943535038343,-0.00049435681111899,0.00049435570777407,-0.00049435973205894,0.00049435422352579,-0.00049435753155018,0.00049435642813972,-0.0004933335750904,0.0004933324310377,-0.00049333342995292,0.00049333228613404,0.7766759900973,122718,2924,0.0022441752451501,0.00266524367764,0.0019718526339591,33.59828909879,0.00018398631279032,0.00018398631279032,0.00018398631279032,3289925.4173885,0.0069050243451253
4919200,0.44162136655482,0.0084290380807587,0.0027502649404927,0.0032173845950918,0.0024613885451742,-0.00067849140646111,0.00067848855947094,-7.5055407162875e-10,-7.5062397128637e-10,-1.7988991408128e-09,2.473813602869e-10,-0.00071327552552157,0.00071327280213587,-0.0007132761775072,0.00071327345397528,-0.00071327484069428,0.00071327349886927,-0.00071327549384441,0.00071327415187703,-0.00065783579690729,0.00065783461324401,-0.00065783653961428,0.00065783535577375,3.6240582439789e-10,-1.6568002159201e-09,2.8312556952878e-09,-4.086589909307e-09,-0.00084543980819174,0.00084543854950686,-0.0008855397719945,0.00088554148483965,-0.00088554237863511,0.00088553951139756,-0.00088554096171471,0.00088554134387425,-0.00088554356770474,0.00088553936978904,-0.00077976962603457,0.00077977450587562,-0.00077977682040492,0.00077976810039571,-0.00080900867442807,0.00080900708357202,-0.00080901139469456,0.00080900582864348,-9.0179487679748e-10,-9.0186485076231e-10,-0.0005821783862854,0.00058217550736388,-4.1524627536721e-09,2.7015097571711e-09,-0.00061265095961363,0.00061264704927613,-0.00061264868362696,0.00061264932569779,-0.00061265150599546,0.00061264759559581,-0.00061264923323231,0.00061264987525383,-0.00060870039743862,0.00060870065405282,-0.00060870038776949,0.00060870064464419,0.77771912370773,122718,2924,0.0028230726231334,0.0035163737523766,0.0024230580352206,35.342979327472,0.00019794383461977,0.00019794383461977,0.00019794383461977,3838853.1002838,0.0088010539285088
5419200,0.54244373784706,0.010257113326812,0.0033141652400446,0.0040286208554186,0.0029143272313488,-0.00080425827449098,0.00080425761822264,2.3060386830938e-10,2.3054659164813e-10,-1.18851671277e-09,1.3788619959772e-09,-0.00085243871312715,0.00085243791153666,-0.00085243908940661,0.00085243828764504,-0.00085243785495462,0.00085243878362536,-0.00085243823526685,0.00085243916376616,-0.00077476557474014,0.00077476661897142,-0.00077476615917651,0.00077476720324075,5.1828360299758e-10,-1.9964978742133e-09,3.0825837152423e-09,-4.5123002377369e-09,-0.001050563547232,0.0010505621135731,-0.0011119878452232,0.0011119897817585,-0.0011119904331536,0.0011119873359225,-0.0011119891122099,0.0011119893829632,-0.0011119916995844,0.0011119869365835,-0.00095444590389169,0.00095445110529033,-0.00095445372868047,0.00095444400577432,-0.00099396131276897,0.00099395979572727,-0.00099396470621299,0.00099395824353344,1.1519007613162e-10,1.1513276203142e-10,-0.0006768821085929,0.00067688179113153,-3.546241412112e-09,4.001771685019e-09,-0.00071933534585029,0.00071933359394081,-0.00071933283620114,0.00071933609968548,-0.00071933574060543,0.00071933398864424,-0.00071933323754633,0.00071933650098782,-0.00070848826136363,0.00070849090780872,-0.00070848850326549,0.00070849114993478,0.76998245751359,122718,2924,0.0033455385613006,0.0043676172568301,0.0028168587379692,36.272586249645,0.00020538068999716,0.00020538068999716,0.00020538068999716,4224278.0384012,0.010585733491437
5919200,0.63378123837274,0.011798563938365,0.0037734775213494,0.0047448494770209,0.0032802369399948,-0.00090213331838755,0.00090213458425005,1.0131895728459e-09,1.0131249956482e-09,-6.8569570089717e-10,2.4971517838742e-09,-0.00096540491307238,0.0009654056843313,-0.00096540504332521,0.00096540581442622,-0.00096540385070295,0.00096540676400709,-0.00096540398745133,0.00096540690059927,-0.00086129217731426,0.00086129500898648,-0.00086129271573188,0.0008612955472563,6.4340897717975e-10,-2.4575489802715e-09,3.3595452327875e-09,-5.1127040101079e-09,-0.0012326891487819,0.0012326873901865,-0.0013196715063397,0.0013196736158328,-0.0013196740729633,0.0013196705561704,-0.0013196727496629,0.0013196727987767,-0.0013196753156931,0.0013196697385318,-0.0011021703442215,0.0011021758857695,-0.0011021788366175,0.0011021677328461,-0.001150899917838,0.0011508983448913,-0.0011509036575185,0.001150895989865,1.0399849970252e-09,1.0399204337209e-09,-0.00074856591261322,0.00074856793825356,-3.0620913893276e-09,5.383218103742e-09,-0.00080453509105157,0.00080453526966045,-0.00080453227993269,0.00080453807443137,-0.00080453536119533,0.00080453553976034,-0.00080453255944854,0.00080453835391517,-0.00078089081876171,0.00078089568850836,-0.00078089107572823,0.00078089594572564,0.72322607176164,122718,2924,0.0037519898182627,0.0051227994592599,0.003114953711954,36.778891840396,0.00020943113472317,0.00020943113472317,0.00020943113472317,4476068.0757476,0.012062039179113
6419200,0.71106804880311,0.013065397470247,0.0041402428582391,0.0053477054170792,0.0035774491949286,-0.00097542089047526,0.00097542411705633,1.8206063048668e-09,1.8205432016276e-09,-2.1131315589762e-10,3.603277489699e-09,-0.0010521877387152,0.0010521901582715,-0.001052187638253,0.0010521900576498,-0.0010521864646996,0.0010521914515886,-0.0010521863742086,0.0010521913609394,-0.00092500692078018,0.00092501164305285,-0.00092500744336572,0.00092501216547509,7.5883810925194e-10,-2.9397867504151e-09,3.5692683957123e-09,-5.6781937507256e-09,-0.0013852262466659,0.0013852241314684,-0.0014986361222472,0.0014986383492128,-0.0014986386720673,0.001498634741361,-0.0014986373554309,0.0014986371136592,-0.0014986399046748,0.0014986335052421,-0.0012217909362335,0.0012217966797798,-0.0012218001469615,0.0012217877270771,-0.0012779545601955,0.0012779529450645,-0.0012779588319461,0.0012779499516981,1.9557421856816e-09,1.9556785674872e-09,-0.00080206244892568,0.00080206678061557,-2.559662695444e-09,6.6851596043564e-09,-0.00086932959346627,0.0008693317109552,-0.00086932651226199,0.00086933478307583,-0.00086932972595068,0.00086933184339191,-0.00086932665752002,0.0008693349282968,-0.00083454915506091,0.0008345562246337,-0.00083454944765357,0.00083455651746632,0.7096075230877,122718,2924,0.004056270845276,0.0057548517133311,0.0033374558548255,36.741524634173,0.00020913219707338,0.00020913219707338,0.00020913219707338,4651593.5548159,0.013235584970892
6919200,0.78063425519634,0.014241766417553,0.0044772812193609,0.0059062805821885,0.0038582046160035,-0.0010426272316952,0.0010426298505735,1.6668327465655e-09,1.6667691585491e-09,-5.0748491396916e-10,3.5687184229842e-09,-0.001131910704248,0.0011319126996212,-0.0011319107520202,0.0011319127472333,-0.0011319093436896,0.0011319140827292,-0.0011319093984101,0.0011319141372911,-0.00098641209672715,0.00098641655520631,-0.00098641274846772,0.00098641720678616,7.8412528786364e-10,-3.165115307547e-09,3.3842531322134e-09,-5.688184462928e-09,-0.001534174129992,0.0015341718196303,-0.0016712550940827,0.0016712571369095,-0.0016712576676905,0.001671253692937,-0.001671256415294,0.0016712558324742,-0.0016712589883305,0.0016712523879408,-0.0013418260455532,0.0013418313461008,-0.0013418351913984,0.0013418226598275,-0.0014041131083226,0.0014041116016472,-0.0014041177002658,0.0014041084332396,1.0319405417263e-09,1.0318761927422e-09,-0.00085308883451774,0.00085309081662526,-3.385120822706e-09,5.6705388024403e-09,-0.00093143948583481,0.0009314397481756,-0.00093143647200994,0.0009314427546534,-0.00093143968646204,0.00093143994875673,-0.00093143668455477,0.00093144296716302,-0.00088680729770216,0.00088681238318441,-0.00088680751516366,0.00088681260088872,0.73388447357598,122718,2924,0.0043352616526894,0.0063716203188009,0.0035496911487892,38.62371092619,0.00022418968740952,0.00022418968740952,0.00022418968740952,4656200.7798258,0.014358924079212
7419200,0.84055509039798,0.015188719874747,0.0047428805386957,0.0063637090538869,0.0040821302821646,-0.0010896489195579,0.0010896513455916,1.6085827019173e-09,1.6085187917826e-09,-6.1756437448485e-10,3.5408181067903e-09,-0.0011930453718143,0.0011930472043482,-0.0011930454736462,0.0011930473060197,-0.0011930439833045,0.0011930486155917,-0.0011930440907744,0.0011930487229025,-0.0010268024509263,0.0010268068116307,-0.001026803125921,0.001026807486464,7.8721044332014e-10,-3.2409735451888e-09,3.1735099823896e-09,-5.5484437336761e-09,-0.0016624330641597,0.0016624306829557,-0.0018215487838881,0.0018215506625293,-0.0018215513526386,0.0018215474508669,-0.0018215501837621,0.0018215493891486,-0.0018215527519425,0.0018215461769268,-0.0014430459690117,0.0014430508311895,-0.0014430548830505,0.0014430425973664,-0.0015092682740278,0.0015092668895199,-0.0015092730134363,0.0015092637127243,6.7710487671962e-10,6.7704064582522e-10,-0.00088875012057642,0.00088875127969137,-3.5767370260214e-09,5.1235158457246e-09,-0.00098094834660989,0.00098094799067193,-0.00098094545307546,0.00098095087871148,-0.00098094858314119,0.00098094822715794,-0.00098094570019517,0.0009809511257968,-0.00092048469276248,0.00092048893716135,-0.00092048487988886,0.00092048912453058,0.68603447726477,122718,2924,0.0045304941213968,0.0069023707506428,0.0036981282571804,40.762308115508,0.00024129846492406,0.00024129846492406,0.00024129846492406,4515786.6574484,0.015246368456316
7919200,0.88555307090608,0.015879028198861,0.004933363767711,0.0066979123536645,0.0042477520774856,-0.0011152084256354,0.0011152135407449,2.6176510865543e-09,2.6175872904103e-09,8.7296044884501e-11,4.8552692776211e-09,-0.0012283344338587,0.0012283383909535,-0.0012283342114324,0.001228338168367,-0.0012283328412684,0.0012283400069869,-0.0012283326297552,0.0012283397953149,-0.0010473030473939,0.0010473097458685,-0.0010473036730883,0.0010473103714022,9.4283569925187e-10,-3.6642237500679e-09,3.4215609060747e-09,-6.0549436799798e-09,-0.0017520998605378,0.0017520972204665,-0.0019314490331494,0.0019314511271811,-0.001931451567686,0.0019314473429646,-0.001931450422093,0.001931449439158,-0.0019314529560621,0.0019314456543849,-0.0015094603210672,0.0015094654632787,-0.0015094698920796,0.0015094564181465,-0.0015782713976612,0.0015782700567117,-0.0015782766065603,0.0015782662162756,2.2558863497132e-09,2.2558217290071e-09,-0.00090795681433362,0.00090796205115043,-2.4009394620946e-09,7.0883040614789e-09,-0.0010090730710632,0.0010090760453005,-0.0010090699079277,0.0010090791998216,-0.001009073117411,0.0010090760916036,-0.001009069968196,0.001009079260056,-0.00093771380069441,0.0009377216452509,-0.00093771401116524,0.00093772185596529,0.66517730241722,122718,2924,0.0046366713190852,0.0072732716848894,0.0037781833776986,40.956006739268,0.00024284805391415,0.00024284805391415,0.00024284805391415,4429752.5292803,0.015812210334634
8419200,0.91904949070374,0.016384934040477,0.0050726691402128,0.0069403964637882,0.0043718684364761,-0.001129729390663,0.0011297347337455,2.7297791916618e-09,2.7297160848005e-09,3.2647815916561e-11,5.1419188007337e-09,-0.0012513339756588,0.0012513380890972,-0.0012513337611029,0.0012513378743813,-0.001251332272239,0.0012513398200744,-0.0012513320674855,0.0012513396151623,-0.0010585625739433,0.0010585696111924,-0.0010585632307082,0.0010585702677979,1.0265701256932e-09,-3.9135631148626e-09,3.5414249254289e-09,-6.3349970658352e-09,-0.0018214185052248,0.0018214157047357,-0.0020161726313781,0.0020161748063328,-0.0020161752816506,0.0020161708782306,-0.002016174097474,0.0020161729765088,-0.0020161767471804,0.0020161690478514,-0.0015613222031714,0.0015613274688436,-0.0015613321728688,0.0015613180342742,-0.001631301775117,0.0016313004652952,-0.0016313073094592,0.0016312962937228,2.2068504870633e-09,2.2067850838858e-09,-0.00091962429861983,0.00091962940337023,-2.6421125925092e-09,7.2453490482383e-09,-0.0010290396774727,0.0010290424559426,-0.001029036382907,0.0010290457424235,-0.0010290397229305,0.0010290425013556,-0.0010290364420643,0.0010290458015468,-0.00094722879503455,0.00094723666830581,-0.00094722897156893,0.00094723684508539,0.65392244200768,122718,2924,0.0046970542429171,0.0075598835420866,0.0038268909178322,41.432193303952,0.00024665754643162,0.00024665754643162,0.00024665754643162,4275116.7529891,0.016214303307461
8919200,0.94346582798368,0.016739511791618,0.0051698327036581,0.0071093797274464,0.0044602993605134,-0.0011358072018774,0.0011358129575216,2.8998181101079e-09,2.8997549570779e-09,6.6646724565519e-11,5.4580270731371e-09,-0.0012645822021969,0.0012645866186723,-0.0012645819614492,0.0012645863777645,-0.0012645804066983,0.0012645884444122,-0.0012645801754511,0.0012645882130063,-0.0010623457261363,0.0010623532104047,-0.001062346392064,0.0010623538761728,1.10001131588e-09,-4.1147767970992e-09,3.6488726805031e-09,-6.5659874152974e-09,-0.0018724699684843,0.0018724670442794,-0.0020790379040241,0.0020790401603759,-0.0020790406300451,0.0020790360836103,-0.0020790394194878,0.0020790381972381,-0.0020790421449433,0.0020790341199178,-0.0015992192452122,0.0015992246284779,-0.0015992295393872,0.0015992148533679,-0.0016694549950378,0.001669453715771,-0.0016694607811201,0.0016694492552993,2.328671818145e-09,2.3286064431376e-09,-0.00092528618643974,0.0009252916018021,-2.6873455880252e-09,7.5404691837983e-09,-0.0010419601268661,0.001041963091151,-0.0010419567191563,0.0010419664910049,-0.0010419601548017,0.001041963119042,-0.0010419567608036,0.0010419665326186,-0.00095050301212391,0.00095051125547901,-0.00095050316701912,0.00095051141061947,0.62734198662254,122718,2924,0.0047224076427072,0.007770894437488,0.0038506204087384,41.891216968531,0.00025032973574825,0.00025032973574825,0.00025032973574825,4105288.6411713,0.01647869755473
9419200,0.96017753791437,0.016978440274923,0.0052353988420834,0.0072218985376473,0.0045211428951927,-0.0011353075931722,0.0011353156629369,3.7783760419959e-09,3.7783129364478e-09,6.5117817594636e-10,6.6576099189399e-09,-0.001268451808067,0.0012684580699967,-0.0012684513101587,0.0012684575719283,-0.0012684498084566,0.0012684601027016,-0.0012684493237928,0.0012684596178791,-0.0010604303603432,0.0010604399050473,-0.0010604310172131,0.0010604405617577,1.2609229093177e-09,-4.5409447735483e-09,3.9858021557154e-09,-7.1592294373962e-09,-0.0019043862015637,0.0019043830205227,-0.002120341889718,0.0021203444174726,-0.0021203446452603,0.00212033972623,-0.0021203433861034,0.0021203420285052,-0.0021203461410809,0.0021203373367089,-0.0016211155216441,0.0016211213588996,-0.0016211266264664,0.0016211105779033,-0.0016913462178876,0.0016913449367472,-0.0016913524652284,0.0016913397870208,3.5881043866093e-09,3.5880389233472e-09,-0.00092527356430369,0.00092528219642408,-1.9027460646491e-09,9.2833981190093e-09,-0.0010462823264058,0.0010462878574249,-0.0010462785939637,0.0010462915791518,-0.0010462821925395,0.0010462877235142,-0.0010462784768529,0.0010462914620075,-0.00094877654200724,0.00094878775836165,-0.0009487766778776,0.00094878789447747,0.61542000505385,122718,2924,0.0047204529181462,0.0079028004476456,0.0038507358132154,41.151418973167,0.00024441135178533,0.00024441135178533,0.00024441135178533,3987938.5237583,0.016610945484264
9919200,0.97141777007471,0.017138713981134,0.0052796070353917,0.0072963957711395,0.0045627111746033,-0.0011316373096989,0.0011316467737754,4.3166863508642e-09,4.3166231264496e-09,8.9653192888115e-10,7.5169812379125e-09,-0.0012683369491703,0.0012683442598215,-0.0012683363114506,0.0012683436219415,-0.0012683347494151,0.0012683464987926,-0.0012683341256657,0.0012683458748843,-0.0010559743742006,0.0010559852558815,-0.0010559750381311,0.0010559859196523,1.4340943388141e-09,-4.9648944132955e-09,4.3903020002875e-09,-7.805691231138e-09,-0.001925803233866,0.0019257998102486,-0.0021478903839748,0.0021478932258841,-0.0021478933161009,0.0021478880056135,-0.0021478919410041,0.002147890495047,-0.0021478948725656,0.0021478852742229,-0.0016360175938823,0.0016360240192848,-0.0016360296638366,0.0016360121439907,-0.0017059565075668,0.001705955213523,-0.001705963267172,0.0017059494018305,4.3137625358539e-09,4.3136972100407e-09,-0.00092260638398205,0.00092261684537048,-1.6983131326996e-09,1.0550043332485e-08,-0.0010473444404323,0.0010473512754774,-0.0010473403524042,0.0010473553514019,-0.0010473442156042,0.0010473510506052,-0.0010473401458138,0.0010473551447783,-0.00094465304058133,0.00094466613407204,-0.00094465314872862,0.00094466624246464,0.61191532489325,122718,2924,0.0047053279577138,0.0079912870913163,0.0038397924531982,39.828563958026,0.00023382851166421,0.00023382851166421,0.00023382851166421,3878106.9140133,0.016674427438621
10419200,0.97897067313894,0.017248278895586,0.005310033708969,0.0073466339054557,0.0045916112811609,-0.001126404701842,0.0011264151620046,4.6990711692117e-09,4.6990078688299e-09,1.1303381639781e-09,8.0701546123162e-09,-0.0012659584291938,0.0012659665229242,-0.0012659576932131,0.001265965786786,-0.0012659561241623,0.0012659688693345,-0.001265955402995,0.0012659681480059,-0.0010504077757395,0.0010504195698006,-0.0010504084487582,0.0010504202426577,1.5269594987296e-09,-5.1796760000419e-09,4.6159762340946e-09,-8.1490967621583e-09,-0.0019398613892052,0.0019398578475912,-0.0021658688996196,0.0021658719224007,-0.0021658718989722,0.0021658663843575,-0.0021658704589096,0.0021658689836438,-0.0021658734576965,0.0021658634450471,-0.0016459081696351,0.0016459149310346,-0.0016459207528185,0.0016459024550472,-0.0017154615119833,0.0017154602083227,-0.0017154685182918,0.0017154540395891,4.8183623917298e-09,4.8182972110712e-09,-0.00091849401957139,0.00091850575721442,-1.4771135339014e-09,1.1350150332635e-08,-0.0010463198991577,0.001046327692505,-0.0010463156166678,0.0010463319619941,-0.0010463196099144,0.0010463274032178,-0.0010463153466597,0.0010463316919523,-0.00093944469892952,0.00093945904534191,-0.00093944478130804,0.00093945912795987,0.62047456210157,122718,2924,0.0046837047517048,0.0080493501582585,0.0038228200422254,38.100556685659,0.00022000445348527,0.00022000445348527,0.00022000445348527,3784405.8981183,0.016694239483468
10919200,0.98450874253685,0.017325838878316,0.005331525128916,0.0073821483724017,0.0046121653769979,-0.001123652844525,0.0011236607351982,3.745821390805e-09,3.7457580736849e-09,2.4811578488382e-10,7.026235343745e-09,-0.0012660859448986,0.001266091861219,-0.0012660855202993,0.0012660914364591,-0.0012660836999387,0.0012660941522364,-0.0012660832832473,0.0012660937353857,-0.0010475003139111,0.0010475100298115,-0.0010475009966636,0.0010475107124038,1.4958500791598e-09,-5.0767583878102e-09,4.6130218871714e-09,-8.0766622366892e-09,-0.0019531820916545,0.0019531786196573,-0.0021816003090434,0.0021816032958087,-0.0021816036007938,0.0021815981442274,-0.0021816020547105,0.0021816006592837,-0.0021816053458957,0.0021815955071484,-0.0016566255659567,0.0016566323796321,-0.0016566381815699,0.001656620068014,-0.0017256259267758,0.0017256245988483,-0.0017256329257901,0.0017256186770349,3.3278634992419e-09,3.3277983935526e-09,-0.00091722060637067,0.00091722850821374,-2.9047572023084e-09,9.8059621601377e-09,-0.001048208637972,0.0010482130587812,-0.0010482044038529,0.0010482172841837,-0.0010482085436136,0.0010482129643789,-0.0010482043244973,0.0010482172047951,-0.00093705201721219,0.00093706317793456,-0.0009370521058575,0.00093706326682487,0.59839954980219,122718,2924,0.0046723538156733,0.0081043532623904,0.0038176038076041,37.946307971575,0.0002187704637726,0.0002187704637726,0.0002187704637726,3685590.9777178,0.016733338534971
11419200,0.98854381427449,0.017382185206404,0.0053471872306923,0.007407751558282,0.0046272464174297,-0.0011210000382455,0.0011210083110028,3.8918264470169e-09,3.8917629904886e-09,3.873620821962e-10,7.1782582374911e-09,-0.0012639744723896,0.0012639807350247,-0.0012639740088232,0.0012639802712978,-0.0012639722216572,0.0012639830308286,-0.0012639717667366,0.0012639825757487,-0.0010448077813865,0.0010448178110778,-0.0010448084671378,0.0010448184966688,1.4808627978345e-09,-5.0986531608223e-09,4.610009445023e-09,-8.1101912182842e-09,-0.0019601798721167,0.0019601763636931,-0.0021918796261212,0.0021918825941646,-0.0021918828857258,0.0021918773849795,-0.0021918813391636,0.0021918799157296,-0.0021918845982036,0.0021918747059911,-0.001660382291295,0.0016603890946424,-0.001660394922273,0.0016603767399445,-0.0017291755622137,0.0017291741920839,-0.0017291825543679,0.0017291682519067,3.5018749584326e-09,3.5018099660146e-09,-0.00091540392732564,0.00091541228327976,-2.7478468034605e-09,9.9983668018419e-09,-0.0010468952502157,0.0010469000751685,-0.0010468910033214,0.0010469043129926,-0.0010468951286449,0.001046899953554,-0.0010468908972993,0.0010469042069377,-0.00093483819995206,0.00093484974251851,-0.00093483828315219,0.00093484982596341,0.595296098671,122718,2924,0.0046613890178526,0.0081332773812173,0.0038101060521021,37.628641715625,0.000216229133725,0.000216229133725,0.000216229133725,3646484.0386458,0.016743976876187
11919200,0.99146811777548,0.017423897653852,0.0053588608014408,0.0074265099188012,0.0046385269336098,-0.0011180064560773,0.0011180151847336,4.0646654653116e-09,4.0646020348512e-09,5.3409235313567e-10,7.3858063544504e-09,-0.001262269658053,0.001262276302769,-0.0012622691470134,0.0012622757915688,-0.0012622673860646,0.0012622786191026,-0.0012622668845365,0.0012622781174148,-0.0010417870340031,0.0010417974493477,-0.0010417877216397,0.0010417981368241,1.4988912408427e-09,-5.1364238197781e-09,4.6444873422175e-09,-8.1639372260864e-09,-0.00196647190355,0.0019664683758691,-0.002199821330738,0.0021998243325122,-0.0021998245674072,0.002199819035956,-0.0021998230190889,0.0021998215881929,-0.0021998262551935,0.0021998162910838,-0.0016649923217243,0.0016649991721772,-0.0016650050218659,0.0016649867155477,-0.0017334447592385,0.0017334433934293,-0.0017334517812761,0.0017334373748437,3.7346283036468e-09,3.7345633372023e-09,-0.00091337511211157,0.00091338406213758,-2.5620667573839e-09,1.027852759738e-08,-0.0010463028757472,0.0010463082003891,-0.0010462985961729,0.0010463124704657,-0.0010463027240723,0.0010463080486719,-0.0010462984605343,0.0010463123347951,-0.00093220513188763,0.0009322171957563,-0.00093220520404737,0.00093221726816048,0.60696177317469,122718,2924,0.0046490135549306,0.008159258299784,0.0038017282253873,37.105273803916,0.00021204219043133,0.00021204219043133,0.00021204219043133,3592565.8135563,0.016749301425837
12419200,0.99362097879424,0.01745492217529,0.0053675731823418,0.0074403733470573,0.004646975645891,-0.0011152861587895,0.0011152945472873,3.9382638482556e-09,3.9382005732479e-09,4.1089039455108e-10,7.2597023990162e-09,-0.0012614088718822,0.0012614152142958,-0.0012614084041945,0.0012614147464468,-0.0012614066017724,0.0012614175291961,-0.0012614061426241,0.0012614170698891,-0.0010391601686842,0.0010391703143867,-0.0010391608550004,0.0010391710005432,1.5109286956361e-09,-5.1260071415299e-09,4.6599263626248e-09,-8.1574268135633e-09,-0.001972617015872,0.0019726135101525,-0.0022065107424244,0.0022065137641688,-0.002206514026067,0.0022065085149523,-0.0022065124610502,0.0022065110532861,-0.0022065157441268,0.0022065058035155,-0.0016705026965807,0.0016705095790271,-0.001670515418095,0.0016704971239562,-0.001738504779917,0.0017385034369983,-0.0017385118131847,0.0017384974247555,3.5331832087518e-09,3.5331182749786e-09,-0.00091179753801603,0.00091180596626094,-2.7649115504383e-09,1.007909583865e-08,-0.0010468044879162,0.0010468093384486,-0.0010468002085803,0.0010468136090355,-0.0010468043650923,0.0010468092155807,-0.0010468001010266,0.0010468135014481,-0.00092998355548269,0.00092999519379986,-0.0009299836242067,0.00092999526276928,0.61229629553772,122718,2924,0.0046377712371689,0.0081846122313835,0.0037952206973477,36.80257741276,0.00020962061930208,0.00020962061930208,0.00020962061930208,3527629.9430195,0.016757046734498
12919200,0.99518721998115,0.017476792032126,0.0053736979789034,0.0074501570127314,0.0046529370404914,-0.0011118184660816,0.0011118275618728,4.2032671722092e-09,4.2032039333139e-09,6.4355400286697e-10,7.5701247129452e-09,-0.0012592214833298,0.0012592284121493,-0.0012592209404113,0.0012592278690705,-0.0012592191859101,0.0012592307533401,-0.0012592186529412,0.0012592302202116,-0.0010358762326688,0.0010358869663497,-0.0010358769197865,0.0010358876533077,1.5363446486079e-09,-5.1711865215073e-09,4.707498714675e-09,-8.2240530132374e-09,-0.0019759401944149,0.0019759366696111,-0.0022105129375208,0.0022105160096669,-0.0022105161763324,0.0022105106303103,-0.0022105146141991,0.0022105132035244,-0.0022105178524457,0.0022105078236148,-0.0016730718103889,0.0016730787595574,-0.0016730846120882,0.0016730661641735,-0.0017407338224332,0.0017407324889207,-0.0017407408850054,0.0017407263693169,3.910552549644e-09,3.9104876186542e-09,-0.00090925695238123,0.00090926634725562,-2.4481905793995e-09,1.0519508493839e-08,-0.0010456553574314,0.0010456610197919,-0.0010456510348193,0.0010456653328245,-0.0010456551867422,0.0010456608490592,-0.0010456508802486,0.0010456651782201,-0.00092707828475218,0.0009270907603887,-0.00092707834180085,0.00092709081768193,0.59298586671732,122718,2924,0.0046234215971109,0.0081983170790821,0.0037847090977226,36.13712684418,0.00020429701475344,0.00020429701475344,0.00020429701475344,3480830.3862432,0.01674571176037
13419200,0.99630311898041,0.017492196360899,0.0053780154475189,0.0074570299498581,0.0046571509635217,-0.0011075081823608,0.0011075186026154,4.7042986828198e-09,4.7042354606266e-09,1.0329129198112e-09,8.1964615618432e-09,-0.0012546307568425,0.0012546387794641,-0.0012546300711574,0.0012546380936185,-0.0012546283793791,0.001254641200858,-0.0012546277060675,0.0012546405273865,-0.0010317102289562,0.0010317221021718,-0.0010317109212715,0.0010317227943289,1.5891011181105e-09,-5.3396702901497e-09,4.8254600887419e-09,-8.4542930171516e-09,-0.0019750767306037,0.0019750730933492,-0.0022113219363803,0.0022113251004366,-0.0022113251335567,0.0022113194314968,-0.0022113235656811,0.0022113220883561,-0.0022113267622922,0.0022113164188625,-0.0016705646529654,0.001670571753061,-0.0016705777403535,0.0016705587660798,-0.0017381665302823,0.0017381651790047,-0.0017381737492603,0.0017381587843388,4.6205520731441e-09,4.6204871017461e-09,-0.00090527012572367,0.00090528133705633,-1.9175805599361e-09,1.141533559528e-08,-0.0010413267131701,0.0010413338839447,-0.0010413222652665,0.0010413383204395,-0.001041326448517,0.0010413336192486,-0.0010413220186465,0.001041338073787,-0.00092314587648385,0.00092315997190868,-0.00092314591892696,0.0009231600145975,0.58571222056957,122718,2924,0.004605559478283,0.0081947606396145,0.0037681779015474,34.796589560705,0.00019357271648564,0.00019357271648564,0.00019357271648564,3474051.8733963,0.016707122931843
13919200,0.99712482276251,0.017503397368697,0.0053811573272862,0.0074620196990828,0.0046602203423277,-0.0011041076642631,0.0011041174855009,4.4854234538556e-09,4.4853602081656e-09,7.658046068714e-10,8.0210717462346e-09,-0.0012515242695492,0.0012515317502222,-0.0012515236573197,0.0012515311378328,-0.0012515218649424,0.0012515342018968,-0.00125152126307,0.0012515335998661,-0.0010283411999454,0.0010283526368329,-0.0010283418942034,0.0010283533309321,1.6165212989722e-09,-5.4100000123308e-09,4.8921599889293e-09,-8.5625253714333e-09,-0.0019754503608777,0.0019754466819805,-0.0022125411986474,0.0022125444017026,-0.0022125445274723,0.0022125387607356,-0.0022125429148436,0.0022125414197278,-0.002212546243104,0.0022125357782077,-0.0016700863027556,0.0016700935040281,-0.001670099586694,0.0016700803656376,-0.0017375351616011,0.0017375338091338,-0.0017375425086589,0.0017375273468346,4.2772141821622e-09,4.2771492473344e-09,-0.00090231849677574,0.00090232881716085,-2.340270375817e-09,1.1156419894957e-08,-0.0010387193097473,0.0010387256419024,-0.0010387148100672,0.0010387301312011,-0.0010387190909871,0.0010387254230983,-0.0010387146083232,0.0010387299294238,-0.00091998729691462,0.00092000072020536,-0.00091998734206241,0.00092000076559846,0.57829083934149,122718,2924,0.0045914702975981,0.0081963003502491,0.0037559398892914,33.829544095853,0.00018583635276682,0.00018583635276682,0.00018583635276682,3454478.2585932,0.016681923941541
14419200,0.99773082480735,0.017511476961852,0.00538342165882,0.007465619885584,0.004662435417448,-0.0011003671061503,0.0011003773688449,4.6534507612386e-09,4.6533875268053e-09,8.7763877324527e-10,8.2523330840066e-09,-0.0012479892561191,0.0012479970885568,-0.0012479885983597,0.0012479964306366,-0.0012479868119214,0.0012479995804518,-0.0012479861650821,0.0012479989334535,-0.0010246297229908,0.0010246415544285,-0.001024630420134,0.0010246422514123,1.6481795058945e-09,-5.4927711197303e-09,4.9706597396981e-09,-8.6906024042385e-09,-0.0019749053147382,0.0019749015861754,-0.0022127452606488,0.002212748524786,-0.0022127486056184,0.0022127427585318,-0.002212746973989,0.0022127454608236,-0.0022127503183938,0.0022127396940164,-0.0016687880109942,0.0016687953260248,-0.0016688014790671,0.0016687819679847,-0.0017361144684889,0.0017361131079471,-0.0017361219066477,0.0017361065125336,4.5112857310253e-09,4.5112207586067e-09,-0.00089892781526317,0.00089893873097375,-2.2098387741776e-09,1.1498183648757e-08,-0.0010355786968017,0.0010355854932591,-0.001035574125791,0.0010355900533674,-0.0010355784483457,0.0010355852447597,-0.0010355738948958,0.0010355898224396,-0.00091643875064211,0.00091645273683297,-0.00091643878820919,0.00091645277464521,0.56553166021167,122718,2924,0.0045759698871536,0.0081940451868238,0.0037418795130023,32.643512334578,0.00017634809867662,0.00017634809867662,0.00017634809867662,3439352.5628996,0.016649579449925
14919200,0.99816550145582,0.017517326460555,0.0053850664583339,0.0074682140875803,0.0046640459146409,-0.0010950535208854,0.0010950654335076,5.2765534523644e-09,5.2764902654939e-09,1.3635843728691e-09,9.0334614791879e-09,-0.0012425189429968,0.0012425281316457,-0.0012425181052402,0.0012425272937291,-0.0012425163991364,0.0012425307233204,-0.0012425155753306,0.001242529899356,-0.0010193249648059,0.0010193382125823,-0.0010193256682938,0.0010193389159112,1.7236983861975e-09,-5.6939012038737e-09,5.1438832671912e-09,-8.9855080378385e-09,-0.0019719593914473,0.0019719555409682,-0.0022107425483459,0.0022107459565104,-0.0022107458503496,0.0022107398156491,-0.0022107442022355,0.0022107426352135,-0.0022107475036743,0.0022107364937986,-0.0016648996506418,0.0016649072052029,-0.0016649135097327,0.0016648933272612,-0.0017322003201291,0.0017321989457539,-0.0017322079508286,0.0017321920031965,5.4140825574501e-09,5.414017538566e-09,-0.00089370630771175,0.00089371952740191,-1.5483053622163e-09,1.2649214935341e-08,-0.0010302114416953,0.0010302201395,-0.0010302067030077,0.0010302248649872,-0.0010302110768986,0.0010302197746599,-0.0010302063581096,0.001030224520056,-0.00091119434974426,0.00091121040071363,-0.0009111943667507,0.00091121041796535,0.5702752256283,122718,2924,0.0045539422161682,0.0081818770581329,0.0037202187743096,30.580718487201,0.0001598457478976,0.0001598457478976,0.0001598457478976,3437430.2058911,0.016592793479183
15419200,0.99846168519141,0.01752159830603,0.0053862798266644,0.0074700845947584,0.0046652338846068,-0.0010865668001484,0.0010865813552215,6.2731860732271e-09,6.2731228278009e-09,2.12087621225e-09,1.0314171001803e-08,-0.0012349406065133,0.0012349519251385,-0.0012349394844567,0.0012349508029214,-0.0012349378873594,0.0012349546931186,-0.0012349367836706,0.0012349535892703,-0.0010108358263329,0.0010108513563968,-0.0010108365387917,0.0010108520686962,1.8833343397228e-09,-6.031042052864e-09,5.4846806115957e-09,-9.4973304690734e-09,-0.0019675354351527,0.0019675314131429,-0.0022063484766686,0.0022063521887165,-0.0022063517445701,0.0022063454166452,-0.0022063500534164,0.0022063484399747,-0.0022063533207539,0.0022063416673499,-0.0016603270894482,0.0016603351349103,-0.0016603416708159,0.0016603203184164,-0.0017274941556119,0.0017274928025263,-0.0017275021374019,0.0017274852399283,6.8759186227919e-09,6.8758536900293e-09,-0.00088544343231109,0.00088546037234497,-5.207325116851e-10,1.456131945095e-08,-0.0010229837297537,0.0010229954415433,-0.0010229786894848,0.0010230004651255,-0.0010229831832148,0.0010229948949608,-0.0010229781662484,0.0010229999418564,-0.00090271898170095,0.0009027384041592,-0.00090271896199111,0.00090273838469435,0.60998273201635,122718,2924,0.0045187649135152,0.0081635709956928,0.0036859469631052,27.073064158506,0.00013178451326804,0.00013178451326804,0.00013178451326804,3419258.5120555,0.016503594138871
15919200,0.99868926911823,0.017525133398157,0.0053872920400891,0.0074716159236228,0.0046662254344455,-0.0010811378069744,0.001081149189863,5.0851035389745e-09,5.0850406032941e-09,9.4842704733892e-10,9.0918376294249e-09,-0.0012321610702829,0.0012321696097863,-0.0012321603149765,0.0012321688543193,-0.0012321583781357,0.001232172358553,-0.00123215763259,0.0012321716128479,-0.0010055578895437,0.0010055708834304,-0.0010055585965132,0.0010055715902408,1.9216001716691e-09,-5.9800888332146e-09,5.645764275718e-09,-9.5706168269314e-09,-0.0019684912032703,0.0019684872689205,-0.0022057247250264,0.0022057285519484,-0.0022057284506253,0.0022057221369511,-0.0022057265854003,0.002205725131382,-0.0022057303104333,0.0022057187158301,-0.0016626271213757,0.0016626355044548,-0.0016626420529229,0.001662620558125,-0.0017293326695448,0.0017293313307112,-0.0017293407830668,0.0017293239102546,5.1363805866595e-09,5.1363154302823e-09,-0.00088100469720829,0.00088101715734731,-2.3456562853988e-09,1.2919562184853e-08,-0.0010214603179076,0.0010214679520822,-0.0010214552286967,0.0010214730295895,-0.0010214600074618,0.0010214676415926,-0.0010214549363298,0.0010214727371896,-0.00089769976265173,0.00089771557198277,-0.00089769976648013,0.00089771557605692,0.65577890569336,122718,2924,0.0044962754630444,0.0081674499273318,0.0036675460022642,25.355152731329,0.00011804122185063,0.00011804122185063,0.00011804122185063,3356244.8130208,0.016465994683391
16419200,0.99887392873019,0.017527756465754,0.0053880339438203,0.0074727679330526,0.0046669545888816,-0.0010768269949712,0.001076836929626,4.5328548015168e-09,4.5327923044388e-09,5.5035368164633e-10,8.3741115227e-09,-0.001230528052261,0.0012305354056359,-0.0012305274568725,0.0012305348100869,-0.0012305254663126,0.0012305380463824,-0.0012305248780984,0.0012305374580089,-0.0010016867472504,0.0010016984698088,-0.001001687444593,0.001001699166993,1.8569152419846e-09,-5.7414090427772e-09,5.5766324795881e-09,-9.3326919249032e-09,-0.0019702861886803,0.0019702824234458,-0.0022059532086447,0.0022059569854309,-0.0022059570053106,0.0022059508638475,-0.0022059550988559,0.0022059538074527,-0.0022059588949551,0.002205947685314,-0.0016657130140459,0.0016657213711705,-0.0016657276958837,0.0016657067702414,-0.0017319380135352,0.001731936656645,-0.0017319458866439,0.0017319295885077,4.3377999201569e-09,4.337734349939e-09,-0.00087788853472013,0.00087789896226717,-2.9849313430141e-09,1.1956420615596e-08,-0.0010211710262152,0.001021176930809,-0.0010211660488498,0.0010211818985627,-0.001021170820406,0.0010211767249556,-0.0010211658589601,0.0010211817086395,-0.00089425439562314,0.00089426841606354,-0.00089425441253523,0.00089426843322236,0.60060693136021,122718,2924,0.0044784279351943,0.0081747954525649,0.0036546400897735,24.412729065198,0.00011050183252158,0.00011050183252158,0.00011050183252158,3291551.0313957,0.016442221261928
16919200,0.99902739310722,0.017530194751757,0.005388734783667,0.0074738148969235,0.0046676450711664,-0.0010744574006242,0.0010744668544214,4.3571938140453e-09,4.357131316535e-09,4.3868011737538e-10,8.1074454997522e-09,-0.0012258613023021,0.0012258683249706,-0.0012258607607315,0.0012258677832402,-0.0012258587676687,0.0012258709146647,-0.0012258582323896,0.0012258703792268,-0.0009997843567943,0.00099979565682966,-0.00099978505443389,0.00099979635431036,1.7565979019046e-09,-5.6875201844566e-09,5.4323087521671e-09,-9.2348644600533e-09,-0.0019660291721993,0.0019660253606473,-0.0022043011574132,0.002204304753309,-0.0022043049341516,0.0022042987780853,-0.0022043030439308,0.0022043016753417,-0.0022043068201046,0.0022042956995644,-0.0016589849092078,0.001658993034942,-0.0016589993743547,0.0016589786900209,-0.0017254641496917,0.0017254626750163,-0.0017254719136279,0.0017254558016927,4.0386968412216e-09,4.0386312422234e-09,-0.00087525021177655,0.00087525988651839,-3.1598295851693e-09,1.153228337137e-08,-0.0010159265641794,0.0010159319146175,-0.0010159216712603,0.0010159367983468,-0.0010159263865884,0.0010159317369819,-0.0010159215094312,0.0010159366364819,-0.00089247777212674,0.00089249108619223,-0.00089247780649054,0.00089249112080449,0.66895808084911,122718,2924,0.0044685809549012,0.0081572644962394,0.0036436741564273,23.780229120812,0.00010544183296649,0.00010544183296649,0.00010544183296649,3331081.0947599,0.016403220529729
17419200,0.99914778398045,0.017531996680567,0.0053892483991351,0.0074745976783541,0.0046681506030783,-0.0010689562145875,0.0010689676404223,5.0881945983315e-09,5.0881320337616e-09,1.1212057268832e-09,8.9402866716732e-09,-0.0012241746279444,0.0012241832511092,-0.0012241738754892,0.0012241824984934,-0.0012241720387842,0.0012241858910207,-0.0012241712967081,0.0012241851487852,-0.00099417240425352,0.00099418530547043,-0.00099417310459093,0.00099418600564923,1.8586413840168e-09,-5.7222566437522e-09,5.5863263676229e-09,-9.3222441508991e-09,-0.0019682991161714,0.0019682953711858,-0.0022038924753232,0.0022038962842576,-0.0022038961009929,0.0022038899707133,-0.0022038942271707,0.002203892964584,-0.0022038978522734,0.0022038866504841,-0.0016635702766983,0.001663578652085,-0.0016635848898215,0.00166356399298,-0.0017294595328235,0.0017294581733397,-0.0017294673046152,0.0017294510446395,5.1461703336795e-09,5.1461049784711e-09,-0.00087100580961802,0.00087101831120027,-2.183005762643e-09,1.2776845022625e-08,-0.0010158578993974,0.001015865606484,-0.0010158529112279,0.0010158705832956,-0.0010158575930013,0.0010158653000438,-0.0010158526225344,0.0010158702945686,-0.00088719003264905,0.00088720576665199,-0.00088719002892843,0.00088720576317779,0.63180123161467,122718,2924,0.0044458151655394,0.0081665443950866,0.0036261038322386,21.984164210871,9.1073313686966e-05,9.1073313686966e-05,9.1073313686966e-05,3248733.746335,0.016371692854628
17919200,0.99923976331814,0.017533272700894,0.0053896086560634,0.0074751574798319,0.0046685065649988,-0.0010623123404042,0.0010623250785276,5.5861013073255e-09,5.5860387352244e-09,1.4985364230167e-09,9.5656647150973e-09,-0.0012163659553643,0.001216375655967,-0.0012163650669823,0.0012163747674252,-0.0012163632832366,0.0012163783801543,-0.0012163624074382,0.001216377504197,-0.00098806266609567,0.00098807670676068,-0.00098806336192987,0.00098807740243641,1.8942363422624e-09,-5.9172257025224e-09,5.6935275695233e-09,-9.5839793215399e-09,-0.0019617659789177,0.0019617620791249,-0.0021991589954042,0.0021991628639725,-0.002199162592528,0.0021991562611545,-0.0021991607087351,0.0021991593407637,-0.0021991643052939,0.0021991527373923,-0.0016552319704983,0.0016552404718637,-0.0016552468772233,0.0016552253879468,-0.0017212747631755,0.0017212733447287,-0.0017212826998517,0.0017212659309273,5.8414731381708e-09,5.8414076496834e-09,-0.00086424842454446,0.0008642627065739,-1.6749953009551e-09,1.366961163466e-08,-0.0010077083101108,0.0010077174808783,-0.0010077031903816,0.0010077225872192,-0.0010077079106774,0.001007717081401,-0.0010077028107966,0.0010077222076017,-0.00088118620759474,0.0008812035425486,-0.00088118620365568,0.00088120353885473,0.58584131358921,122718,2924,0.0044182522146451,0.0081395755397947,0.0035980556610208,19.504454532094,7.123563625675e-05,7.123563625675e-05,7.123563625675e-05,3272759.1542442,0.016287745165713
18419200,0.99931287747918,0.017534315673586,0.0053899049015279,0.0074756117495096,0.004668799022548,-0.0010577819806187,0.0010577940369405,5.3397277050538e-09,5.3396650736517e-09,1.1870268611865e-09,9.3609197386805e-09,-0.0012097701451348,0.0012097792718375,-0.0012097693312949,0.0012097784578373,-0.00120976744124,0.001209782032007,-0.0012097666380456,0.0012097812286542,-0.00098355382295018,0.00098356737283041,-0.00098355452432201,0.00098356807404304,1.8881502379534e-09,-6.0322138537722e-09,5.7239411191749e-09,-9.7325127371813e-09,-0.0019556623414673,0.0019556583234365,-0.0021953339264556,0.0021953377640001,-0.0021953376608062,0.0021953311917145,-0.0021953357365795,0.0021953342722027,-0.0021953394703661,0.0021953276993643,-0.0016469239660227,0.0016469324925161,-0.0016469390849852,0.0016469172641012,-0.0017132456942529,0.0017132442057906,-0.001713253793306,0.0017132367370632,5.4478840199692e-09,5.4478183896708e-09,-0.00085917752130205,0.00085919079098103,-2.1521924939378e-09,1.3360729702892e-08,-0.0010004115845865,0.0010004198544363,-0.0010004064115428,0.001000425014795,-0.0010004112284691,0.0010004194982751,-0.0010004060747369,0.0010004246779561,-0.0008765880700766,0.0008766046300198,-0.00087658807690389,0.0008766046370929,0.60198892943871,122718,2924,0.0043994433700264,0.0081144077290374,0.0035769918490258,17.480878276428,5.5047026211422e-05,5.5047026211422e-05,5.5047026211422e-05,3315632.7129983,0.016221629130716
18919200,0.99937668242321,0.017535277013039,0.0053901800047807,0.0074760269607725,0.0046690700474855,-0.0010554874182402,0.0010554969586161,4.3944053608904e-09,4.394342689843e-09,3.5431160953824e-10,8.2780545511746e-09,-0.0012087995876613,0.0012088066051556,-0.0012087990488947,0.0012088060662286,-0.0012087969715932,0.0012088092798441,-0.0012087964381322,0.001208808746224,-0.00098113515078483,0.00098114661250525,-0.00098113585548899,0.00098114731705031,1.8433465521458e-09,-5.8549473522009e-09,5.628665964942e-09,-9.5087755265524e-09,-0.0019568800860158,0.0019568761966455,-0.0021958058024889,0.0021958095576539,-0.0021958097272526,0.0021958034234836,-0.0021958077632424,0.002195806388302,-0.0021958116874408,0.0021958002535782,-0.0016487962990026,0.0016488047255941,-0.0016488112204526,0.0016487899120448,-0.0017148599759038,0.0017148585168755,-0.0017148679831593,0.0017148513843851,4.0644926016421e-09,4.0644271374154e-09,-0.00085746695060318,0.00085747667728843,-3.3620745692827e-09,1.1797568376095e-08,-0.0010001874378234,0.0010001926798624,-0.0010001823903112,0.0010001977184013,-0.0010001872607097,0.0010001925027044,-0.0010001822287178,0.0010001975567753,-0.00087434987816848,0.00087436339947212,-0.00087434989969923,0.00087436342124841,0.63537813711657,122718,2924,0.0043899400478373,0.008119406701345,0.0035699000208384,16.875470428104,5.020376342483e-05,5.020376342483e-05,5.020376342483e-05,3280572.6246892,0.016209858495962
19419200,0.99943685797361,0.017536227325045,0.0053904532186657,0.0074764345451471,0.0046693395612322,-0.0010553364500822,0.0010553436615854,3.5111437444871e-09,3.5110810821213e-09,-2.6324845950828e-10,7.0977561840677e-09,-0.0012106116892692,0.001210616860017,-0.0012106113940989,0.0012106165646863,-0.001210609259132,0.0012106193449992,-0.0012106089661221,0.00121061905183,-0.00098108652969402,0.00098109593608704,-0.00098108722905256,0.00098109663528709,1.6993862889154e-09,-5.4599255534928e-09,5.3234436670972e-09,-8.9609460372496e-09,-0.0019609441976472,0.0019609405515017,-0.0021985586243346,0.0021985621379178,-0.0021985625405149,0.0021985565857348,-0.0021985606135442,0.002198559371124,-0.0021985645291586,0.0021985538183864,-0.0016540477805504,0.0016540557999762,-0.0016540619731605,0.0016540419213006,-0.0017197252803225,0.0017197238308264,-0.0017197328711337,0.0017197173372613,2.7805110159846e-09,2.7804457380211e-09,-0.00085829309691242,0.00085829955957899,-4.2197256136908e-09,1.0064642462722e-08,-0.0010031188517777,0.0010031214851994,-0.0010031141010267,0.0010031262300756,-0.0010031188348013,0.001003121468179,-0.001003114096486,0.0010031262255017,-0.00087466853842708,0.00087467906238224,-0.00087466857890679,0.00087467910310795,0.66499874432216,122718,2924,0.0043893354413019,0.0081361515118751,0.0035733436560886,17.54533247635,5.5562659810799e-05,5.5562659810799e-05,5.5562659810799e-05,3227384.658252,0.016229776915705
19919200,0.9994948830137,0.017537128491516,0.0053907116021654,0.0074768217862881,0.0046695951030629,-0.0010558234030253,0.0010558296979126,3.1558981761498e-09,3.1558359738195e-09,-2.9863393393463e-10,6.4025168562108e-09,-0.0012127468573472,0.0012127514410797,-0.0012127466479926,0.0012127512315649,-0.001212744639551,0.0012127537050012,-0.0012127444331446,0.0012127534984357,-0.00098193061372809,0.00098193905378966,-0.0009819313086855,0.00098193974858937,1.5011859669756e-09,-5.0079624907718e-09,4.8512860841284e-09,-8.2443579792288e-09,-0.0019650682302338,0.0019650648293281,-0.0022016978505003,0.002201700997081,-0.0022017014839435,0.0022016959503854,-0.0022016997063125,0.0022016985280979,-0.0022017033391892,0.0022016934808472,-0.0016590309719139,0.0016590382859013,-0.0016590440487579,0.0016590256239811,-0.0017243578084727,0.0017243563654481,-0.001724364804368,0.0017243505587717,2.2622788246774e-09,2.2622133177715e-09,-0.00085981656561231,0.00085982173631025,-4.1559497736754e-09,8.9368867711306e-09,-0.0010063165721007,0.0010063184500171,-0.0010063122179805,0.0010063227993347,-0.001006316613181,0.0010063184910532,-0.0010063122705722,0.0010063228518931,-0.00087598326181876,0.00087599230211513,-0.00087598331048802,0.0008759923510309,0.65387747308198,122718,2924,0.0043913770999871,0.0081531512198255,0.003579684017053,18.681064589547,6.4648516716378e-05,6.4648516716378e-05,6.4648516716378e-05,3179482.9140869,0.016255581600274
20419200,0.9995466977258,0.017537965170795,0.0053909526614403,0.0074771785410996,0.004669833968255,-0.0010542202766595,0.0010542286947691,3.949562208604e-09,3.9494999015912e-09,4.8881672163359e-10,7.2290514128533e-09,-0.0012110056744217,0.0012110120667026,-0.0012110052382364,0.001211011630357,-0.0012110034375659,0.0012110143449785,-0.0012110030091582,0.0012110139164117,-0.0009807129478563,0.00098072308734881,-0.00098071364391051,0.00098072378324529,1.496988547498e-09,-5.0314481372425e-09,4.7753956854692e-09,-8.1955843981106e-09,-0.0019645455887708,0.0019645421608041,-0.0022018263304385,0.0022018294421389,-0.0022018296804699,0.0022018241624447,-0.0022018280059864,0.0022018267586106,-0.002201831355452,0.0022018214783617,-0.0016578324864161,0.0016578396343255,-0.0016578453449581,0.0016578270120805,-0.0017230985317143,0.001723097111854,-0.0017231054351823,0.001723091183878,3.4109431192037e-09,3.410877437151e-09,-0.00085859889457678,0.0008586070171782,-2.9558422170198e-09,1.0039005798709e-08,-0.0010048530166755,0.0010048575156065,-0.0010048486882622,0.0010048618364438,-0.0010048529103919,0.0010048574092784,-0.0010048485963488,0.0010048617444969,-0.00087503592820114,0.00087504736526537,-0.00087503595917095,0.00087504739648181,0.67876339995886,122718,2924,0.0043847360104864,0.0081509951677969,0.0035746404336211,18.60194339715,6.4015547177199e-05,6.4015547177199e-05,6.4015547177199e-05,3173653.8698104,0.016241508789544
20919200,0.99958979491613,0.01753863616989,0.005391145111787,0.00747746623011,0.0046700248279925,-0.0010499065047376,0.0010499171273183,4.774366191346e-09,4.7743038660017e-09,1.2002737687011e-09,8.2097454515001e-09,-0.0012082217623998,0.0012082299415264,-0.0012082210953774,0.0012082292743439,-0.0012082194329802,0.0012082323105536,-0.0012082187779546,0.0012082316553686,-0.00097656360834837,0.00097657558839267,-0.00097656430219921,0.00097657628208429,1.5879984505609e-09,-5.1892264449294e-09,4.8863768039546e-09,-8.3704165551082e-09,-0.0019640184934006,0.0019640150013441,-0.0022005755426018,0.0022005787918196,-0.0022005787339088,0.0022005731347027,-0.0022005771039417,0.0022005758108985,-0.002200580294683,0.0022005701532268,-0.0016578366395181,0.0016578439121732,-0.0016578496719683,0.0016578309151686,-0.0017228616195186,0.0017228602756004,-0.0017228686391173,0.0017228539808153,4.6222512090639e-09,4.6221857298565e-09,-0.00085498168904833,0.00085499290645081,-1.896539491638e-09,1.1413736780801e-08,-0.0010028075149473,0.0010028146095477,-0.0010028030752046,0.0010028190390399,-0.0010028072611829,0.0010028143557394,-0.0010028028384211,0.0010028188022227,-0.00087118702679782,0.00087120112506838,-0.0008711870333134,0.0008712011318293,0.65509998978288,122718,2924,0.0043668692833527,0.0081487764226649,0.0035596514230243,17.278371526045,5.3426972208361e-05,5.3426972208361e-05,5.3426972208361e-05,3139906.2900405,0.016205877237647
21419200,0.9996243832968,0.017539175778838,0.0053912999822637,0.0074776971505128,0.0046701786460612,-0.0010446003832938,0.0010446123726526,5.2915100748524e-09,5.2914476012786e-09,1.5322322298369e-09,8.9297997245716e-09,-0.001202240963753,0.0012022502060432,-0.0012022401565434,0.0012022493986737,-0.0012022385064381,0.0012022527055815,-0.0012022377132183,0.0012022519122023,-0.00097150321520077,0.00097151642074217,-0.00097150390847665,0.00097151711386028,1.692038937019e-09,-5.4577288084254e-09,5.0675186471368e-09,-8.7101898213858e-09,-0.0019592412040785,0.0019592375529555,-0.0021969978881929,0.0021970012887727,-0.0021970010943118,0.0021969952858636,-0.0021969994512354,0.0021969980526057,-0.002197002656789,0.0021969920491424,-0.0016518290984105,0.0016518365952827,-0.0016518425737154,0.0016518230242754,-0.001716932123477,0.0017169308060712,-0.0017169394399812,0.0017169240771756,5.3562923629395e-09,5.3562268253373e-09,-0.00084963078973828,0.00084964388186256,-1.4237098263186e-09,1.2421871279192e-08,-0.00099668361493647,0.00099669219215087,-0.00099667899372137,0.00099669680120653,-0.00099668326755349,0.0009966918447237,-0.00099667866521408,0.00099669647266638,-0.00086618920910323,0.00086620503689904,-0.00086618920721108,0.00086620503525362,0.65600719510708,122718,2924,0.0043448591993517,0.0081290516958804,0.00353744382075,15.232926133757,3.7063409070057e-05,3.7063409070057e-05,3.7063409070057e-05,3153829.427279,0.016140890068112
21919200,0.9996537953108,0.017539628826637,0.0053914298663638,0.0074778913458871,0.0046703076143864,-0.0010410036393288,0.0010410142690614,4.787130247343e-09,4.7870677724693e-09,9.6063705440879e-10,8.4776065263517e-09,-0.001199039385467,0.0011990474302295,-0.0011990387287207,0.0011990467733228,-0.0011990368945228,0.0011990499687325,-0.0011990362481476,0.0011990493221982,-0.00096795844915926,0.00096797062072168,-0.00096795914786991,0.0009679713192743,1.737003591615e-09,-5.5450406421088e-09,5.1531767112241e-09,-8.8362737166093e-09,-0.0019576152469668,0.0019576115551955,-0.0021955218635909,0.0021955253184382,-0.0021955252967259,0.0021955194253882,-0.0021955235898488,0.0021955221737624,-0.0021955270224182,0.0021955162801581,-0.0016499704911988,0.0016499781186682,-0.001649984238016,0.0016499643943736,-0.0017149834828662,0.0017149821904903,-0.0017149910054823,0.001714975400186,4.6054666513059e-09,4.6054010981573e-09,-0.00084633280086548,0.00084634395931015,-2.2688924132766e-09,1.1768042922025e-08,-0.00099379363179558,0.00099380045517944,-0.00099378895189109,0.00099380512483449,-0.00099379338072179,0.00099380020406147,-0.00099378871772241,0.00099380489063247,-0.0008627973003442,0.00086281160358951,-0.0008627973058928,0.00086281160938459,0.64802894204825,122718,2924,0.0043299461666491,0.0081223225911078,0.0035237581469384,13.996984776291,2.7175878210332e-05,2.7175878210332e-05,2.7175878210332e-05,3142955.2497199,0.016104995475767
22419200,0.99968232864892,0.017540078212889,0.0053915590990843,0.0074780831378344,0.0046704359759705,-0.0010418809321231,0.0010418878968846,3.4164681346922e-09,3.4164056380476e-09,-2.3328467796763e-10,6.8713633217437e-09,-0.0011997544058433,0.001199759451547,-0.0011997541396243,0.0011997591851678,-0.0011997520576905,0.0011997618503962,-0.0011997517947223,0.0011997615872689,-0.00096892077227382,0.00096892989630124,-0.00096892147774664,0.00096893060161617,1.6136077436264e-09,-5.2916392087016e-09,4.9233947407879e-09,-8.4813913408458e-09,-0.0019592342726026,0.0019592307062955,-0.0021975773658857,0.002197580585222,-0.0021975810321747,0.0021975753624773,-0.0021975792942287,0.0021975779249264,-0.0021975829599522,0.0021975727016276,-0.0016511795594831,0.0016511868788668,-0.0016511929109716,0.0016511738869149,-0.0017161091277973,0.0017161078014466,-0.0017161164866729,0.0017161015772403,2.5808377722695e-09,2.5807722280991e-09,-0.00084755338161426,0.00084755936066649,-3.9859084224102e-09,9.4187432576253e-09,-0.00099483162055374,0.00099483411523088,-0.00099482716185139,0.00099483856853869,-0.00099483162054209,0.00099483411517507,-0.00099482717396275,0.00099483858061681,-0.00086397373248934,0.00086398355095989,-0.00086397376928121,0.00086398358799821,0.66209700364231,122718,2924,0.00433358194602,0.0081290199163479,0.0035288165632757,14.849372802055,3.3994982416441e-05,3.3994982416441e-05,3.3994982416441e-05,3134550.911422,0.016120632321605
22919200,0.99970931464289,0.017540481659862,0.0053916744844012,0.0074782564643811,0.00467055071108,-0.0010418052722925,0.0010418127649712,3.606408784382e-09,3.6063463205429e-09,6.7170509685566e-11,6.957617796964e-09,-0.0012005995951497,0.0012006051502482,-0.001200599265938,0.0012006048208762,-0.0012005973132048,0.0012006074777372,-0.0012005969894627,0.0012006071538359,-0.00096888417649444,0.00096889363675954,-0.00096888487750451,0.00096889433761144,1.5512059467819e-09,-5.1351003019165e-09,4.7724957295903e-09,-8.2398557725328e-09,-0.0019615579623496,0.0019615544870055,-0.0021994541383566,0.0021994572557359,-0.0021994576137683,0.0021994520894251,-0.0021994559462678,0.0021994546116244,-0.0021994594211137,0.0021994494447591,-0.0016538992822878,0.0016539063762427,-0.0016539122258247,0.0016538937514326,-0.001718618671288,0.0017186173493949,-0.0017186257798179,0.0017186113100197,2.8693370638216e-09,2.8692715148194e-09,-0.00084809606492154,0.00084810280056896,-3.5116711492981e-09,9.5126194478282e-09,-0.00099633604738279,0.00099633932009311,-0.00099633171252771,0.00099634364883825,-0.00099633600905924,0.0009963392817254,-0.00099633168710611,0.00099634362338311,-0.00086422450397459,0.00086423480832474,-0.00086422453582934,0.00086423484042573,0.62916623278619,122718,2924,0.0043332844513619,0.0081386003376186,0.0035310820541224,15.357049260999,3.8056394087988e-05,3.8056394087988e-05,3.8056394087988e-05,3106168.9054071,0.016132374897481
23419200,0.99973452370958,0.017540865694848,0.0053917846919316,0.0074784205984278,0.0046706604044886,-0.0010420486702726,0.0010420564614608,3.7192344634438e-09,3.7191719502329e-09,2.2332852782523e-10,7.0221330030099e-09,-0.0011994526002788,0.0011994584529869,-0.0011994522390674,0.0011994580916151,-0.00119945034659,0.0011994607503294,-0.0011994499918655,0.0011994603954457,-0.00096923343827689,0.00096924310833825,-0.00096923414325451,0.00096924381315704,1.5036507938533e-09,-5.0871172034143e-09,4.654415818674e-09,-8.1221105662151e-09,-0.0019606755835221,0.0019606721079992,-0.002200037340122,0.0022000403530519,-0.0022000407067414,0.0022000352279361,-0.002200039092256,0.0022000377116772,-0.0022000424583104,0.0022000325860077,-0.0016516694628146,0.0016516763547092,-0.0016516821670297,0.0016516639559198,-0.0017164854182158,0.0017164840783928,-0.0017164924269108,0.0017164781298582,3.0137732036356e-09,3.0137076118499e-09,-0.00084821597279933,0.00084822308780889,-3.2525182991515e-09,9.5404601440107e-09,-0.00099498983952615,0.00099499352998784,-0.00099498558042702,0.00099499778253045,-0.00099498977796691,0.00099499346838421,-0.00099498553233955,0.00099499773440956,-0.00086460879082131,0.00086461932677042,-0.00086460882273526,0.00086461935893034,0.64041032295996,122718,2924,0.0043342844458758,0.0081349924160634,0.0035315717164523,15.705478687132,4.0843829497056e-05,4.0843829497056e-05,4.0843829497056e-05,3125334.3789827,0.016130208110424
23919200,0.99975936748034,0.017541273024353,0.0053919026091085,0.0074785928140439,0.004670777601201,-0.0010438620750309,0.0010438681818541,3.0870007703447e-09,3.0869383016763e-09,-2.8080414201776e-10,6.2379661747682e-09,-0.0012020378429449,0.0012020423370973,-0.0012020376590489,0.001202042153041,-0.0012020356834496,0.0012020445397399,-0.0012020355033733,0.0012020443595044,-0.00097099923917355,0.0009710074742897,-0.00097099994409123,0.00097100817904942,1.4286584455828e-09,-4.899062846287e-09,4.4595395956559e-09,-7.8181560801101e-09,-0.0019644502449283,0.001964446878775,-0.0022033556443794,0.0022033584960336,-0.0022033590439344,0.0022033537545583,-0.0022033574594535,0.0022033561059546,-0.0022033608584429,0.0022033513639251,-0.0016559023519441,0.0016559089572122,-0.001655914650372,0.0016558971236369,-0.0017205037705652,0.0017205024555262,-0.001720510609725,0.0017204968504718,2.0866112194687e-09,2.0865456713136e-09,-0.00085063349103034,0.0008506382361175,-3.9281725418194e-09,8.3473820962353e-09,-0.00099823970360907,0.00099824148054382,-0.00099823562105525,0.00099824555881081,-0.00099823975819435,0.00099824153508507,-0.00099823568686235,0.00099824562458475,-0.00086665057507041,0.00086665898076495,-0.00086665061941781,0.00086665902535891,0.68827840936935,122718,2924,0.0043418168283755,0.0081505734058564,0.0035416109312055,17.003554226254,5.122843381003e-05,5.122843381003e-05,5.122843381003e-05,3096848.9807346,0.016163903891553
24419200,0.99978305875984,0.017541650011511,0.0053920113079716,0.0074787528769722,0.004670885826567,-0.0010442203695896,0.0010442271422424,3.3276857026735e-09,3.3276233482033e-09,5.0799648568842e-11,6.4030048903605e-09,-0.0012047421386128,0.0012047472401236,-0.0012047418750504,0.0012047469764008,-0.0012047400295436,0.0012047493870748,-0.0012047397725228,0.0012047491298947,-0.00097137971025834,0.00097138840444871,-0.00097138040743021,0.00097138910146252,1.3908079555364e-09,-4.7651857961978e-09,4.298849705857e-09,-7.5646247944933e-09,-0.0019691682092168,0.0019691649361664,-0.0022063720164872,0.0022063747784479,-0.002206375200788,0.002206370080608,-0.0022063737122888,0.0022063723738497,-0.002206376896023,0.0022063676754547,-0.0016621828234236,0.0016621891677672,-0.001662194685431,0.0016621777167739,-0.0017263916882219,0.0017263904331298,-0.0017263983086054,0.0017263849514797,2.4599261572239e-09,2.4598606524373e-09,-0.00085206296637909,0.00085206868099699,-3.3607122778409e-09,8.5147632660696e-09,-0.0010021058981353,0.0010021086442825,-0.0010021019452836,0.0010021125919775,-0.0010021059061427,0.0010021086522456,-0.0010021019653857,0.0010021126120461,-0.00086748615410734,0.0008674952154311,-0.00086748618881141,0.00086749525038176,0.66831884035278,122718,2924,0.0043433344783135,0.0081700101047183,0.00354756847598,17.881148122798,5.8249184982385e-05,5.8249184982385e-05,5.8249184982385e-05,3039386.5156925,0.016191272951249
24919200,0.99980500157141,0.017541981840604,0.0053921064791403,0.0074788945025643,0.0046709808588997,-0.0010440766392154,0.0010440841465371,3.6035378711343e-09,3.6034754324193e-09,3.1483146125467e-10,6.6964535453526e-09,-0.0012039873014893,0.0012039930280011,-0.0012039869616759,0.0012039926880275,-0.0012039851807969,0.0012039951852897,-0.0012039848491442,0.001203994853478,-0.0009716140933035,0.00097162338384731,-0.00097161479376136,0.00097162408414736,1.3875865606536e-09,-4.7901737345982e-09,4.252306238728e-09,-7.545579764953e-09,-0.0019690930332498,0.0019690897327023,-0.0022071878331201,0.0022071905625423,-0.0022071909143077,0.002207185794086,-0.0022071894728578,0.002207188080019,-0.0022071925534796,0.0022071833110082,-0.0016612687682377,0.0016612750099994,-0.0016612805337712,0.0016612635957084,-0.0017254694263693,0.0017254681830622,-0.0017254760349306,0.0017254626497857,2.8440794285059e-09,2.8440138971006e-09,-0.00085215437563836,0.00085216108130439,-2.9466204449739e-09,8.8724308823921e-09,-0.0010014743912601,0.001001478026714,-0.0010014704549243,0.0010014819569225,-0.0010014743477401,0.0010014779831499,-0.0010014704245276,0.0010014819264925,-0.00086792275597281,0.0008679326135988,-0.00086792278596947,0.0008679326438418,0.63528367308876,122718,2924,0.0043427373666049,0.0081697152968609,0.0035479485306691,18.351613175686,6.201290540549e-05,6.201290540549e-05,6.201290540549e-05,3041941.05286,0.01619074083334
25419200,0.99982655244476,0.017542339121583,0.0053922101917466,0.0074790446260678,0.0046710843037684,-0.0010469529090163,0.0010469585054942,2.8910790213697e-09,2.8910161538469e-09,-2.4927985241059e-10,5.796878053237e-09,-0.0012054211796363,0.0012054253899255,-0.0012054210439786,0.0012054252541073,-0.0012054191715111,0.001205427434204,-0.0012054190409888,0.0012054273035224,-0.00097458951354895,0.00097459717915019,-0.00097459022246311,0.00097459788790574,1.2755919159543e-09,-4.5844896771049e-09,3.9537568624418e-09,-7.1573611779408e-09,-0.0019704800835774,0.0019704768730668,-0.0022099590288206,0.0022099614956037,-0.002209962112215,0.0022099572071212,-0.0022099607375599,0.0022099593077905,-0.0022099638203892,0.0022099550187542,-0.0016614132980466,0.0016614190681135,-0.0016614244922805,0.0016614084214597,-0.0017256712382262,0.0017256700091084,-0.0017256776527735,0.0017256649024172,1.7673487310293e-09,1.7672835435423e-09,-0.00085501700368872,0.00085502096252988,-3.6762966807776e-09,7.4339524998724e-09,-0.0010028315782532,0.0010028330459933,-0.0010028278828245,0.0010028367377863,-0.0010028316640931,0.0010028331317894,-0.0010028279794144,0.0010028368343432,-0.00087098253284905,0.00087098988380362,-0.00087098258087792,0.00087098993207813,0.69486036491414,122718,2924,0.0043546549283321,0.0081754874457542,0.0035598169161649,19.918994810768,7.4551958486146e-05,7.4551958486146e-05,7.4551958486146e-05,3057177.5485456,0.016220763693035
25919200,0.99984661051065,0.01754266854675,0.0053923056147597,0.0074791834588775,0.0046711794731126,-0.0010473871712559,0.0010473940186727,3.3511890341004e-09,3.3511263708413e-09,2.03447206833e-10,6.2954347356725e-09,-0.0012087492952977,0.0012087545409176,-0.0012087490184285,0.0012087542638878,-0.0012087472683838,0.0012087566006705,-0.0012087469999218,0.001208756332049,-0.00097481603589618,0.00097482469623859,-0.00097481673197538,0.00097482539215911,1.3061115437771e-09,-4.5894066763646e-09,3.9330871707691e-09,-7.1114460172645e-09,-0.0019759765153709,0.0019759733301036,-0.0022132352528941,0.0022132377507395,-0.0022132381644525,0.0022132333137141,-0.0022132368563371,0.0022132354221826,-0.0022132397673288,0.0022132309846019,-0.0016689608960338,0.0016689666081907,-0.0016689719607701,0.0016689559710383,-0.0017327722377585,0.001732771086008,-0.0017327785971543,0.0017327658590386,2.4774793196927e-09,2.4774140462318e-09,-0.0008566078254426,0.00085661360639868,-2.9451353349607e-09,8.1180149123244e-09,-0.0010074601521637,0.0010074632185026,-0.0010074564678008,0.0010074668976616,-0.0010074601533088,0.0010074632196036,-0.0010074564812002,0.0010074669110277,-0.00087167998185119,0.00087168881426157,-0.00087168001446402,0.00087168884712054,0.68893725850849,122718,2924,0.0043564950400171,0.0081981272154657,0.0035664496967055,20.733856284098,8.1070850272783e-05,8.1070850272783e-05,8.1070850272783e-05,2990346.9921779,0.016252411744761
26419200,0.9998640232016,0.017542968584477,0.0053923929335686,0.007479308903961,0.0046712667469471,-0.0010453319755347,0.0010453408680531,4.1163735160485e-09,4.1163108213577e-09,8.4944415389874e-10,7.2120967743353e-09,-0.0012067546410629,0.0012067615445486,-0.0012067541511233,0.0012067610544484,-0.0012067525217831,0.001206763695779,-0.0012067520439123,0.0012067632177489,-0.0009731827214258,0.0009731930980303,-0.00097318341796071,0.00097319379440667,1.3831346018344e-09,-4.7635544092709e-09,4.053305570003e-09,-7.3251736920307e-09,-0.0019751061172585,0.0019751028382284,-0.0022127607046105,0.00221276332539,-0.0022127634914985,0.0022127585160365,-0.0022127622098713,0.0022127607148569,-0.0022127649961933,0.0022127559049486,-0.0016676686234738,0.0016676744780306,-0.0016676799150142,0.0016676634230274,-0.0017314195350612,0.0017314184158701,-0.0017314260296557,0.0017314128358928,3.5878201500682e-09,3.587754920895e-09,-0.00085492231280962,0.00085493093988498,-2.0061364887897e-09,9.4145972901954e-09,-0.0010057328789097,0.0010057383135616,-0.0010057290699569,0.0010057421147275,-0.0010057327407142,0.0010057381753221,-0.001005728946583,0.0010057419913204,-0.00087029039507104,0.00087030169471059,-0.00087029041010968,0.0008703017099953,0.72144034453015,122718,2924,0.0043479782260559,0.0081945274625392,0.003559463330927,20.399109659254,7.8392877274031e-05,7.8392877274031e-05,7.8392877274031e-05,2983404.747548,0.01623299197511
26919200,0.9998802344298,0.017543239228595,0.0053924713770742,0.0074794226300212,0.0046713452214998,-0.0010456473200323,0.0010456541028709,3.33039653917e-09,3.3303339418672e-09,9.8852030744933e-11,6.3620567931203e-09,-0.0012086053070271,0.0012086104457049,-0.0012086050416456,0.0012086101801628,-0.0012086032256954,0.001208612562348,-0.0012086029681537,0.0012086123046468,-0.00097370448715913,0.00097371315849623,-0.00097370518520937,0.00097371385638798,1.3663775823381e-09,-4.7004508574528e-09,4.0040450665835e-09,-7.2308192981986e-09,-0.0019785464354505,0.0019785432015429,-0.0022152380143352,0.0022152405808609,-0.002215240997644,0.0022152360926398,-0.0022152396797635,0.002215238203691,-0.0022152426625058,0.0022152337149148,-0.0016719400043022,0.0016719457990238,-0.0016719512573985,0.0016719349753497,-0.0017354168034032,0.0017354157084539,-0.0017354233348764,0.0017354103140941,2.4342608973645e-09,2.4341955984182e-09,-0.00085616606275116,0.00085617172466484,-3.0801554373657e-09,8.1711176033926e-09,-0.001008478951603,0.0010084818542154,-0.0010084752052722,0.0010084855955002,-0.0010084789596462,0.0010084818622144,-0.0010084752253549,0.0010084856155496,-0.00087129114719077,0.00087129994973614,-0.00087129117699345,0.00087129997978502,0.69956233266405,122718,2924,0.004349304700201,0.0082087041240127,0.0035646365405276,21.286481834388,8.5491854675104e-05,8.5491854675104e-05,8.5491854675104e-05,2943096.0395316,0.016254015681302
27419200,0.99989528305401,0.017543488478119,0.0053925435923558,0.0074795272902254,0.0046714175955379,-0.001046648910431,0.0010466555473894,3.27627866775e-09,3.2762160502939e-09,6.9259887374894e-11,6.2752784806676e-09,-0.0012089014963824,0.001208906534273,-0.0012089012475007,0.0012089062852308,-0.0012088994337508,0.001208908631884,-0.001208899192544,0.0012089083905179,-0.00097501027625117,0.00097501881451573,-0.00097501097723606,0.0009750195153424,1.33901293178e-09,-4.6713384729338e-09,3.9449335009895e-09,-7.1703329420741e-09,-0.0019793552572968,0.0019793520248367,-0.0022169890537731,0.0022169915624722,-0.0022169920168968,0.0022169871346856,-0.0022169907152993,0.0022169892193078,-0.0022169936778571,0.0022169847909667,-0.0016718610741743,0.0016718667720762,-0.001671872219095,0.0016718560742783,-0.001735320548227,0.0017353194391551,-0.0017353270387286,0.0017353141150385,2.3376157211649e-09,2.3375503912181e-09,-0.00085742982701179,0.00085743524993777,-3.1163423753208e-09,8.0135213979376e-09,-0.0010089431734614,0.0010089459091043,-0.0010089394679173,0.0010089496097696,-0.0010089431902698,0.0010089459258686,-0.00100893949666,0.0010089496384791,-0.00087281065381263,0.00087281921547149,-0.00087281068771785,0.0008728192496231,0.69373344293184,122718,2924,0.0043534572002938,0.0082120657448821,0.0035698807834917,22.250376045959,9.3203008367673e-05,9.3203008367673e-05,9.3203008367673e-05,2945716.8592886,0.016266969626468
27919200,0.99990892265474,0.017543721373905,0.0053926113140766,0.0074796246122189,0.0046714854476101,-0.0010472202391608,0.001047227394233,3.4690726160051e-09,3.4690099644898e-09,2.5318007010537e-10,6.4840281532731e-09,-0.0012093998235484,0.0012094052947075,-0.001209399519736,0.0012094049907361,-0.0012093977514059,0.0012094074008996,-0.0012093974563878,0.0012094071057228,-0.00097566032053008,0.00097566927762741,-0.00097566102076912,0.00097566997770878,1.3433745516531e-09,-4.6867108056726e-09,3.9402773169974e-09,-7.1763693878413e-09,-0.0019806421270685,0.0019806388839174,-0.0022186429511529,0.0022186454626101,-0.0022186458557131,0.0022186409677274,-0.0022186445732296,0.0022186430618623,-0.0022186474772232,0.0022186385664253,-0.0016727849214057,0.0016727906010482,-0.0016727960430279,0.0016727798802698,-0.0017361610059367,0.0017361599026236,-0.0017361674873819,0.0017361545326565,2.6170176746123e-09,2.6169523604629e-09,-0.00085834319449528,0.00085834933717268,-2.8402827867517e-09,8.2979269331274e-09,-0.0010097625175334,0.0010097658781247,-0.0010097588076244,0.0010097695825062,-0.0010097624985707,0.0010097658591181,-0.0010097588012689,0.0010097695761182,-0.00087366968148281,0.000873678837636,-0.00087366971152192,0.00087367886792217,0.71478774917533,122718,2924,0.0043558334481334,0.0082173870553331,0.0035736772768146,22.91813539467,9.8545083157362e-05,9.8545083157362e-05,9.8545083157362e-05,2937836.6785738,0.016278648885323
28419200,0.99992112158299,0.017543938481087,0.005392674676998,0.0074797148709796,0.0046715489331091,-0.001047208368126,0.0010472157765768,3.5625514724943e-09,3.5624888131288e-09,3.2605621157971e-10,6.6071045847255e-09,-0.0012104736975647,0.0012104793624619,-0.0012104733666383,0.0012104790313749,-0.0012104716086586,0.0012104814853791,-0.0012104712869752,0.0012104811635362,-0.00097567753607054,0.00097568670867961,-0.0009756782337914,0.00097568740624205,1.3658150134065e-09,-4.7126409720532e-09,3.9671947543352e-09,-7.2063664056883e-09,-0.001983069681357,0.0019830664350758,-0.0022204598362938,0.0022204623819417,-0.0022204627293322,0.0022204578346708,-0.002220461450293,0.0022204599394424,-0.0022204643427652,0.0022204553916168,-0.0016757467412629,0.0016757524566288,-0.0016757579044594,0.0016757416671506,-0.0017389152662244,0.0017389141875672,-0.0017389217753105,0.0017389087504966,2.7624274305691e-09,2.7623621560848e-09,-0.00085899944991395,0.00085900596219802,-2.7244139494651e-09,8.4738551595664e-09,-0.0010115076891914,0.0010115113484632,-0.0010115039585914,0.0010115150732906,-0.0010115076541916,0.0010115113134193,-0.0010115039364156,0.0010115150510814,-0.00087402914699888,0.00087403862899893,-0.00087402917228967,0.00087403865453573,0.74447173298985,122718,2924,0.0043558018704645,0.0082273914337235,0.0035764139760637,23.441117821067,0.00010272894256854,0.00010272894256854,0.00010272894256854,2908459.2242532,0.016291575023044
28919200,0.99993199441308,0.017544123912691,0.0053927285355731,0.0074797923770053,0.0046716030001122,-0.0010468795290777,0.0010468869032983,3.5488962501777e-09,3.5488335022704e-09,2.9603135285346e-10,6.6143456914559e-09,-0.0012115197758738,0.0012115253937351,-0.0012115194490864,0.0012115250667871,-0.0012115176751938,0.0012115275289102,-0.0012115173574568,0.0012115272110137,-0.00097552594650212,0.00097553510257941,-0.00097552664236369,0.00097553579828221,1.3856341533572e-09,-4.7308893216963e-09,3.9983668372848e-09,-7.235677667014e-09,-0.0019856531732358,0.0019856499287679,-0.0022222377826043,0.0022222403615759,-0.0022222406985425,0.002222235798302,-0.0022222394109657,0.0022222379093278,-0.0022222423263373,0.0022222333454988,-0.0016790248385434,0.0016790306028414,-0.0016790360597452,0.0016790197523301,-0.0017419607797161,0.0017419597207158,-0.001741967322707,0.0017419542418999,2.748714348737e-09,2.7486492045166e-09,-0.00085949857127721,0.00085950504493136,-2.7675184321528e-09,8.4903854282857e-09,-0.0010133344932445,0.0010133380943433,-0.0010133307430047,0.0010133418389342,-0.0010133344621296,0.0010133380631842,-0.0010133307245576,0.0010133418204539,-0.00087432208183828,0.00087433155346897,-0.00087432210495115,0.00087433157682773,0.71381037907313,122718,2924,0.0043544578985665,0.0082380317143393,0.0035784997480009,23.983381143182,0.00010706704914546,0.00010706704914546,0.00010706704914546,2873569.37535,0.016303152501549
29419200,0.99994176724586,0.017544275328576,0.005392772099424,0.0074798563740522,0.0046716468550996,-0.0010477624690346,0.0010477694192808,3.3935717848419e-09,3.3935091251448e-09,1.4848801534637e-10,6.4375688122211e-09,-0.0012113064857144,0.0012113117641075,-0.0012113062058389,0.0012113114840721,-0.0012113043956635,0.0012113138894824,-0.0012113041239573,0.0012113136176177,-0.00097665624781225,0.00097666506335856,-0.00097665694864027,0.00097666576402535,1.3661686226628e-09,-4.7239167911729e-09,3.9681609992289e-09,-7.2178074348197e-09,-0.0019857745870929,0.0019857713303109,-0.0022236021779194,0.0022236047152863,-0.0022236051297709,0.0022236002258056,-0.0022236038374349,0.0022236023151803,-0.0022236067887202,0.0022235978251453,-0.0016780004640882,0.001678006179578,-0.0016780116627566,0.0016779953981503,-0.0017409618515982,0.0017409607715681,-0.0017409684023505,0.0017409553511557,2.4997654994755e-09,2.4997001986331e-09,-0.00086046854648212,0.00086047438529152,-2.9898765852638e-09,8.2142076383993e-09,-0.0010131428176837,0.0010131458911043,-0.0010131390867123,0.0010131496169132,-0.0010131428143243,0.0010131458876994,-0.0010131390955894,0.0010131496257565,-0.00087556363697598,0.00087557256687555,-0.00087556366618307,0.00087557259632751,0.64935524371901,122718,2924,0.0043581128331234,0.0082385631842858,0.0035825199660654,24.778021844167,0.00011342417475334,0.00011342417475334,0.00011342417475334,2884325.4764045,0.016311478149863
29919200,0.99995043884937,0.017544417677488,0.005392813400513,0.0074799158988186,0.0046716883781559,-0.0010495862838692,0.0010495934505401,3.4780620887965e-09,3.4779995161439e-09,2.1965108356201e-10,6.5266076634395e-09,-0.0012101644885545,0.0012101699632656,-0.0012101641885425,0.0012101696630934,-0.0012101623921385,0.0012101720950745,-0.0012101621006931,0.00121017180347,-0.0009784629362186,0.00097847193705171,-0.00097846364387221,0.00097847264454741,1.3502469786464e-09,-4.7538755407772e-09,3.9338541548088e-09,-7.2284695071596e-09,-0.0019838994029924,0.0019838961012599,-0.0022243497217127,0.0022243522142879,-0.0022243526452908,0.0022243477091722,-0.0022243513699024,0.0022243497908404,-0.0022243542929158,0.0022243452851715,-0.0016737323540921,0.0016737379958192,-0.0016737435255438,0.0016737272343734,-0.0017369295102542,0.0017369284047585,-0.0017369360789257,0.0017369229758778,2.5908321971526e-09,2.5907666998332e-09,-0.00086161371525285,0.00086161979732305,-2.8867582776632e-09,8.2959787705202e-09,-0.0010113314553234,0.0010113347593268,-0.0010113277309828,0.0010113384781476,-0.0010113314344908,0.0010113347384502,-0.0010113277228505,0.0010113384699821,-0.00087708615938188,0.00087709527892736,-0.00087708619186291,0.00087709531165454,0.68704428500962,122718,2924,0.0043656519040001,0.0082308949190706,0.0035872535096407,25.464710532551,0.00011891768426041,0.00011891768426041,0.00011891768426041,2933009.2176267,0.016316131897554
30419200,0.99995807527662,0.017544530858377,0.0053928459155687,0.0074799638713456,0.0046717210714622,-0.0010500846238589,0.0010500917998598,3.4780278437214e-09,3.4779653117953e-09,2.2549426046873e-10,6.5315812710874e-09,-0.001212748777127,0.0012127542455802,-0.001212748472514,0.0012127539408057,-0.0012127466808978,0.0012127563767626,-0.0012127463849961,0.001212756080702,-0.00097866809578886,0.00097867709642671,-0.00097866879683318,0.00097867779731594,1.3677873915635e-09,-4.7369987925267e-09,3.949679606058e-09,-7.2105840876057e-09,-0.0019881632191045,0.0019881599510769,-0.0022270463407882,0.0022270488662899,-0.0022270492589241,0.0022270443565117,-0.0022270479846357,0.0022270464386,-0.0022270509022066,0.0022270419282668,-0.0016794932169451,0.0016794988900077,-0.0016795043832299,0.0016794881280166,-0.0017423668381153,0.0017423657685104,-0.0017423733927489,0.0017423603240709,2.620033039245e-09,2.6199676291568e-09,-0.00086296988741112,0.00086297603707085,-2.8589299464173e-09,8.3226750637324e-09,-0.0010148672005822,0.001014870555753,-0.0010148634763719,0.0010148742745436,-0.001014867181345,0.0010148705364728,-0.0010148634696611,0.0010148742678003,-0.00087767234555709,0.00087768152217674,-0.000877672372472,0.00087768154934055,0.62192905954651,122718,2924,0.0043677453801129,0.0082484621546547,0.0035929002381845,26.130034943261,0.00012424027954609,0.00012424027954609,0.00012424027954609,2884036.3071678,0.016341875361313
30919200,0.99996486655428,0.017544641043122,0.0053928779309251,0.0074800098524482,0.0046717532597486,-0.0010526629229066,0.0010526695484228,3.2774893499391e-09,3.2774272224171e-09,6.0068161440518e-11,6.2743132222144e-09,-0.0012122098251505,0.0012122148706908,-0.0012122095835117,0.0012122146288921,-0.0012122077598482,0.0012122169712638,-0.0012122075258678,0.0012122167371247,-0.00098129155809346,0.00098130010098667,-0.00098129226845352,0.0009813008111897,1.3192205575999e-09,-4.6975842707898e-09,3.8516400705691e-09,-7.1222313899552e-09,-0.001986688433254,0.0019866851556718,-0.002228163468059,0.0022281658875561,-0.0022281663954914,0.0022281615178611,-0.0022281651371785,0.0022281635474174,-0.0022281680640463,0.0022281591771691,-0.0016757070909759,0.0016757126028194,-0.0016757181089666,0.001675702055245,-0.0017388412423713,0.0017388401401238,-0.0017388477595376,0.0017388348304361,2.2868746269507e-09,2.2868086580115e-09,-0.00086479238508287,0.00086479768895034,-3.0955447387331e-09,7.8921038877061e-09,-0.0010135765367618,0.0010135792253124,-0.001013572878836,0.0010135828784929,-0.0010135765533073,0.0010135792418136,-0.0010135729073545,0.001013582906978,-0.00087996725536776,0.00087997566762864,-0.00087996729196026,0.00087997570446824,0.67884299404677,122718,2924,0.0043784082398557,0.0082424513152467,0.0036004384878379,27.118982578354,0.00013215186062683,0.00013215186062683,0.00013215186062683,2935370.1305663,0.016354237346277
31419200,0.99997094231211,0.017544740606054,0.0053929068732428,0.0074800514266866,0.0046717823061249,-0.0010543521983012,0.0010543581831993,3.0329080561268e-09,3.0328459842503e-09,-1.172544420878e-10,5.9641588896281e-09,-0.0012168315405338,0.0012168360637363,-0.001216831360557,0.0012168358835992,-0.0012168295192461,0.0012168381191862,-0.0012168293462337,0.0012168379460148,-0.00098263659318978,0.00098264457297014,-0.00098263729203212,0.00098264527165505,1.300890294518e-09,-4.5908875310667e-09,3.7903585717357e-09,-6.9752016586126e-09,-0.0019931686223267,0.0019931654306225,-0.0022322997134435,0.0022323021016655,-0.0022323026422595,0.0022322978777182,-0.0022323013942398,0.002232299861354,-0.0022323043224897,0.002232295636852,-0.0016844503624437,0.0016844557993458,-0.001684461202438,0.0016844454802498,-0.0017471505522279,0.0017471494862939,-0.0017471569622553,0.0017471443136799,1.9662199888511e-09,1.9661537350244e-09,-0.00086763073116522,0.00086763520685425,-3.3154123136061e-09,7.4584786567291e-09,-0.0010194578419452,0.0010194598661059,-0.0010194542563211,0.0010194634478669,-0.0010194579046801,0.0010194599287959,-0.0010194543300708,0.0010194635215826,-0.00088182377306855,0.00088183143172557,-0.00088182381089388,0.00088183146979894,0.68615600216708,122718,2924,0.0043854481112151,0.0082691553147471,0.0036122401960115,28.435976284884,0.00014268781027907,0.00014268781027907,0.00014268781027907,2867415.4777462,0.016400559583042
31919200,0.99997617558067,0.017544827578128,0.0053929321873005,0.0074800876205739,0.0046718077702541,-0.0010550508680831,0.0010550577005795,3.3467784390542e-09,3.3467166406097e-09,1.9189470740834e-10,6.2960021509266e-09,-0.0012179644058203,0.0012179696428726,-0.0012179641341177,0.0012179693710103,-0.0012179623746898,0.0012179717063411,-0.0012179621118104,0.0012179714433028,-0.00098359133196514,0.00098359998804121,-0.00098359203117681,0.00098360068709626,1.3055021510995e-09,-4.6008959551985e-09,3.7879750010227e-09,-6.9780565173398e-09,-0.0019951478296258,0.0019951446326998,-0.0022341189882489,0.002234121386806,-0.0022341218179012,0.0022341170507671,-0.0022341205972776,0.0022341190566238,-0.0022341234263637,0.0022341147200305,-0.0016866026306781,0.0016866080540327,-0.0016866134303876,0.0016865976988341,-0.0017491739634297,0.0017491729027461,-0.0017491803400502,0.0017491676713576,2.4274566726278e-09,2.427390485352e-09,-0.00086881843500557,0.00086882410002288,-2.8587782918149e-09,7.9273765788592e-09,-0.0010210300593817,0.0010210331172268,-0.0010210264670234,0.001021036704651,-0.0010210300629626,0.001021033120763,-0.0010210264827083,0.0010210367203024,-0.00088305620493858,0.00088306484426872,-0.00088305623393168,0.00088306487350962,0.69501900971255,122718,2924,0.0043883550642008,0.0082773215674998,0.003617176697785,29.268576464096,0.00014934861171277,0.00014934861171277,0.00014934861171277,2849615.2348229,0.016416832135127
32419200,0.99998047269977,0.01754490252927,0.0053929541029779,0.0074801186088642,0.0046718298174283,-0.0010541492530902,0.0010541575341248,3.8860498662577e-09,3.8859881161829e-09,6.4033468684721e-10,6.9528922390912e-09,-0.0012176015208625,0.0012176079222322,-0.0012176010958233,0.0012176074970331,-0.0012175994190249,0.0012176100559997,-0.0012175990053356,0.0012176096421517,-0.00098286886728005,0.00098287873971548,-0.00098286956590957,0.00098287943818838,1.3703313300832e-09,-4.7308128555617e-09,3.9033616969207e-09,-7.1559063086802e-09,-0.0019957907469666,0.0019957874873732,-0.0022345779083572,0.0022345804217685,-0.0022345806645978,0.0022345757995944,-0.0022345794503535,0.0022345778835677,-0.002234582206028,0.002234573260839,-0.0016873951614945,0.0016874007396643,-0.0016874061755875,0.0016873900308348,-0.0017498503072133,0.0017498492712934,-0.0017498567914184,0.0017498437682737,3.2221509814e-09,3.2220847925797e-09,-0.00086835057497219,0.00086835827818261,-2.2140659270704e-09,8.8829232381106e-09,-0.001021063747335,0.0010210684808185,-0.0010210600476286,0.0010210721737943,-0.0010210636518261,0.001021068385265,-0.0010210599659879,0.0010210720921198,-0.00088257560052685,0.00088258602318801,-0.00088257561444112,0.00088258603735027,0.72871756088406,122718,2924,0.0043846273242914,0.0082799633334889,0.0036152454417844,29.299081685287,0.0001495926534823,0.0001495926534823,0.0001495926534823,2833510.6144582,0.016413767716655
32919200,0.99998397361777,0.017544959261238,0.0053929705634836,0.0074801422886026,0.0046718464091521,-0.0010525833734642,0.0010525919511262,3.9969183785728e-09,3.9968568253444e-09,6.7891155039463e-10,7.149651375117e-09,-0.0012175636980868,0.0012175702913581,-0.001217563245005,0.0012175698381165,-0.0012175615451462,0.0012175724778862,-0.0012175611033796,0.0012175720359611,-0.00098146006218353,0.00098147022235467,-0.00098146075915608,0.00098147091917067,1.4311680823857e-09,-4.8265028548861e-09,4.023275830391e-09,-7.3088135881148e-09,-0.0019972522320219,0.0019972489392366,-0.0022350781862668,0.002235080809738,-0.0022350809967573,0.0022350760600254,-0.0022350797520296,0.0022350781913471,-0.0022350825619536,0.0022350734410797,-0.0016896826892841,0.0016896884496725,-0.0016896939505269,0.0016896774533916,-0.0017519241897966,0.0017519231830081,-0.0017519308039459,0.001751917501287,3.3933214392564e-09,3.3932551802024e-09,-0.00086754063229367,0.00086754876463613,-2.1759453962147e-09,9.1946344616193e-09,-0.0010217296559069,0.0010217346652961,-0.0010217258648821,0.0010217384493693,-0.0010217295432854,0.0010217345526298,-0.001021725766271,0.001021738350724,-0.00088157526512593,0.00088158613819905,-0.00088157527261555,0.00088158614593695,0.67786408096961,122718,2924,0.0043781533102526,0.0082859617947115,0.0036118990762137,29.174701033061,0.00014859760826449,0.00014859760826449,0.00014859760826449,2799562.51848,0.016409894980786
33419200,0.99998686661331,0.017545009231118,0.0053929851733979,0.0074801629205612,0.0046718611371593,-0.0010526458495184,0.001052654007604,3.8459370384307e-09,3.8458755989754e-09,4.8431011901125e-10,7.025674299061e-09,-0.0012156472501488,0.0012156534850719,-0.0012156468450248,0.0012156530797886,-0.0012156450759912,0.0012156556952819,-0.0012156446810238,0.0012156553001561,-0.00098178061543589,0.00098179047650247,-0.00098178131707493,0.0009817911779855,1.4365732279681e-09,-4.8931487424294e-09,4.0644723704532e-09,-7.4093842792198e-09,-0.0019951735244925,0.0019951701722216,-0.0022348691964962,0.0022348718262727,-0.002234872105017,0.0022348670879448,-0.0022348708259416,0.0022348692279313,-0.0022348737338962,0.0022348644890494,-0.0016858810301324,0.0016858868488426,-0.0016858924535255,0.0016858757326705,-0.0017482658597383,0.0017482648179257,-0.0017482725817275,0.0017482590999062,3.142179845035e-09,3.142113513947e-09,-0.00086726166761772,0.00086726915755453,-2.4937533706345e-09,9.0121887797492e-09,-0.0010194418477909,0.0010194462688092,-0.0010194380133391,0.0010194500966782,-0.0010194417621401,0.0010194461831137,-0.0010194379413799,0.0010194500246851,-0.000881759853663,0.00088177024353572,-0.00088175987040453,0.00088177026052564,0.72119042212202,122718,2924,0.0043783940594202,0.0082774235318023,0.0036107280350998,29.316002882103,0.00014972802305682,0.00014972802305682,0.00014972802305682,2830851.6218004,0.016400249005818
33919200,0.9999893247657,0.01754505124524,0.0053929974339245,0.007480180322188,0.0046718734891273,-0.0010531918174664,0.0010531988498175,3.4242369786185e-09,3.4241757513474e-09,1.3026925804557e-10,6.5259371448645e-09,-0.0012181606309957,0.0012181659427395,-0.0012181603437751,0.0012181656553593,-0.001218158506575,0.0012181681034776,-0.0012181582273983,0.0012181678241424,-0.00098219384713792,0.00098220276262384,-0.00098219454592155,0.00098220346125171,1.4094762495269e-09,-4.7865826004813e-09,4.033025360726e-09,-7.3010042809779e-09,-0.0019991371109691,0.0019991338357777,-0.0022373738691331,0.0022373764718698,-0.0022373768602491,0.0022373719239895,-0.0022373755536034,0.002237374027328,-0.0022373785441531,0.0022373694788927,-0.0016911829575348,0.0016911887650229,-0.0016911942973285,0.0016911778339627,-0.0017532770501657,0.0017532760066512,-0.0017532836947411,0.0017532704706712,2.5446622757425e-09,2.5445955789455e-09,-0.00086869166562976,0.00086869761417274,-3.0187308468742e-09,8.3338217042671e-09,-0.0010228508026063,0.0010228539209328,-0.0010228470223138,0.0010228576961984,-0.0010228507966247,0.0010228539149061,-0.0010228470284279,0.0010228577022784,-0.00088262308957247,0.00088263216103246,-0.000882623111414,0.00088263218312293,0.71426718589793,122718,2924,0.0043806822483592,0.0082937519330074,0.0036166772069357,30.069211332538,0.00015575369066031,0.00015575369066031,0.00015575369066031,2785573.5550342,0.016425238363521
34419200,0.99999146007875,0.017545087000915,0.0053930078483771,0.0074801951499045,0.0046718840026331,-0.0010552258524568,0.0010552316946904,2.9818865756105e-09,2.9818253175636e-09,-2.3152420746939e-10,5.979040154251e-09,-0.0012200136221308,0.0012200179867255,-0.0012200134614766,0.0012200178259117,-0.0012200115602119,0.0012200200851293,-0.0012200114055589,0.0012200199303182,-0.00098449391223425,0.00098450182509693,-0.00098449461393406,0.0009845025266407,1.3480389315124e-09,-4.6737003876025e-09,3.9233603956213e-09,-7.1420577288624e-09,-0.002001462380305,0.0020014591545867,-0.0022400308837222,0.0022400333764268,-0.0022400339268459,0.0022400290735523,-0.0022400326191844,0.0022400311078451,-0.0022400356617423,0.0022400268044161,-0.0016932181350886,0.0016932237908821,-0.0016932292730316,0.0016932131789756,-0.0017552306672591,0.0017552295963561,-0.0017552372127811,0.0017552243012019,1.8834684164669e-09,1.8834017307532e-09,-0.00087112156224806,0.00087112581708142,-3.5427026525422e-09,7.527087784624e-09,-0.0010250367550506,0.0010250384925747,-0.0010250330720684,0.0010250421720104,-0.0010250368301221,0.0010250385676011,-0.0010250331578124,0.0010250422577201,-0.00088517222603063,0.00088517980676696,-0.00088517225980023,0.00088517984078525,0.69956538492715,122718,2924,0.004389119256196,0.0083033646936663,0.0036267603888095,31.478317688548,0.00016702654150838,0.00016702654150838,0.00016702654150838,2777495.7295894,0.016453827937359
34919200,0.99999333956542,0.017545119267505,0.0053930172754693,0.0074802084726111,0.0046718935194246,-0.0010590326201511,0.0010590371879599,2.5075430582624e-09,2.5074817916951e-09,-5.7753251587366e-10,5.3496952821872e-09,-0.0012232416894503,0.0012232450642133,-0.0012232416636829,0.0012232450382864,-0.001223239721552,0.0012232470674379,-0.0012232396998709,0.0012232470455989,-0.00098843080895997,0.00098843761871632,-0.00098843151474804,0.00098843832434703,1.2550895556991e-09,-4.495485842111e-09,3.7348763377387e-09,-6.8719313653315e-09,-0.0020047984731965,0.0020047953294476,-0.0022439358687861,0.0022439381887696,-0.0022439389127881,0.0022439342054054,-0.002243937631868,0.0022439361367844,-0.0022439406753034,0.0022439321528657,-0.0016960782842411,0.0016960836662185,-0.0016960890414188,0.0016960735678478,-0.0017580233277908,0.0017580222304051,-0.0017580296852223,0.0017580172784285,1.174594208569e-09,1.1745275094026e-09,-0.0008752185465879,0.00087522098790698,-4.0208218051833e-09,6.5758379739202e-09,-0.0010285333503944,0.0010285336621989,-0.0010285298280549,0.001028537182623,-0.0010285335121226,0.0010285338238821,-0.0010285299989121,0.0010285373534455,-0.00088929151887966,0.00088929744497906,-0.00088929156494225,0.00088929749128869,0.71680103264845,122718,2924,0.004404905784554,0.0083171657087428,0.0036437596968804,33.571156550794,0.00018376925240635,0.00018376925240635,0.00018376925240635,2774396.1889899,0.016501175507294
35419200,0.99999496455731,0.017545145518329,0.005393024901529,0.0074802193877376,0.0046719012290625,-0.0010630900560413,0.0010630940743479,2.2988656835512e-09,2.2988044332263e-09,-6.4955859672303e-10,4.9923200761074e-09,-0.0012280497348526,0.0012280527320695,-0.0012280497608845,0.0012280527579417,-0.0012280478591029,0.001228054639673,-0.0012280478893107,0.0012280546697224,-0.00099250328687276,0.00099250955983594,-0.00099250398842289,0.00099251026123045,1.1659360767473e-09,-4.3045220945106e-09,3.5260331510488e-09,-6.5653938666064e-09,-0.0020102391229308,0.002010236077245,-0.0022488266100092,0.0022488287616798,-0.0022488295486068,0.0022488250164303,-0.0022488283297385,0.002248826853426,-0.0022488312677701,0.0022488231076218,-0.0017020769336057,0.0017020820014881,-0.0017020872161448,0.0017020724389587,-0.0017638130000307,0.0017638118993778,-0.0017638191100029,0.0017638072518194,8.7485626579492e-10,8.7478958500752e-10,-0.00087998920854486,0.00087999089071678,-4.0693299227348e-09,6.0095574249096e-09,-0.0010340309264921,0.0010340307460954,-0.0010340275768831,0.0010340340944171,-0.0010340311239365,0.0010340309434948,-0.0010340277829047,0.0010340343004045,-0.00089376162338529,0.00089376674452701,-0.00089376167534245,0.00089376679673291,0.67521870129065,122718,2924,0.0044217475995321,0.008339628478353,0.0036635661773578,35.926893445401,0.00020261514756321,0.00020261514756321,0.00020261514756321,2745570.1222934,0.016561270685752
35919200,0.99999627899237,0.017545167635121,0.0053930313607437,0.0074802285135027,0.0046719077608747,-0.0010663718446236,0.0010663771893073,2.7904638627297e-09,2.7904029199355e-09,-1.3222214027607e-10,5.4723909376838e-09,-0.0012295773855838,0.0012295815203171,-0.0012295772708147,0.0012295814053888,-0.0012295755174978,0.0012295834161775,-0.0012295754101732,0.0012295833086947,-0.0009959081010526,0.0009959154102856,-0.00099590880629824,0.00099591611537634,1.1425659538062e-09,-4.2782439968179e-09,3.3952371824229e-09,-6.4323189913643e-09,-0.0020113653755643,0.0020113623322988,-0.0022514690038355,0.002251471071823,-0.0022514717068901,0.002251467244283,-0.0022514705908666,0.0022514690496916,-0.002251473293356,0.0022514652215977,-0.0017018729882653,0.0017018778092365,-0.0017018829526813,0.0017018684552005,-0.0017636754017522,0.0017636743360866,-0.0017636813953188,0.0017636696761089,1.5749463453379e-09,1.5748792861714e-09,-0.00088308289551237,0.00088308639468188,-3.2452092921426e-09,6.5884763604668e-09,-0.0010353903211391,0.0010353917985768,-0.0010353870487613,0.0010353950680007,-0.0010353904251499,0.0010353919025424,-0.0010353871630984,0.0010353951823035,-0.00089708158199883,0.00089708810842937,-0.00089708162456192,0.00089708815124185,0.70236606174854,122718,2924,0.0044353476583797,0.0083443287566934,0.0036763987656736,37.534578696326,0.0002154766295706,0.0002154766295706,0.0002154766295706,2767017.6540449,0.016592902473115
36419200,0.99999724846299,0.017545183715615,0.0053930360506952,0.0074802351624847,0.004671912502435,-0.0010655115779696,0.0010655199482335,3.9120875843417e-09,3.9120266725782e-09,8.4040059273399e-10,6.8005266456379e-09,-0.0012300817658292,0.0012300883517962,-0.0012300813247502,0.0012300879105578,-0.0012300797754261,0.0012300903677703,-0.0012300793475834,0.0012300899397695,-0.00099490455226836,0.00099491436789109,-0.00099490524916428,0.00099491506463146,1.2538698367842e-09,-4.4945333933841e-09,3.5700403894814e-09,-6.7078160744704e-09,-0.0020131204195867,0.0020131172752916,-0.0022523056135628,0.0022523078729273,-0.0022523081064976,0.0022523034957987,-0.0022523070312041,0.0022523054382161,-0.0022523095235729,0.0022523010605328,-0.0017044737194244,0.0017044787601026,-0.0017044839711147,0.0017044688261479,-0.0017660816130861,0.0017660806050837,-0.0017660877454783,0.0017660754485416,3.247948525687e-09,3.247881493822e-09,-0.00088279515574023,0.00088280295147724,-1.8083553677201e-09,8.5129740706851e-09,-0.0010364835681149,0.0010364886307972,-0.0010364801247161,0.0010364920674282,-0.0010364834635566,0.0010364885261937,-0.0010364800342342,0.0010364919769118,-0.00089637153448012,0.00089638175974284,-0.00089637154672023,0.0008963817722323,0.69281233609849,122718,2924,0.0044318034161204,0.0083515464200673,0.003675224817518,37.488424239415,0.00021510739391532,0.00021510739391532,0.00021510739391532,2737098.3926719,0.016595457754021
36919200,0.99999794689476,0.017545194856101,0.0053930392885137,0.0074802397860545,0.0046719157815325,-0.0010636860253151,0.0010636955251921,4.3367936269978e-09,4.3367327138369e-09,1.0846829916295e-09,7.4272370979461e-09,-0.0012280111891179,0.0012280186210877,-0.0012280106321857,0.0012280180639962,-0.0012280090735996,0.0012280207652948,-0.0012280085311752,0.0012280202227123,-0.00099318380854033,0.00099319465272278,-0.00099318450637134,0.00099319535039877,1.3726349057106e-09,-4.7461835173515e-09,3.796938070913e-09,-7.0622525567968e-09,-0.0020117191380547,0.0020117158657646,-0.0022513501024884,0.0022513525594656,-0.0022513526542114,0.0022513478449209,-0.0022513515395178,0.0022513498919378,-0.0022513540906751,0.0022513451768389,-0.0017026442702272,0.001702649627495,-0.0017026550332213,0.0017026390679641,-0.0017642418500537,0.0017642408793956,-0.0017642482843588,0.001764235296605,3.8642825701031e-09,3.864215516062e-09,-0.00088102260496487,0.00088103197374704,-1.4812410416029e-09,9.4334669372232e-09,-0.0010344659557883,0.00103447220316,-0.0010344623125707,0.0010344758381677,-0.0010344657747609,0.0010344720220874,-0.0010344621469819,0.0010344756725445,-0.00089468293132895,0.00089469465591428,-0.00089468293248972,0.00089469465732456,0.66632586812933,122718,2924,0.0044242333399309,0.008345762574847,0.0036678709773403,36.862309796093,0.00021009847836874,0.00021009847836874,0.00021009847836874,2739464.7067929,0.016574402731112
37419200,0.99999848590601,0.017545203546605,0.0053930418191682,0.0074802433839738,0.0046719183434632,-0.0010652719114805,0.0010652788458497,3.3911631688665e-09,3.3911021280842e-09,1.3412107241757e-10,6.4435422490309e-09,-0.0012284940471613,0.0012284993193624,-0.0012284937719149,0.0012284990439558,-0.0012284919502034,0.0012285014512056,-0.0012284916836026,0.0012285011844456,-0.00099481900891342,0.00099482782510613,-0.00099481971359686,0.00099482852963643,1.3637128005689e-09,-4.7456980773578e-09,3.8052762935389e-09,-7.0786790652724e-09,-0.0020121827334257,0.002012179452963,-0.002252785658735,0.0022527880799922,-0.002252788522335,0.0022527837004045,-0.0022527873270607,0.0022527856760546,-0.0022527901900973,0.0022527812959116,-0.001702255019037,0.0017022604077811,-0.001702265934054,0.0017022499358526,-0.0017638815168542,0.0017638805316295,-0.0017638880960748,0.001763875101637,2.4494273873861e-09,2.4493604239667e-09,-0.00088250115402102,0.00088250687320915,-2.8930401317569e-09,8.0103040901984e-09,-0.0010348735888431,0.0010348766634087,-0.0010348699577661,0.0010348802896075,-0.0010348735877796,0.0010348766623027,-0.0010348699687914,0.0010348803005989,-0.00089626131078398,0.00089627003684981,-0.00089626133597295,0.00089627006228761,0.67334138454454,122718,2924,0.0044307972935359,0.0083477073250392,0.0036739930809028,37.673130626154,0.00021658504500923,0.00021658504500923,0.00021658504500923,2752263.0268235,0.016589266158477
37919200,0.99999888346336,0.017545209745737,0.0053930436195138,0.0074802459596876,0.0046719201665358,-0.0010648129848838,0.0010648213630913,3.9245237404716e-09,3.9244627085338e-09,6.0520308611188e-10,7.0653848856357e-09,-0.0012285122785766,0.0012285187267573,-0.0012285118459304,0.0012285182939517,-0.0012285101291887,0.0012285209097129,-0.0012285097079143,0.0012285204882802,-0.00099427069275831,0.0009942806956915,-0.00099427139364697,0.0009942813964249,1.4114001486943e-09,-4.835348520363e-09,3.917019093226e-09,-7.2306943620741e-09,-0.0020129929482184,0.00201298962736,-0.0022533546723787,0.00225335720278,-0.0022533574494356,0.0022533525423911,-0.0022533562527401,0.0022533546069031,-0.0022533590292314,0.00225334994596,-0.0017033066969379,0.0017033122526298,-0.0017033177966039,0.001703301455403,-0.0017648295306387,0.0017648285460164,-0.0017648361578344,0.0017648228983567,3.2490516009612e-09,3.2489846337919e-09,-0.00088231995014996,0.0008823277279777,-2.2302051827331e-09,8.9545110608494e-09,-0.0010351972918387,0.0010352020689897,-0.001035193562955,0.0010352057911468,-0.0010351971903648,0.0010352019674708,-0.0010351934753943,0.0010352057035518,-0.00089585019875503,0.00089586070965221,-0.00089585020993881,0.00089586072108531,0.65161955775154,122718,2924,0.004428904241328,0.0083510437558421,0.0036732496234665,37.676456771632,0.00021661165417305,0.00021661165417305,0.00021661165417305,2738969.8538895,0.016589983360168
38419200,0.99999917088642,0.017545214515726,0.0053930450144435,0.0074802479234711,0.0046719215778109,-0.0010637464697842,0.0010637557691319,4.2698100206429e-09,4.2697489096113e-09,8.576948089241e-10,7.5157006843266e-09,-0.0012266068907226,0.001226614073129,-0.0012266063599842,0.0012266135422306,-0.0012266046755264,0.0012266163227934,-0.0012266041575779,0.0012266158046859,-0.00099321586926898,0.00099322667142173,-0.00099321657188756,0.00099322737388453,1.4645744363151e-09,-4.9696947602952e-09,4.0492504081207e-09,-7.4411926109089e-09,-0.0020113479297723,0.0020113445304396,-0.0022525318144874,0.0022525344521226,-0.0022525345950535,0.0022525295572705,-0.0022525333728051,0.0022525317024416,-0.002252536152806,0.0022525268070359,-0.0017009175205075,0.00170092326876,-0.0017009289121695,0.001700912094713,-0.0017624898554394,0.0017624888580564,-0.001762496620414,0.0017624829812074,3.7507603085825e-09,3.7506933869426e-09,-0.00088105103381329,0.00088106009797054,-1.9012990378254e-09,9.6372351732848e-09,-0.0010331322775596,0.0010331380747629,-0.0010331284286241,0.0010331419157057,-0.0010331321111834,0.0010331379083417,-0.0010331282774286,0.0010331417644764,-0.00089467692794567,0.00089468861716386,-0.0008946769311207,0.00089468862058753,0.6925861293677,122718,2924,0.0044244750847648,0.0083442687139598,0.0036679801380643,37.198494801536,0.00021278795841229,0.00021278795841229,0.00021278795841229,2752729.5044401,0.016573229329984
38880000,0.99999937159719,0.017545217893321,0.0053930460028586,0.0074802493132321,0.0046719225772305,-0.0010628895018659,0.0010628979432646,3.9516636807474e-09,3.9516025941671e-09,5.0429778528779e-10,7.232537782406e-09,-0.0012276611714842,0.001227667583959,-0.0012276607373378,0.0012276671496532,-0.001227658936899,0.0012276698563746,-0.0012276585128589,0.0012276694321762,-0.00099220503629864,0.00099221518275952,-0.00099220573787164,0.00099221588417705,1.509399562703e-09,-5.0053857118435e-09,4.1918494196423e-09,-7.5742002203824e-09,-0.0020137440398093,0.0020137406499247,-0.00225350912597,0.0022535118770215,-0.0022535120954754,0.0022535070052637,-0.0022535107870458,0.0022535091878752,-0.0022535137559851,0.0022535043155627,-0.0017046324046685,0.0017046384109052,-0.0017046441015014,0.0017046269953367,-0.0017659667435958,0.001765965748181,-0.0017659736254258,0.0017659598249903,3.304307039212e-09,3.3042401780703e-09,-0.00088090656077168,0.00088091445707384,-2.4760643136996e-09,9.3235100475632e-09,-0.001034899472665,0.0010349041503368,-0.0010348955402995,0.0010349080760741,-0.0010348993711589,0.0010349040487856,-0.0010348954524903,0.0010349079882306,-0.00089403910192577,0.00089404992775587,-0.00089403910627387,0.00089404993235318,0.70236788921193,122718,2924,0.0044209409490017,0.0083541209844365,0.0036673921974838,37.19369140689,0.00021274953125512,0.00021274953125512,0.00021274953125512,2712947.1193482,0.016579073745871
