time,ASR_ext,ASR_strain,ASR_strain_xx,ASR_strain_yy,ASR_strain_zz,disp_x_101,disp_x_102,disp_x_103,disp_x_104,disp_x_105,disp_x_106,disp_x_p1_neg,disp_x_p1_pos,disp_x_p2_neg,disp_x_p2_pos,disp_x_p3_neg,disp_x_p3_pos,disp_x_p4_neg,disp_x_p4_pos,disp_x_p5_neg,disp_x_p5_pos,disp_x_p6_neg,disp_x_p6_pos,disp_y_101,disp_y_102,disp_y_103,disp_y_104,disp_y_105,disp_y_106,disp_y_p1_neg,disp_y_p1_pos,disp_y_p2_neg,disp_y_p2_pos,disp_y_p3_neg,disp_y_p3_pos,disp_y_p4_neg,disp_y_p4_pos,disp_y_p5_neg,disp_y_p5_pos,disp_y_p6_neg,disp_y_p6_pos,disp_y_p7_neg,disp_y_p7_pos,disp_y_p8_neg,disp_y_p8_pos,disp_z_101,disp_z_102,disp_z_103,disp_z_104,disp_z_105,disp_z_106,disp_z_p1_neg,disp_z_p1_pos,disp_z_p2_neg,disp_z_p2_pos,disp_z_p3_neg,disp_z_p3_pos,disp_z_p4_neg,disp_z_p4_pos,disp_z_p5_neg,disp_z_p5_pos,disp_z_p6_neg,disp_z_p6_pos,humidity,ndof,nelem,strain_xx,strain_yy,strain_zz,temp,thermal_strain_xx,thermal_strain_yy,thermal_strain_zz,vonmises,vstrain
2419200,0,0,0,0,0,0,0,0,0,0,0,0,0,0,0,0,0,0,0,0,0,0,0,0,0,0,0,0,0,0,0,0,0,0,0,0,0,0,0,0,0,0,0,0,0,0,0,0,0,0,0,0,0,0,0,0,0,0,0,0,0,0,0,0,0,0,0,0,0,0,0,0,0,0,0
2919200,0.076491368411176,0.0015612851275877,0.00052042837586258,0.00052042837586258,0.00052042837586258,-0.00015862631845863,0.0001586069245671,-7.4015693536351e-09,-7.4015693574667e-09,-6.0163472329488e-09,-8.6957791560408e-09,-0.00015973502125987,0.00015971958924765,-0.00015973655971266,0.00015972112770017,-0.00015973592492177,0.00015971868181886,-0.00015973743583932,0.00015972019273627,-0.00016118449511277,0.00016116806579724,-0.00016118539885925,0.00016116896954276,-8.1154280382882e-10,1.697901263701e-09,-9.4756645527464e-10,1.7977425462875e-09,-0.00017149618099333,0.00017149703455105,-0.00017108361832199,0.00017108256153439,-0.00017108419362148,0.00017108511883014,-0.00017108427292836,0.00017108503663987,-0.00017108484822812,0.00017108759393567,-0.00017090561025383,0.00017090466389306,-0.0001709040360253,0.00017090840858525,-0.00017090545057376,0.00017090482657343,-0.00017090409170395,0.00017090835100071,-7.4214585361948e-09,-7.4214584622125e-09,-0.0001586263384395,0.00015860690458629,-5.9342033511904e-09,-8.8212886762504e-09,-0.00015973499096883,0.00015971960043037,-0.0001597359939725,0.00015971863152459,-0.00015973653198532,0.00015972114144651,-0.00015973750267718,0.00015972014022917,-0.00016118545686097,0.00016116891474461,-0.00016118455831888,0.00016116801620119,0.81617709598388,122718,2924,0.00066068414959361,0.00071431269623455,0.00066068414959374,32.419177344214,0.00017455341875371,0.00017455341875371,0.00017455341875371,1291064.4461671,0.0020377561467188
3419200,0.15568654255535,0.0030956016093562,0.0010116235429915,0.0010723545233735,0.0010116235429912,-0.00026608291328096,0.00026606488277007,-7.1894544780631e-09,-7.1895200777265e-09,-6.1748188510406e-09,-8.2133432890592e-09,-0.00027341058635355,0.00027339539268027,-0.00027341269718556,0.00027339750330547,-0.00027341125800112,0.00027339471472584,-0.0002734133502097,0.00027339680672643,-0.00026963981262669,0.00026962418580294,-0.00026964140254468,0.00026962577548612,-7.1270246773765e-10,1.1555005270903e-09,-8.3145182436456e-10,1.2361628898517e-09,-0.0003085536045893,0.00030855401610044,-0.00031108303935306,0.00031108209803387,-0.00031108479554439,0.00031108526665652,-0.00031108486560471,0.00031108519656778,-0.00031108662197515,0.00031108836534696,-0.0003030164220272,0.00030301546783459,-0.00030301696074631,0.00030302002523656,-0.00030301628079528,0.00030301561063578,-0.00030301700485717,0.00030301998000343,-7.1977100531973e-09,-7.1977756211067e-09,-0.00026608292145031,0.0002660648746007,-6.0982415712001e-09,-8.3091421447459e-09,-0.00027341055021331,0.00027339540973185,-0.00027341130943985,0.00027339468219748,-0.00027341266270835,0.00027339752201935,-0.00027341340016186,0.00027339677271203,-0.00026964144116265,0.00026962573828816,-0.0002696398545664,0.00026962415192144,0.78776539088642,122718,2924,0.0011080323646978,0.0012848076735248,0.0011080323646977,31.910901949318,0.00017048721559455,0.00017048721559455,0.00017048721559455,2210858.1488219,0.003507013354103
3919200,0.24254805510586,0.0047205764245715,0.0014985158395551,0.0017235447454612,0.0014985158395552,-0.00037396510486254,0.00037395565913618,-3.6610330275322e-09,-3.6610838659975e-09,-4.1334787767574e-09,-2.7050062741357e-09,-0.00039005711594396,0.00039004853267941,-0.00039005844350144,0.000390049860044,-0.00039005666179347,0.00039004901676025,-0.00039005798086054,0.00039005033563293,-0.00037740308267181,0.00037739562080817,-0.00037740393408402,0.0003773964719957,3.7330484423443e-10,-1.1330135462874e-09,6.6339675131697e-10,-1.4060003648599e-09,-0.00047181553421299,0.00047181479155814,-0.0004846076446995,0.00048460807652417,-0.00048460963393942,0.0004846087107043,-0.00048460945354005,0.00048460890138159,-0.00048461144291841,0.00048460953568694,-0.00045275892689634,0.00045275974976468,-0.00045276163153627,0.0004527583579686,-0.00045275929559492,0.0004527593708602,-0.00045276146200065,0.00045275853424264,-3.6016852749853e-09,-3.6017360899449e-09,-0.00037396504501283,0.00037395571898606,-4.3416221349387e-09,-2.3676093016063e-09,-0.00039005715641064,0.00039004850407057,-0.00039005650517546,0.00039004916284469,-0.000390058480959,0.00039004982842528,-0.00039005782592632,0.00039005048340183,-0.00037740378131298,0.00037739662246696,-0.00037740292556195,0.00037739576693617,0.77553103143358,122718,2924,0.0015569828541255,0.0019639407009887,0.0015569828541259,32.496688406186,0.00017517350724949,0.00017517350724949,0.00017517350724949,3125875.9370572,0.0050908348441461
4419200,0.33762932164413,0.0064727292138235,0.0019999749202219,0.0024727793733792,0.0019999749202223,-0.00048495585558479,0.00048495101685207,-1.6390280123928e-09,-1.639087921737e-09,-2.6676767049531e-09,-5.9331334584632e-10,-0.00051134172394148,0.00051133751315423,-0.00051134244908038,0.00051133823812455,-0.00051134103901767,0.00051133821584973,-0.00051134176551144,0.00051133894217281,-0.00048820722009593,0.00048820421618294,-0.00048820761386937,0.00048820460974036,2.5326275208501e-10,-1.8183125682109e-09,5.9995263471178e-10,-2.1181983280539e-09,-0.00066065071232117,0.00066064918771425,-0.00069028489524046,0.00069028495173012,-0.00069028653683644,0.00069028480849948,-0.00069028631806075,0.00069028502932567,-0.00069028795981641,0.00069028488623753,-0.00062105062548882,0.00062105111714161,-0.00062105434450059,0.00062104946588164,-0.00062105107244844,0.0006210506604638,-0.00062105416076065,0.00062104965628261,-1.5891354829733e-09,-1.5891953390133e-09,-0.00048495580534238,0.00048495106709474,-2.9117700706142e-09,-2.3557854715805e-10,-0.00051134177888921,0.00051133746810963,-0.00051134088860459,0.00051133835866961,-0.00051134250054194,0.00051133818959329,-0.00051134161627429,0.00051133908616952,-0.00048820746106714,0.00048820475900034,-0.0004882070604231,0.00048820435856623,0.77667599240978,122718,2924,0.0020186864592554,0.0027488601572051,0.002018686459256,33.598702052643,0.00018398961642114,0.00018398961642114,0.00018398961642114,3939818.2162452,0.0068093430628993
4919200,0.44091592747038,0.0083571739006208,0.0025154632358231,0.0033262474289739,0.0025154632358238,-0.00059825694350713,0.00059825414922291,-8.3171325429717e-10,-8.3176300195902e-10,-1.9198857418268e-09,3.0151890924547e-10,-0.00063776271822381,0.00063776044011651,-0.00063776312211121,0.00063776084381161,-0.00063776197523816,0.00063776119073349,-0.00063776238337368,0.00063776159867564,-0.00060017595227603,0.00060017464676717,-0.00060017627951499,0.00060017497377798,3.4818915523679e-10,-1.8379803961664e-09,7.8982205353724e-10,-2.2262039362626e-09,-0.00087748265399767,0.00087748121257107,-0.00093027291526074,0.00093027318789586,-0.00093027419757154,0.00093027249994507,-0.00093027391994086,0.00093027278114906,-0.00093027520237327,0.00093027209330388,-0.00081037371284723,0.00081037454807726,-0.00081037745300848,0.00081037231798164,-0.0008103742890494,0.00081037396354338,-0.00081037721181186,0.00081037256504137,-7.8476826221387e-10,-7.8481806996249e-10,-0.00059825689693295,0.00059825419579746,-2.2545668462069e-09,7.4453022409618e-10,-0.00063776280257456,0.00063776036189462,-0.0006377618037186,0.0006377613577119,-0.00063776320366364,0.00063776076279097,-0.00063776221306495,0.00063776176686541,-0.00060017610147355,0.00060017514875363,-0.00060017576717808,0.00060017481468049,0.77771912519717,122718,2924,0.0024898386835889,0.0036493720394461,0.0024898386835897,35.343639294185,0.00019794911435348,0.00019794911435348,0.00019794911435348,4559950.0595334,0.0086664517782926
5419200,0.54166998067065,0.010159603537401,0.0029865030180875,0.0041865975012249,0.0029865030180882,-0.00069731820809466,0.000697317919399,2.1336146307876e-10,2.1330884711086e-10,-1.2663851068815e-09,1.4641652753147e-09,-0.0007516821413247,0.00075168203111333,-0.00075168228893931,0.00075168217856869,-0.00075168122512692,0.00075168295194972,-0.00075168137857396,0.0007516831052358,-0.00069623816616965,0.00069623923497855,-0.00069623835488416,0.00069623942346929,3.6273781102063e-10,-2.3087927387902e-09,8.743694393197e-10,-2.7589410566269e-09,-0.0010956828170925,0.0010956809271423,-0.0011754994259661,0.0011754996229091,-0.0011755007187618,0.001175498531456,-0.0011755003952377,0.0011754988573225,-0.0011755016881566,0.0011754977659764,-0.00099689581386255,0.00099689664380945,-0.00099690041029085,0.00099689406039279,-0.00099689648259911,0.00099689596539054,-0.00099690013070385,0.00099689434674739,2.6359063797224e-10,2.6353828563315e-10,-0.00069731815810908,0.00069731796938501,-1.6573646205309e-09,1.9733700516619e-09,-0.00075168224191389,0.00075168193584346,-0.0007516810321216,0.00075168314242452,-0.00075168238592071,0.00075168207969082,-0.00075168118638772,0.00075168329653039,-0.00069623815235705,0.00069623962200922,-0.00069623795586958,0.00069623942573911,0.76998245855651,122718,2924,0.0029016865352126,0.0045547219247445,0.0029016865352135,36.272948557069,0.00020538358845655,0.00020538358845655,0.00020538358845655,4973333.2375265,0.010412040819447
5919200,0.63302510694848,0.011679598870405,0.0033662170933932,0.0049471646836177,0.003366217093394,-0.00077214793096403,0.00077214991937882,1.1062333439005e-09,1.106178358037e-09,-6.2019274105402e-10,2.6482076855436e-09,-0.00084247864014766,0.0008424804898674,-0.0008424785770482,0.00084248042659005,-0.00084247754295753,0.00084248159136333,-0.00084247748794923,0.00084248153617607,-0.00076476243085856,0.00076476556545182,-0.00076476259483534,0.00076476572920813,5.2113878662662e-10,-2.6578753118513e-09,1.136470277319e-09,-3.2017737040111e-09,-0.0012896546275212,0.0012896525568146,-0.0014006127261634,0.0014006131608264,-0.0014006139241878,0.0014006114945523,-0.0014006135345274,0.0014006118871811,-0.0014006147326652,0.0014006102210044,-0.0011550623148573,0.0011550634835448,-0.0011550673114085,0.0011550599192609,-0.0011550631178642,0.0011550626696926,-0.0011550669734375,0.0011550602647747,1.1617010435254e-09,1.1616462353597e-09,-0.00077214787606609,0.00077214997427723,-1.0985042143326e-09,3.2578405469369e-09,-0.00084247876831828,0.00084248036794252,-0.0008424773137557,0.000842481817036,-0.00084247870149863,0.00084248030094473,-0.00084247725975138,0.00084248176285327,-0.00076476235569686,0.0007647659646308,-0.0007647621827989,0.00076476579194729,0.72322607247947,122718,2924,0.0032127915562628,0.0053588469019387,0.0032127915562638,36.77908961947,0.00020943271695576,0.00020943271695576,0.00020943271695576,5199309.3160339,0.011854312417872
6419200,0.71038594266703,0.012930650397785,0.0036727796525071,0.0055850910927704,0.003672779652508,-0.00082765593891159,0.00082766007048064,1.9526164885022e-09,1.952561585393e-09,-9.6737297354101e-11,3.773760881519e-09,-0.00091145163690309,0.00091145534225496,-0.00091145137562547,0.00091145508080513,-0.00091145033740192,0.00091145664684153,-0.00091145008661733,0.00091145639588356,-0.00081471307830959,0.00081471822051953,-0.00081471327031077,0.00081471841230303,6.1582628798845e-10,-3.132377336846e-09,1.3242549205094e-09,-3.7592275423555e-09,-0.0014515916708785,0.0014515892300646,-0.0015938476635881,0.0015938481810672,-0.0015938488321904,0.0015938459775434,-0.0015938483840991,0.0015938464303875,-0.0015938495528132,0.0015938442269598,-0.0012824813665262,0.0012824827042156,-0.0012824870995231,0.0012824784157861,-0.0012824822890718,0.0012824817677821,-0.0012824867105863,0.0012824788143254,2.0193645408564e-09,2.019310240473e-09,-0.00082765587274363,0.0008276601366491,-6.4414027401561e-10,4.4794275749585e-09,-0.00091145178325416,0.00091145520401699,-0.00091145006949482,0.00091145691014912,-0.0009114515174762,0.00091145493806688,-0.00091144981969719,0.00091145666017893,-0.00081471299185535,0.00081471868657926,-0.00081471278973702,0.00081471848467174,0.70960752379305,122718,2924,0.0034435975938476,0.0060296799253726,0.0034435975938487,36.741514791577,0.00020913211833262,0.00020913211833262,0.00020913211833262,5346737.0501493,0.013000889943949
6919200,0.78006707816433,0.014094471229514,0.0039605736595651,0.0061733239103825,0.0039605736595661,-0.00087997264085474,0.00087997472574442,1.173972254516e-09,1.173916920647e-09,-7.681185988809e-10,2.8684549624934e-09,-0.00097671725009239,0.00097671938757113,-0.0009767171297918,0.00097671926709733,-0.0009767160267467,0.00097672061292497,-0.00097671591369154,0.00097672049969549,-0.00086381760544724,0.0008638210584407,-0.00086381790649233,0.00086382135927055,4.9440305167908e-10,-3.0321454559788e-09,1.2488208413217e-09,-3.7067899155831e-09,-0.0016086728336186,0.0016086703704039,-0.00177867011286,0.0017786704691734,-0.0017786713010708,0.0017786683939346,-0.0017786708217514,0.0017786688781654,-0.0017786720100707,0.0017786668030192,-0.0014092077073292,0.0014092089801761,-0.0014092134521607,0.0014092049422991,-0.0014092086932704,0.0014092079788207,-0.001409213031957,0.0014092053731917,1.2435085179092e-09,1.2434539337049e-09,-0.00087997257197636,0.00087997479462332,-1.3578405161396e-09,3.6245964322968e-09,-0.00097671740634401,0.00097671923557702,-0.00097671574480309,0.000976720894649,-0.00097671728169181,0.00097671911075178,-0.00097671563206184,0.00097672078173431,-0.00086381761039882,0.00086382165175527,-0.00086381729978377,0.00086382134134831,0.73388447265251,122718,2924,0.003661142414647,0.0066799363408851,0.0036611424146482,38.624422695642,0.00022419538156513,0.00022419538156513,0.00022419538156513,5311212.835006,0.01410101299044
7419200,0.8401169104481,0.015032519824136,0.0041893216754266,0.0066538764732821,0.0041893216754276,-0.00091608744463091,0.0009160887710346,8.510822154637e-10,8.5102664467135e-10,-9.5589492275928e-10,2.3766880617523e-09,-0.0010278299530421,0.0010278315064061,-0.0010278298875772,0.0010278314407673,-0.0010278288279096,0.0010278326293012,-0.001027828768206,0.0010278325694227,-0.00089495076276088,0.00089495346599678,-0.00089495110015106,0.00089495380317296,3.9488669495312e-10,-2.8362254960815e-09,1.1500036017676e-09,-3.5157968759364e-09,-0.0017433531539602,0.0017433507839132,-0.0019384331596358,0.0019384334099944,-0.0019384343622191,0.0019384315462173,-0.0019384338804057,0.0019384320318595,-0.0019384350830942,0.0019384301681719,-0.0015154876803692,0.0015154888622477,-0.0015154932649861,0.0015154852297264,-0.001515488670286,0.001515487857195,-0.0015154928404633,0.0015154856647812,9.1684104861693e-10,9.1678676959267e-10,-0.00091608737964485,0.0009160888360212,-1.5531327712129e-09,3.1331754503208e-09,-0.0010278301119868,0.0010278313482213,-0.0010278285514173,0.001027832909196,-0.0010278300426099,0.0010278312786711,-0.0010278284914633,0.0010278328490683,-0.00089495080711938,0.00089495409319638,-0.00089495046096516,0.00089495374724797,0.68603447533876,122718,2924,0.0038114255233834,0.00723707383017,0.0038114255233845,40.763139362147,0.00024130511489717,0.00024130511489717,0.00024130511489717,5086325.6901914,0.014971274424832
7919200,0.88522498954354,0.015717612375012,0.0043573645146747,0.0070028833456619,0.0043573645146758,-0.00093524661148625,0.0009352516004783,2.2373977237982e-09,2.2373420602126e-09,1.4054451568578e-10,4.059701149446e-09,-0.0010567314488018,0.0010567360041353,-0.0010567311084284,0.0010567356635879,-0.0010567301260257,0.001056737325506,-0.0010567297955913,0.0010567369948964,-0.0009102474404466,0.00091025329327207,-0.0009102477888089,0.0009102536414213,5.6642821518331e-10,-3.2139804382802e-09,1.3562429590615e-09,-3.9204414705571e-09,-0.0018369671126602,0.0018369645440584,-0.0020544053997759,0.0020544058723334,-0.0020544065320057,0.0020544034990357,-0.0020544060292261,0.0020544040060164,-0.0020544071615591,0.0020544016328062,-0.0015848238982078,0.0015848252876888,-0.0015848299923257,0.0015848209772989,-0.001584824930186,0.0015848242398396,-0.001584829552385,0.0015848214282311,2.3059130795743e-09,2.305858427634e-09,-0.00093524654385824,0.00093525166810685,-4.8053961313879e-10,4.8469458521148e-09,-0.0010567316171091,0.0010567358395134,-0.0010567298356462,0.0010567376164974,-0.0010567312724282,0.0010567354946587,-0.0010567295052223,0.0010567372858993,-0.00091024748338707,0.00091025394353025,-0.00091024712519122,0.00091025358553983,0.66517730019745,122718,2924,0.0038912617116732,0.0076241736794303,0.0038912617116744,40.956098557369,0.00024284878845895,0.00024284878845895,0.00024284878845895,4937151.7154976,0.015526444522744
8419200,0.91881103145207,0.016220506274637,0.004482844230035,0.0072548178145661,0.004482844230036,-0.00094650681403477,0.00094651168483884,2.193287532281e-09,2.1932315143724e-09,-2.7270375265372e-11,4.1532252431138e-09,-0.001076734515051,0.001076738930458,-0.0010767341902318,0.0010767386054643,-0.0010767331083819,0.001076740338864,-0.0010767327923822,0.0010767400226887,-0.0009185158167189,0.00091852166773887,-0.00091851621166985,0.00091852206247682,6.3849376951245e-10,-3.4007302610249e-09,1.4915599069275e-09,-4.1664167323582e-09,-0.0019087213801605,0.001908718700856,-0.0021428048379733,0.0021428054085095,-0.0021428060739001,0.0021428028911809,-0.0021428055313412,0.0021428034396826,-0.0021428067673698,0.0021428009224401,-0.0016383489121013,0.0016383504813071,-0.0016383553851563,0.0016383457987506,-0.0016383500249005,0.0016383493503422,-0.0016383549084876,0.0016383462880004,2.268140162851e-09,2.2680856612555e-09,-0.00094650674012197,0.00094651175875219,-6.9964596000206e-10,5.0072347595264e-09,-0.0010767346983475,0.001076738752178,-0.0010767327917208,0.0010767406552061,-0.001076734368825,0.0010767384224816,-0.0010767324757268,0.001076740339038,-0.00091851588006941,0.00091852239077634,-0.00091851547473681,0.00091852198564812,0.65392243933441,122718,2924,0.0039382670664904,0.0079207493583611,0.0039382670664916,41.432377441631,0.00024665901953305,0.00024665901953305,0.00024665901953305,4717028.8361223,0.015923231463198
8919200,0.94329634022326,0.016573466493014,0.0045719539360909,0.0074295586208314,0.0045719539360919,-0.00095157490352848,0.00095158005150662,2.2972366335823e-09,2.2971802298738e-09,-9.8526680794445e-12,4.3541423701747e-09,-0.0010892389660611,0.0010892435867451,-0.0010892386259713,0.0010892432464804,-0.0010892374994868,0.0010892450565707,-0.0010892371678487,0.0010892447247566,-0.00092104203723195,0.00092104817405936,-0.00092104246136763,0.0009210485979817,6.8829789073661e-10,-3.5294937925639e-09,1.6053287883075e-09,-4.356517787372e-09,-0.0019610927692664,0.0019610900136516,-0.0022076455074433,0.002207646162998,-0.0022076468044652,0.0022076435051609,-0.0022076462214972,0.0022076440959736,-0.0022076475186198,0.0022076414382216,-0.0016769905233918,0.0016769922553381,-0.0016769972820784,0.0016769872615604,-0.0016769917182605,0.0016769910398353,-0.0016769967669964,0.0016769877909603,2.3783522356243e-09,2.3782979821793e-09,-0.0009515748233892,0.00095158013164645,-7.3549252873752e-10,5.2768127705665e-09,-0.0010892391646171,0.0010892433940647,-0.0010892371564008,0.0010892453989154,-0.0010892388194619,0.0010892430487357,-0.0010892368246933,0.0010892450670338,-0.00092104210312025,0.00092104895297853,-0.00092104166825611,0.00092104851831789,0.6273419836427,122718,2924,0.0039595274670854,0.0081371340293879,0.0039595274670866,41.891396899485,0.00025033117519588,0.00025033117519588,0.00025033117519588,4486832.7041968,0.016186345877789
9419200,0.9600565143183,0.016811596868101,0.0046331088607892,0.007545379146522,0.0046331088607902,-0.00095104625118746,0.00095105430465848,3.4088574935707e-09,3.4088018569008e-09,7.8474676679701e-10,5.8138864564066e-09,-0.0010931120172575,0.0010931190093042,-0.0010931114627609,0.001093118454633,-0.0010931103294772,0.0010931207039448,-0.001093109786401,0.0010931201606931,-0.00091884930924313,0.00091885802570528,-0.00091884977939882,0.00091885849564944,8.6900261221376e-10,-3.9791339092493e-09,1.8749235500784e-09,-4.8858293396204e-09,-0.0019936211162997,0.0019936181005088,-0.0022499358339681,0.0022499367308263,-0.0022499371226423,0.0022499335099841,-0.0022499364849506,0.0022499341582632,-0.0022499377737249,0.0022499309375055,-0.0016990966866217,0.001699098725242,-0.0016991041129591,0.0016990928395698,-0.0016990979929454,0.0016990973949855,-0.0016991035493231,0.0016990934198167,3.4998008023077e-09,3.4997455164015e-09,-0.00095104616127691,0.00095105439456959,-8.9148034235807e-12,6.8280653960731e-09,-0.0010931122365585,0.0010931187999205,-0.0010931099478316,0.0010931210813656,-0.0010931116761586,0.001093118239346,-0.0010931094049669,0.001093120538326,-0.00091884938414643,0.00091885888727124,-0.00091884890193296,0.00091885840526305,0.61542000253286,122718,2924,0.0039575012106937,0.0082715225269572,0.0039575012106949,41.15114002992,0.00024440912023936,0.00024440912023936,0.00024440912023936,4328179.3153233,0.016318831341453
9919200,0.9713299745235,0.016971476067949,0.0046748353663905,0.0076218053351668,0.0046748353663915,-0.00094790794284966,0.0009479176340285,4.0417870463952e-09,4.0417311961164e-09,1.0886939941072e-09,6.8064055949812e-09,-0.0010936752977223,0.0010936835390822,-0.0010936746290062,0.0010936828701914,-0.0010936733853899,0.001093685464946,-0.0010936727286445,0.001093684808025,-0.00091449734536067,0.00091450762938399,-0.00091449785831721,0.00091450814212871,1.0655121588055e-09,-4.4509537611237e-09,2.2019540939904e-09,-5.4785769414116e-09,-0.0020153045281824,0.0020153012460984,-0.0022778854550224,0.002277886623478,-0.0022778868793464,0.0022778829200597,-0.0022778861604874,0.0022778836536868,-0.0022778875849111,0.0022778799503527,-0.0017139873402892,0.0017139897907222,-0.0017139955937778,0.0017139829299767,-0.0017139888117488,0.0017139882903846,-0.0017139949555591,0.0017139835882767,4.1466287809952e-09,4.1465736195429e-09,-0.00094790783906769,0.00094791773781101,1.9078686341581e-10,7.9581228978275e-09,-0.0010936755479982,0.0010936833033537,-0.0010936729474148,0.0010936858949108,-0.0010936748722814,0.0010936826274624,-0.0010936722911335,0.0010936852384546,-0.00091449740827661,0.00091450858821668,-0.00091449688187953,0.00091450806202445,0.61191532337571,122718,2924,0.0039446047743904,0.0083610749543312,0.0039446047743916,39.828054870754,0.00023382443896603,0.00023382443896603,0.00023382443896603,4184657.119628,0.016383660780814
10419200,0.97890551573679,0.017080845050557,0.004703820081,0.0076732048885555,0.0047038200810011,-0.00094339761362493,0.00094340845425831,4.4843608138112e-09,4.4843049435663e-09,1.3619387444673e-09,7.4411396031753e-09,-0.0010921907110041,0.0010921998644295,-0.0010921899629188,0.0010921991161698,-0.0010921886796516,0.0010922019119863,-0.0010921879441595,0.0010922011763212,-0.00090919678663415,0.00090920812780929,-0.00090919733651226,0.00090920867747482,1.1703271300154e-09,-4.6937664811265e-09,2.3864267764766e-09,-5.7963965441232e-09,-0.0020294536202622,0.0020294502045889,-0.0022959698875444,0.0022959712129723,-0.0022959713578909,0.0022959672153299,-0.0022959705891135,0.0022959680012883,-0.0022959720595574,0.002295964003729,-0.0017237768389501,0.00172377953084,-0.0017237855317033,0.0017237721263579,-0.0017237784116874,0.0017237779262902,-0.0017237848468767,0.0017237728333533,4.5966883534658e-09,4.5966331728786e-09,-0.00094339750237702,0.00094340856550653,3.9821485216255e-10,8.6768966486339e-09,-0.0010921909810231,0.001092199611117,-0.001092188208411,0.0010922023735693,-0.0010921902253589,0.0010921988552828,-0.0010921874734458,0.0010922016384292,-0.00090919685377078,0.00090920915617331,-0.000909196289815,0.00090920859242296,0.62047456211481,122718,2924,0.0039259836733885,0.0084194882173873,0.0039259836733893,38.099893103463,0.0002199991448277,0.0002199991448277,0.0002199991448277,4064385.6776,0.016405201293603
10919200,0.98446053899333,0.017158305736884,0.0047244150386856,0.0077094756595114,0.0047244150386866,-0.00094172564537322,0.00094173298426135,3.1488115214915e-09,3.1487557608003e-09,1.5361390187538e-10,5.9560491237289e-09,-0.0010935791314658,0.001093585280328,-0.0010935786516057,0.0010935848002932,-0.0010935771989233,0.0010935872316402,-0.0010935767260397,0.001093586758581,-0.00090681860571728,0.00090682702133754,-0.00090681911775643,0.00090682753316525,1.1061386708699e-09,-4.5203140070982e-09,2.4342516292248e-09,-5.7386089037901e-09,-0.0020427276893007,0.0020427243794558,-0.0023115735289364,0.0023115748383147,-0.0023115753029191,0.0023115711910345,-0.0023115744619366,0.0023115720530035,-0.0023115762360183,0.0023115684058068,-0.0017342849938353,0.0017342878737011,-0.0017342937967493,0.0017342805841457,-0.0017342867132253,0.0017342861178933,-0.0017342930375481,0.0017342813688304,3.2717467811482e-09,3.271691582766e-09,-0.00094172552348601,0.0009417331061491,-9.1161789446379e-10,7.3193384193522e-09,-0.0010935794284593,0.0010935849989111,-0.0010935766814339,0.0010935877414214,-0.0010935789406319,0.0010935845109092,-0.0010935762086496,0.0010935872684622,-0.00090681858667456,0.00090682806066131,-0.00090681806103355,0.00090682753522502,0.59839955005405,122718,2924,0.0039191165998221,0.0084742721212824,0.0039191165998233,37.946235614852,0.00021876988491881,0.00021876988491881,0.00021876988491881,3939803.7393901,0.01644694822332
11419200,0.98850804594957,0.017214604901085,0.0047395147785441,0.0077355753439956,0.0047395147785451,-0.0009396770287749,0.00093968477483834,3.3006979663325e-09,3.3006421381306e-09,3.2436322668527e-10,6.0911122515254e-09,-0.001091991071234,0.0010919976019301,-0.0010919905595603,0.001091997090082,-0.0010919891484861,0.0010919995420476,-0.001091988644352,0.0010919990377379,-0.00090455656311318,0.00090456529352038,-0.00090455708567809,0.00090456581587376,1.0800097748545e-09,-4.5052731958788e-09,2.4440419181382e-09,-5.7598499954187e-09,-0.0020496534556005,0.0020496501344536,-0.0023218075743833,0.0023218088744264,-0.002321809316725,0.0023218051702537,-0.002321808453156,0.0023218060564128,-0.0023218101955964,0.002321802352323,-0.0017378436282197,0.0017378465392239,-0.0017378524453168,0.001737839204351,-0.0017378453942691,0.0017378447347669,-0.0017378516629153,0.0017378400136537,3.429458881808e-09,3.429403567258e-09,-0.00093967690112352,0.00093968490248973,-7.6955982624026e-10,7.4969422002954e-09,-0.0010919913743149,0.0010919973141398,-0.0010919886144785,0.0010920000689792,-0.0010919908544751,0.0010919967941257,-0.0010919881102956,0.0010919995646214,-0.00090455653706709,0.00090456636102792,-0.00090455600083962,0.00090456582500576,0.59529609920495,122718,2924,0.0039106586800415,0.0085028921728141,0.0039106586800416,37.628520443569,0.00021622816354855,0.00021622816354855,0.00021622816354855,3888385.9752521,0.016458846771622
11919200,0.9914414010256,0.017256292749751,0.0047508084946064,0.007754675760537,0.0047508084946074,-0.00093740835319837,0.00093741663844324,3.506508209469e-09,3.5064523540624e-09,5.128874860015e-10,6.3215193404528e-09,-0.0010910851475189,0.0010910921438045,-0.0010910845975942,0.001091091593704,-0.0010910832095199,0.0010910940985064,-0.0010910826677542,0.0010910935565636,-0.00090193988011078,0.00090194906102551,-0.00090194041830061,0.00090194959900279,1.0915798473967e-09,-4.5295266211886e-09,2.4865299125709e-09,-5.8148076654996e-09,-0.0020558644532491,0.0020558611196729,-0.0023296114149094,0.0023296127522336,-0.0023296131373483,0.002329608958343,-0.0023296122540092,0.0023296098651505,-0.002329613976545,0.0023296060713422,-0.0017422756548477,0.0017422786353351,-0.001742284544902,0.0017422711840654,-0.0017422774608728,0.0017422767897865,-0.0017422837429536,0.0017422720137403,3.6376591920896e-09,3.6376039048741e-09,-0.00093740822317302,0.00093741676846861,-6.0850388068296e-10,7.7608087970321e-09,-0.0010910854585987,0.0010910918481024,-0.0010910826633075,0.0010910946377656,-0.0010910849003738,0.0010910912897039,-0.001091082121416,0.0010910940956986,-0.00090193985719332,0.00090195015671666,-0.00090193930531788,0.00090194960504504,0.60696177416028,122718,2924,0.0039012877609831,0.0085285269996017,0.0039012877609832,37.105074316069,0.00021204059452855,0.00021204059452855,0.00021204059452855,3820548.4522468,0.016465863936746
12419200,0.99360096308432,0.017287306466329,0.0047592646961245,0.0077687770740786,0.0047592646961255,-0.00093557678620087,0.00093558459825818,3.3262602225794e-09,3.3262044490498e-09,3.4877098280426e-10,6.1255300064395e-09,-0.001091242949372,0.0010912495303189,-0.0010912424384274,0.001091249019199,-0.0010912410228594,0.001091251473692,-0.0010912405192531,0.0010912509699115,-0.00089978929322657,0.00089979808015573,-0.00089978982958762,0.00089979861630411,1.0925590300716e-09,-4.502578918893e-09,2.5115405824533e-09,-5.8126997762471e-09,-0.0020619004638148,0.0020618971574028,-0.0023360770778797,0.0023360784354888,-0.0023360788494298,0.0023360746812499,-0.002336077950231,0.0023360756042946,-0.0023360797218792,0.0023360718501386,-0.0017475947736048,0.0017475978142091,-0.0017476036979989,0.0017475903502651,-0.0017475966111661,0.0017475959365698,-0.001747602879998,0.0017475911964233,3.4574310689865e-09,3.4573758116185e-09,-0.00093557665613794,0.00093558472832196,-7.9713175740728e-10,7.5899195481209e-09,-0.0010912432684945,0.0010912492262669,-0.0010912404686851,0.0010912520213299,-0.0010912427492391,0.001091248706837,-0.0010912399648569,0.0010912515173257,-0.00089978926027964,0.00089979918233604,-0.00089978871040337,0.00089979863266428,0.61229629680075,122718,2924,0.0038937284144486,0.0085534152411648,0.0038937284144505,36.80245942822,0.00020961967542576,0.00020961967542576,0.00020961967542576,3740217.0869251,0.016475809862553
12919200,0.99517208555293,0.017309174055583,0.004765227428832,0.007778719197918,0.004765227428833,-0.00093283645936439,0.0009328451521509,3.6620721188135e-09,3.6620163921408e-09,6.4729709654192e-10,6.5113218758804e-09,-0.0010898290808054,0.0010898364057708,-0.0010898285075253,0.0010898358323165,-0.0010898271236974,0.0010898383791793,-0.0010898265588002,0.0010898378141063,-0.00089694047276783,0.00089695000183636,-0.00089694102832528,0.00089695055718207,1.1192811595524e-09,-4.5538095895958e-09,2.5632123117998e-09,-5.8880695870453e-09,-0.0020651125744191,0.0020651092442842,-0.002339887475745,0.0023398888863251,-0.0023398892076509,0.0023398849997809,-0.0023398882925673,0.0023398859393074,-0.0023398900245718,0.0023398820528462,-0.0017499850375998,0.0017499881503185,-0.0017499940483967,0.0017499805267127,-0.0017499869070959,0.0017499862399458,-0.0017499932151499,0.0017499813886953,3.794611334427e-09,3.794556069141e-09,-0.00093283632793064,0.00093284528358521,-5.2088381965098e-10,8.0015775951996e-09,-0.0010898294069812,0.0010898360950195,-0.0010898265600575,0.0010898389360702,-0.0010898288252699,0.001089835513132,-0.0010898259949171,0.0010898383707546,-0.0008969404495918,0.00089695113262742,-0.00089693988044119,0.00089695056368082,0.5929858682642,122718,2924,0.0038823898552445,0.0085666529764794,0.0038823898552458,36.136874939934,0.00020429499951947,0.00020429499951947,0.00020429499951947,3681983.1044086,0.016466224113428
13419200,0.9962914598534,0.017324579570352,0.0047694408062281,0.0077856979578949,0.0047694408062291,-0.00092876538973209,0.00092877572818541,4.2919569587419e-09,4.291901096728e-09,1.1457263118384e-09,7.2902867172745e-09,-0.0010854010204736,0.0010854097208729,-0.0010854003263422,0.0010854090265657,-0.0010853989687373,0.0010854117897544,-0.0010853982848688,0.0010854111057097,-0.00089299077096889,0.00089300173047053,-0.0008929913563079,0.00089300231559796,1.1873501486209e-09,-4.7467599329777e-09,2.6640098488572e-09,-6.1098993903559e-09,-0.0020641816194121,0.0020641781680601,-0.0023406456719088,0.0023406471712554,-0.0023406473577562,0.0023406430094662,-0.0023406464229359,0.0023406439700875,-0.0023406481088816,0.0023406398083809,-0.0017473604827295,0.0017473636990974,-0.0017473697473152,0.001747355701588,-0.0017473623928762,0.0017473617464446,-0.0017473688966546,0.0017473565821185,4.4298793024818e-09,4.429824032616e-09,-0.00092876525296852,0.00092877586495001,-4.4895905284441e-11,8.8155843698918e-09,-0.0010854013525624,0.0010854094059102,-0.0010853983894312,0.0010854123608859,-0.0010854006496081,0.0010854087027819,-0.0010853977054354,0.0010854116767148,-0.00089299076238826,0.00089300290607466,-0.00089299016284122,0.00089300230673227,0.58571222256043,122718,2924,0.0038655108372291,0.0085628227203424,0.0038655108372313,34.79608447076,0.00019356867576608,0.00019356867576608,0.00019356867576608,3672028.0422801,0.01642801301286
13919200,0.99711573620673,0.017335782467176,0.0047725097000173,0.0077907630671404,0.0047725097000184,-0.00092571097337677,0.00092572049379075,3.9826568320547e-09,3.982600969387e-09,7.900270328874e-10,7.0231482485831e-09,-0.001082652356482,0.0010826603121225,-0.0010826517254405,0.0010826596809062,-0.0010826502789886,0.0010826624094377,-0.0010826496565994,0.001082661786873,-0.00088984337233035,0.00088985370325281,-0.00088984394711194,0.00088985427782239,1.2152357026188e-09,-4.8160483416173e-09,2.7268537697244e-09,-6.2127952187825e-09,-0.0020644908796839,0.0020644873881772,-0.0023417725815506,0.0023417741173175,-0.0023417743942033,0.0023417699835788,-0.0023417734373837,0.00234177096737,-0.0023417752501358,0.0023417668337147,-0.0017467732416017,0.0017467765520422,-0.0017467826978048,0.0017467684165468,-0.0017467751965063,0.0017467745532408,-0.0017467818261753,0.0017467693190388,4.1243899048169e-09,4.1243346236114e-09,-0.00092571083282097,0.00092572063434664,-4.2956765906171e-10,8.5865413699734e-09,-0.0010826526967778,0.0010826599897234,-0.0010826496845707,0.0010826629951533,-0.0010826520566657,0.0010826593494372,-0.0010826490620577,0.0010826623724658,-0.00088984333815185,0.00088985488337092,-0.00088984274892589,0.00088985429434922,0.57829084168745,122718,2924,0.0038528484306854,0.0085640964346416,0.0038528484306857,33.829174330091,0.00018583339464073,0.00018583339464073,0.00018583339464073,3647288.6940254,0.016403569916709
14419200,0.99772363792836,0.017343864231057,0.0047747239545883,0.0077944163218797,0.0047747239545894,-0.00092223700287333,0.00092224705827845,4.1877987975092e-09,4.1877429362919e-09,9.4190116673318e-10,7.2888350413869e-09,-0.0010793968591124,0.0010794052547049,-0.0010793961899637,0.0010794045853813,-0.0010793947435831,0.0010794073905871,-0.0010793940835683,0.0010794067303963,-0.00088630253041659,0.00088631333381727,-0.0008863031176912,0.00088631392088024,1.2453075242394e-09,-4.8935833308589e-09,2.7864214810894e-09,-6.3184249152207e-09,-0.0020638934594409,0.002063889921808,-0.0023419021520522,0.0023419037370135,-0.0023419039685034,0.0023418994932268,-0.0023419029932143,0.0023419004964685,-0.0023419048097637,0.0023418962527646,-0.0017453858709085,0.0017453892601273,-0.0017453954682248,0.0017453809431177,-0.0017453878634038,0.0017453872225606,-0.0017453945790442,0.001745381864004,4.3328220505197e-09,4.3327667318337e-09,-0.0009222368590472,0.00092224720210477,-3.0173977311588e-10,8.8841253381446e-09,-0.0010793972061935,0.0010794049262265,-0.0010793941364227,0.0010794079885466,-0.0010793965277552,0.0010794042476132,-0.0010793934762945,0.0010794073282434,-0.00088630249606237,0.00088631453908144,-0.00088630189411654,0.00088631393733995,0.56553166280794,122718,2924,0.0038384442947151,0.0085616262981978,0.0038384442947156,32.643066226542,0.00017634452981234,0.00017634452981234,0.00017634452981234,3628125.3686285,0.016371781063426
14919200,0.99815967363708,0.017349715598373,0.0047763339050746,0.0077970477882231,0.0047763339050757,-0.00091697546145478,0.00091698760681024,4.9895058034528e-09,4.9894498837149e-09,1.5705651992248e-09,8.2867150615431e-09,-0.0010739767901464,0.0010739869258769,-0.0010739759685598,0.0010739861041158,-0.0010739745503559,0.0010739891872652,-0.0010739737402589,0.001073988376993,-0.00088104101061658,0.00088105363539519,-0.00088104163709885,0.00088105426166559,1.3427628034004e-09,-5.141270843646e-09,2.9294226365022e-09,-6.6069078162073e-09,-0.0020609292335676,0.002060925550195,-0.0023398888160282,0.0023398905331526,-0.0023398905822432,0.0023398859339762,-0.0023398895790479,0.0023398869666662,-0.0023398913453608,0.002339882367573,-0.0017414527804972,0.0017414563264366,-0.0017414627225986,0.0017414475144364,-0.0017414548298973,0.0017414542301644,-0.0017414618085791,0.0017414484614312,5.1402169879637e-09,5.1401616821459e-09,-0.00091697531197791,0.00091698775628818,2.9281641748297e-10,9.9294871091814e-09,-0.0010739771472921,0.0010739865895661,-0.0010739739227624,0.0010739898037405,-0.0010739763159417,0.0010739857580406,-0.0010739731127148,0.0010739889935176,-0.0008810409958815,0.0008810548992446,-0.00088104035402113,0.00088105425758889,0.57027522898325,122718,2924,0.0038166192894138,0.0085493888569992,0.0038166192894161,30.579953057173,0.00015983962445739,0.00015983962445739,0.00015983962445739,3624976.519382,0.016314979482651
15419200,0.99845677806547,0.017353988661157,0.0047775220457701,0.0077989445696157,0.0047775220457711,-0.00090864071834409,0.00090865624223256,6.2884831538198e-09,6.2884272183934e-09,2.5587858262244e-09,9.9423751943802e-09,-0.0010666512378085,0.0010666641408011,-0.0010666501758258,0.0010666630786438,-0.0010666487750622,0.0010666666281396,-0.0010666477280393,0.0010666655809415,-0.000872578773451,0.00087259436974169,-0.00087257946572185,0.00087259506180147,1.5418498852503e-09,-5.5735395164289e-09,3.1989996547564e-09,-7.1015441278781e-09,-0.0020565035958211,0.0020564996868477,-0.0023354496685303,0.0023354516533221,-0.0023354513790394,0.0023354464629483,-0.0023354503322555,0.0023354475409464,-0.002335452042865,0.0023354423506548,-0.0017368594720698,0.0017368633229312,-0.0017368700317551,0.0017368536399871,-0.0017368616092341,0.0017368611369038,-0.0017368690799104,0.0017368546262158,6.4443788418338e-09,6.4443236153192e-09,-0.00090864056367108,0.00090865639690579,1.2243774272277e-09,1.1654371573577e-08,-0.0010666516143156,0.001066663789021,-0.0010666481185778,0.00106666726996,-0.0010666505418887,0.00106666271642,-0.0010666470719363,0.0010666662231439,-0.00087257879772703,0.00087259572575538,-0.00087257808903039,0.00087259501726335,0.60998273743257,122718,2924,0.0037820516982469,0.0085310789217832,0.0037820516982475,27.071780733364,0.00013177424586691,0.00013177424586691,0.00013177424586691,3602614.5146615,0.01622612085696
15919200,0.99868507963319,0.017357525008174,0.0047785140643362,0.0078004968795001,0.0047785140643372,-0.00090401037168335,0.00090402179785112,4.7261071254049e-09,4.726050763651e-09,1.0214747669007e-09,8.331444110572e-09,-0.001064854928511,0.0010648642032215,-0.0010648541797312,0.0010648634542667,-0.0010648525019706,0.0010648666605134,-0.0010648517613331,0.0010648659196999,-0.00086767438019747,0.00086768663385844,-0.00086767501008136,0.00086768726352992,1.5725342212766e-09,-5.5169966802443e-09,3.3529605268281e-09,-7.1698158304597e-09,-0.0020573782786328,0.0020573744552188,-0.0023345790618387,0.0023345811480029,-0.0023345812163187,0.0023345763035387,-0.0023345800895736,0.0023345774644088,-0.0023345822441519,0.0023345726200273,-0.0017390470101664,0.0017390511898627,-0.0017390579262292,0.0017390414086533,-0.0017390493078234,0.0017390488398688,-0.0017390568945449,0.001739042477261,4.8878569270981e-09,4.8878023622659e-09,-0.00090401021102547,0.00090402195850951,-4.3007193895042e-10,1.0175818743504e-08,-0.0010648553410193,0.0010648638156306,-0.0010648517986607,0.0010648673496001,-0.0010648545813886,0.0010648630558258,-0.0010648510581796,0.0010648666089444,-0.00086767429476679,0.00086768797508901,-0.00086767364880937,0.0008676873293348,0.65577891184621,122718,2924,0.0037628588547963,0.0085346101107264,0.0037628588547975,25.354509932027,0.00011803607945622,0.00011803607945622,0.00011803607945622,3526663.8515675,0.016190725660785
16419200,0.99887032552712,0.01736014967552,0.0047792427897449,0.007801664096029,0.004779242789746,-0.00090068179882146,0.00090069137441575,4.0112309497674e-09,4.0111746423474e-09,5.1424133222514e-10,7.3915512354776e-09,-0.0010642793104024,0.0010642870641065,-0.0010642786989783,0.0010642864525073,-0.0010642770271287,0.0010642893751316,-0.0010642764217903,0.0010642887696172,-0.00086436075093419,0.00086437134872638,-0.00086436134996566,0.00086437194754549,1.4693869642369e-09,-5.2082823447848e-09,3.3155474470661e-09,-6.9332649365742e-09,-0.0020590401323427,0.002059036508446,-0.0023345073586323,0.002334509399165,-0.002334509589421,0.0023345048294716,-0.0023345084186024,0.0023345060355732,-0.0023345106494892,0.0023345014659623,-0.0017419656060412,0.0017419698587811,-0.0017419763105713,0.0017419603969713,-0.0017419679918047,0.0017419674191267,-0.0017419752309476,0.0017419615147067,4.1733715661796e-09,4.1733169715813e-09,-0.000900681637647,0.00090069153559071,-1.0077537319329e-09,9.3086433942366e-09,-0.001064279743989,0.0010642866528293,-0.0010642763019827,0.001064290088945,-0.001064279121857,0.0010642860305232,-0.0010642756963749,0.0010642894831628,-0.00086436061090383,0.00086437268319719,-0.00086435999684181,0.00086437206933848,0.6006069376675,122718,2924,0.0037490738927983,0.0085413922967146,0.0037490738927995,24.412379094514,0.00011049903275611,0.00011049903275611,0.00011049903275611,3448393.5098698,0.016169622419596
16919200,0.99902427866742,0.017362589832099,0.0047799330353646,0.0078027237613684,0.0047799330353656,-0.00089809129114125,0.00089810016408667,3.7386420092551e-09,3.7385856054958e-09,3.4282533871535e-10,6.9987792579802e-09,-0.0010591395702297,0.0010591468030504,-0.0010591390029538,0.0010591462355982,-0.0010591373599741,0.0010591490402729,-0.0010591367980908,0.0010591484782142,-0.00086251808136181,0.00086252803575954,-0.00086251865854863,0.00086252861273494,1.3571815073895e-09,-5.1037196835141e-09,3.2071000483538e-09,-6.8334758357686e-09,-0.0020547165789715,0.0020547129466137,-0.0023329137320211,0.0023329156188419,-0.0023329159540044,0.0023329111838538,-0.0023329147825828,0.0023329123930375,-0.0023329170046626,0.0023329079581311,-0.0017351572416355,0.0017351613551421,-0.00173516777204,0.0017351521254645,-0.0017351596320945,0.0017351589076466,-0.0017351666896265,0.0017351532481226,3.912118030713e-09,3.9120633075851e-09,-0.00089809111875359,0.00089810033647497,-1.1695500815772e-09,8.9322699091478e-09,-0.001059139993552,0.0010591464015174,-0.0010591366244965,0.0010591497654341,-0.0010591394152522,0.0010591458230445,-0.0010591360621646,0.0010591492029274,-0.00086251790728085,0.00086252936070088,-0.00086251731484751,0.00086252876847207,0.66895808675573,122718,2924,0.0037383065644325,0.0085236040547035,0.003738306564434,23.779996508834,0.00010543997207067,0.00010543997207067,0.00010543997207067,3493804.1226091,0.016129634841551
17419200,0.99914505059402,0.017364393024386,0.004780438355053,0.0078035163142786,0.0047804383550541,-0.0008936120549178,0.00089362352588606,4.7338312508591e-09,4.7337763134236e-09,1.2414413554842e-09,8.136371903894e-09,-0.0010587186419161,0.0010587280321033,-0.0010587178982383,0.0010587272882513,-0.0010587163477581,0.0010587303510202,-0.0010587156125981,0.0010587296156851,-0.0008573618652067,0.00085737400411921,-0.00085736250216035,0.0008573746408633,1.475614736218e-09,-5.2027025094214e-09,3.3438098713155e-09,-6.9501693522147e-09,-0.002056907684459,0.002056904072003,-0.0023322030921155,0.0023322051782751,-0.0023322051698259,0.0023322004065963,-0.002332203984605,0.0023322016273935,-0.0023322060624135,0.0023321968557972,-0.0017396283544306,0.0017396326554503,-0.0017396390236903,0.0017396230779118,-0.0017396307689184,0.0017396301866346,-0.0017396379293623,0.0017396242106901,4.8957375660081e-09,4.8956816061565e-09,-0.00089361189395722,0.00089362368684715,-3.0296962107428e-10,1.0075870123643e-08,-0.0010587190829703,0.0010587276130726,-0.0010587156156717,0.0010587310721375,-0.0010587183285824,0.0010587268585096,-0.0010587148801689,0.0010587303364592,-0.00085736175591624,0.00085737538368831,-0.00085736110407533,0.00085737473205329,0.63180123814197,122718,2924,0.003719764679781,0.0085325394066135,0.0037197646797822,21.983523950784,9.1068191606275e-05,9.1068191606275e-05,9.1068191606275e-05,3395447.1624846,0.016101073673909
17919200,0.99923732019792,0.017365670264809,0.0047807937789432,0.0078040827069216,0.0047807937789442,-0.00088686516572909,0.00088687824207877,5.3482129067301e-09,5.3481580591549e-09,1.7084273337342e-09,8.913255056294e-09,-0.001050629825946,0.001050640539371,-0.0010506289658513,0.0010506396791013,-0.0010506274283273,0.0010506429636575,-0.0010506265784817,0.001050642113639,-0.00085132102110607,0.0008513345725422,-0.00085132167165131,0.00085133522287789,1.5348638392574e-09,-5.4326770241519e-09,3.4281131750839e-09,-7.1998348332233e-09,-0.0020503175881003,0.0020503138099831,-0.0023274911507659,0.0023274932941431,-0.0023274931933484,0.0023274882515417,-0.0023274919946916,0.0023274894881283,-0.0023274940373716,0.0023274844456093,-0.0017312278002523,0.0017312321625075,-0.0017312387263518,0.0017312221913843,-0.0017312302442125,0.0017312296612356,-0.0017312376212358,0.0017312233369507,5.5199657397365e-09,5.519909651648e-09,-0.00088686499499382,0.00088687841281439,1.5626678127475e-10,1.0883421960674e-08,-0.0010506302659781,0.0010506401237233,-0.0010506266792954,0.0010506436998076,-0.0010506293945604,0.0010506392521303,-0.0010506258292709,0.001050642849608,-0.00085132090882812,0.00085133598201395,-0.00085132024246925,0.00085133531586066,0.58584131969831,122718,2924,0.0036917608988694,0.0085053508125686,0.0036917608988703,19.503571431519,7.1228571452148e-05,7.1228571452148e-05,7.1228571452148e-05,3422410.8022819,0.016016520489259
18419200,0.99931066611229,0.01736671420125,0.0047810859369274,0.0078045423273944,0.0047810859369284,-0.00088187602244298,0.0008818881651212,4.9942634673043e-09,4.9942088517028e-09,1.2596436837906e-09,8.6373877424393e-09,-0.0010434552316602,0.0010434651135111,-0.0010434544342406,0.0010434643159178,-0.0010434527815463,0.0010434675947968,-0.0010434519926497,0.0010434668057256,-0.00084663530203206,0.00084664815955912,-0.00084663593415414,0.00084664879147245,1.5545695040276e-09,-5.5910928857738e-09,3.4947663669335e-09,-7.4013653806622e-09,-0.0020442307334417,0.0020442268202528,-0.0023238011999495,0.0023238033461517,-0.0023238034073095,0.0023237983024823,-0.0023238021808734,0.0023237995699781,-0.0023238043883317,0.0023237945263915,-0.0017229246354184,0.0017229290712419,-0.0017229358683977,0.0017229188750504,-0.0017229271383006,0.001722926507384,-0.0017229347372367,0.001722920049185,5.1791092618443e-09,5.1790526611093e-09,-0.00088187583873447,0.00088188834883022,-3.1975992684784e-10,1.0665001856729e-08,-0.0010434556749209,0.0010434646966134,-0.0010434520054255,0.0010434683566694,-0.0010434548655039,0.0010434638870211,-0.0010434512164137,0.0010434675674819,-0.00084663514399353,0.00084664957789119,-0.00084663449520092,0.00084664892930553,0.60198893594859,122718,2924,0.0036710378379221,0.0084802713731715,0.0036710378379233,17.48015029757,5.5041202380559e-05,5.5041202380559e-05,5.5041202380559e-05,3472535.6276643,0.015948912297819
18919200,0.99937467543896,0.017367676326119,0.0047813568856498,0.0078049625548178,0.0047813568856509,-0.00088005466861971,0.00088006358860895,3.7610076972561e-09,3.760953163564e-09,1.8307524380932e-10,7.2164077474027e-09,-0.0010430610062773,0.0010430681583834,-0.0010430604436912,0.0010430675956231,-0.0010430586755207,0.0010430705209873,-0.0010430581172395,0.0010430699625311,-0.00084444589234886,0.00084445601702245,-0.00084444648136606,0.00084445660583183,1.4810662695598e-09,-5.356511721185e-09,3.4323302144327e-09,-7.1828713531519e-09,-0.0020453945851891,0.0020453908283031,-0.0023241302881611,0.0023241323615253,-0.0023241326905706,0.0023241277317993,-0.0023241314552365,0.002324129007757,-0.0023241338577445,0.0023241243781138,-0.0017247182534523,0.0017247226834697,-0.0017247293385074,0.0017247128781517,-0.0017247207732326,0.001724720103314,-0.0017247281957423,0.0017247140635493,3.9420046445045e-09,3.9419481152277e-09,-0.00088005448869715,0.00088006376853229,-1.4166907439526e-09,9.2559339511734e-09,-0.0010430614568619,0.0010430677321392,-0.001043057899157,0.0010430712850573,-0.0010430608825924,0.0010430671576944,-0.0010430573405137,0.0010430707262392,-0.00084444569004975,0.00084445739375853,-0.00084444508514526,0.00084445678906284,0.63537814394012,122718,2924,0.0036634886652713,0.0084850410116142,0.0036634886652731,16.875243252757,5.0201946022056e-05,5.0201946022056e-05,5.0201946022056e-05,3430396.6840816,0.015938434020409
19419200,0.99943504543712,0.017368627515101,0.0047816263152596,0.0078053748845807,0.0047816263152607,-0.0008807133853181,0.00088071931472615,2.6042522513336e-09,2.6041977413237e-09,-4.4468531688021e-10,5.4825299698846e-09,-0.0010457510979877,0.0010457559716139,-0.0010457507426911,0.0010457556161436,-0.0010457491282275,0.0010457579629373,-0.0010457487755441,0.0010457576100791,-0.0008448570676195,0.00084486437646528,-0.00084485761173684,0.00084486492037405,1.161249441509e-09,-4.6013437624007e-09,3.0400952843523e-09,-6.3705494172647e-09,-0.0020493466507951,0.002049343315097,-0.0023266386171779,0.0023266403344148,-0.0023266408916932,0.0023266363935954,-0.0023266396986106,0.0023266376242397,-0.002326641973224,0.0023266336835028,-0.0017298282614765,0.0017298322936416,-0.0017298382889749,0.0017298237874755,-0.001729830694563,0.0017298298036792,-0.0017298371782924,0.001729824938433,2.7724524809963e-09,2.7723961757587e-09,-0.00088071321811336,0.00088071948193142,-2.0013500268363e-09,7.4494002434857e-09,-0.0010457515352929,0.0010457555514357,-0.0010457483886907,0.0010457586968278,-0.001045751169574,0.0010457551855416,-0.001045748034951,0.0010457583429124,-0.00084485685366979,0.00084486567573905,-0.00084485629591068,0.00084486511818639,0.6649987511636,122718,2924,0.0036662392813302,0.0085013099672929,0.0036662392813314,17.54556296107,5.5564503688559e-05,5.5564503688559e-05,5.5564503688559e-05,3366591.8139375,0.015960569566637
19919200,0.99949325847148,0.017369529680984,0.0047818816356333,0.0078057664097163,0.0047818816356343,-0.00088206791760878,0.00088207271504847,2.1618147807519e-09,2.1617606483805e-09,-5.3608211452446e-10,4.6650165008305e-09,-0.0010487229859659,0.0010487270977168,-0.0010487227049165,0.0010487268164938,-0.0010487212507533,0.0010487288463037,-0.0010487209727567,0.0010487285681326,-0.00084626215635132,0.0008462682902785,-0.00084626268354304,0.00084626881726245,9.3765307169523e-10,-4.1114544491829e-09,2.6804266923927e-09,-5.7542825713232e-09,-0.002053322448325,0.0020533193699797,-0.0023295167455528,0.0023295181563042,-0.0023295188019245,0.0023295146453162,-0.0023295176932727,0.0023295157868464,-0.0023295197497425,0.0023295122759408,-0.0017346344278067,0.0017346379967723,-0.0017346435482564,0.0017346304984709,-0.0017346366891341,0.0017346356839266,-0.0017346425153948,0.0017346315678557,2.3140268917158e-09,2.3139700258183e-09,-0.00088206776638711,0.00088207286627067,-1.9851028215303e-09,6.4864622606867e-09,-0.0010487233921552,0.001048726703527,-0.0010487205717792,0.0010487295238318,-0.0010487231019291,0.0010487264131254,-0.0010487202924083,0.001048729244285,-0.00084626198432721,0.00084626951413459,-0.00084626144493119,0.00084626897494605,0.65387747975353,122718,2924,0.003671879679261,0.0085176856466858,0.0036718796792622,18.681467811734,6.4651742493869e-05,6.4651742493869e-05,6.4651742493869e-05,3308727.850582,0.015988678783389
20419200,0.99954523970225,0.017370367370653,0.004782120251454,0.0078061268677442,0.004782120251455,-0.00088078636806527,0.00088079386899377,3.1936716832208e-09,3.1936176536651e-09,4.5809062359075e-10,5.7666172398017e-09,-0.0010471934859029,0.0010471999178545,-0.0010471930119492,0.0010471994437273,-0.001047191708825,0.0010472017051441,-0.0010471912416744,0.0010472012378192,-0.00084533039914559,0.00084533876302028,-0.00084533096921183,0.000845339332879,9.5727622039798e-10,-4.1726304782384e-09,2.6225416926809e-09,-5.736770247548e-09,-0.0020526968387515,0.0020526937200314,-0.0023295399375243,0.0023295413380628,-0.0023295417322929,0.002329537586831,-0.0023295406737932,0.0023295386762322,-0.0023295424686598,0.0023295349250829,-0.0017333161006707,0.0017333195179154,-0.0017333250388523,0.0017333119973864,-0.0017333182606367,0.0017333173086709,-0.0017333240565567,0.0017333130145642,3.3407131460948e-09,3.34065636647e-09,-0.00088078622207199,0.00088079401498757,-9.1880828292001e-10,7.5032667248327e-09,-0.0010471938710778,0.0010471995446633,-0.0010471910604615,0.0010472023516593,-0.0010471933882255,0.0010471990616356,-0.0010471905920766,0.0010472018830986,-0.00084533030118083,0.00084533999841233,-0.00084532971877742,0.00084533941621614,0.67876340661332,122718,2924,0.0036665709798634,0.0085151066789136,0.0036665709798646,18.60192380507,6.401539044056e-05,6.401539044056e-05,6.401539044056e-05,3300541.8331629,0.01597526344039
20919200,0.99958847430688,0.017371039208762,0.0047823108570372,0.0078064174946862,0.0047823108570382,-0.00087704523167291,0.00087705556672049,4.2804496262757e-09,4.2803959267369e-09,1.3615734466379e-09,7.0809494582664e-09,-0.0010449838339953,0.0010449925895623,-0.0010449831649086,0.0010449919203023,-0.0010449819179762,0.0010449945163273,-0.0010449812588828,0.0010449938570608,-0.00084152990429103,0.00084154070961706,-0.00084153052259821,0.00084154132771576,1.0878142133754e-09,-4.4266730648235e-09,2.7178825717295e-09,-5.9508922229157e-09,-0.0020520842623263,0.0020520810244926,-0.0023281232264894,0.0023281247639126,-0.0023281248752851,0.0023281206357301,-0.0023281238396734,0.0023281217003582,-0.0023281254885691,0.0023281175722583,-0.0017332154191587,0.0017332188840113,-0.0017332245389071,0.0017332109487349,-0.0017332175314969,0.0017332167246669,-0.0017332235831086,0.0017332119378087,4.4210254103941e-09,4.4209684233225e-09,-0.00087704509214654,0.00087705570624732,1.6047535523511e-11,8.7709815136292e-09,-0.0010449842141199,0.0010449922232137,-0.0010449812865348,0.0010449951437179,-0.0010449835362085,0.0010449915451271,-0.0010449806265379,0.0010449944835429,-0.00084152987355958,0.00084154197395338,-0.0008415292424132,0.00084154134301413,0.65509999644725,122718,2924,0.0036510692692178,0.0085125305186958,0.0036510692692189,17.277906651569,5.3423253212552e-05,5.3423253212552e-05,5.3423253212552e-05,3259684.4184178,0.015941160775095
21419200,0.99962317251578,0.017371579541435,0.0047824644327123,0.0078066506760089,0.0047824644327133,-0.00087169241548153,0.00087170445431553,4.9349077766534e-09,4.9348540164933e-09,1.7689840255023e-09,8.0066018480448e-09,-0.0010388777430672,0.0010388878276497,-0.001038876954598,0.0010388870390075,-0.0010388756566293,0.0010388899286806,-0.0010388748796885,0.0010388891515657,-0.00083650791307015,0.00083652028106864,-0.00083650855341921,0.00083652092121016,1.23719013722e-09,-4.7754585831948e-09,2.8681891391435e-09,-6.2934626258015e-09,-0.0020472691037032,0.0020472656730988,-0.0023245508330977,0.0023245525210962,-0.0023245524920406,0.0023245480628211,-0.0023245514577823,0.0023245491265679,-0.0023245531168232,0.0023245446683751,-0.0017271605762142,0.0017271641623935,-0.0017271701057888,0.001727155674347,-0.0017271626862898,0.0017271620047675,-0.0017271691560262,0.0017271566576728,5.0782515578162e-09,5.0781944407279e-09,-0.00087169227323785,0.00087170459655986,4.3224855680918e-10,9.6940840780273e-09,-0.0010388781214429,0.0010388874661393,-0.001038875021915,0.0010388905563207,-0.0010388773237364,0.0010388866682566,-0.001038874244423,0.0010388897786522,-0.00083650790292333,0.00083652156856021,-0.00083650724870888,0.00083652091455279,0.65600720200741,122718,2924,0.0036288546459165,0.0084926600034572,0.0036288546459179,15.232198909617,3.7057591276936e-05,3.7057591276936e-05,3.7057591276936e-05,3275097.1401169,0.015875826825475
21919200,0.99965267851569,0.017372033202102,0.0047825932073835,0.0078068467873335,0.0047825932073845,-0.000868337506102,0.00086834777998405,4.2638472351953e-09,4.2637934818902e-09,1.017634410936e-09,7.4008245965358e-09,-0.0010359104518974,0.0010359189565551,-0.0010359097916715,0.0010359182961559,-0.0010359083240241,0.0010359211038554,-0.0010359076724527,0.0010359204521098,-0.00083312730421895,0.00083313829277866,-0.00083312792145472,0.00083313890980755,1.2920135819896e-09,-4.883617296138e-09,2.9432062330111e-09,-6.4195295333675e-09,-0.0020455941738685,0.0020455906919734,-0.0023230030328155,0.0023230047696164,-0.0023230049116609,0.0023230004189303,-0.0023230038648771,0.0023230014957515,-0.0023230057438205,0.0023229971451478,-0.0017252353002282,0.0017252389861975,-0.0017252450993796,0.0017252303644788,-0.0017252374355662,0.0017252368027143,-0.0017252441389783,0.0017252313588477,4.4086482481384e-09,4.4085911249221e-09,-0.00086833736239925,0.00086834792368741,-3.3553934515039e-10,9.1083316365544e-09,-0.0010359108360393,0.0010359185904767,-0.0010359076808923,0.0010359217388116,-0.0010359101663771,0.0010359179206389,-0.0010359070288723,0.0010359210866155,-0.00083312726323732,0.00083313956486375,-0.00083312663179864,0.00083313893363292,0.6480289490463,122718,2924,0.0036149347086592,0.0084857303983401,0.0036149347086606,13.996536314985,2.7172290519878e-05,2.7172290519878e-05,2.7172290519878e-05,3261475.2031247,0.015840509184125
22419200,0.99968130436024,0.017372483226819,0.0047827213915941,0.00780704044363,0.0047827213915952,-0.00086950396645526,0.00086950952472726,2.4593552102321e-09,2.45930144085e-09,-5.4604203026322e-10,5.2940563172723e-09,-0.0010368705937511,0.0010368751714892,-0.0010368702654552,0.0010368748430201,-0.0010368686525003,0.0010368771329502,-0.0010368683272106,0.0010368768074863,-0.00083432012143309,0.00083432709905215,-0.00083432066802707,0.00083432764543931,1.1323086710415e-09,-4.5478497678408e-09,2.7786384685021e-09,-6.0852391918845e-09,-0.0020471348629421,0.0020471315511739,-0.002324966226595,0.0023249677580676,-0.0023249683563191,0.002324964033893,-0.0023249673115595,0.0023249651090281,-0.0023249694413816,0.0023249613849359,-0.0017263433756658,0.0017263469227059,-0.0017263528858559,0.0017263389729444,-0.0017263455076462,0.0017263447421572,-0.0017263519231365,0.0017263399699462,2.6049009107068e-09,2.6048437736412e-09,-0.00086950382201,0.00086950966917297,-1.8990565737135e-09,7.0032521200349e-09,-0.0010368709750625,0.0010368748055487,-0.001036868010914,0.0010368777691271,-0.0010368706375991,0.0010368744679096,-0.0010368676848332,0.0010368774428703,-0.00083432000936682,0.00083432830137693,-0.00083431944932912,0.00083432774154717,0.66209701054788,122718,2924,0.0036197697983707,0.0084921035559355,0.0036197697983717,14.849662859521,3.3997302876169e-05,3.3997302876169e-05,3.3997302876169e-05,3250741.8397067,0.015856803927324
22919200,0.99970837763598,0.017372887279287,0.004782835925725,0.0078072154278357,0.004782835925726,-0.00086994296681404,0.00086994922708508,2.7213027485286e-09,2.7212490177639e-09,-1.3707912213941e-10,5.4120123413262e-09,-0.0010382267015551,0.0010382319759818,-0.0010382263204148,0.0010382315946683,-0.0010382248510091,0.0010382338415185,-0.0010382244746233,0.0010382334649586,-0.00083461259632888,0.00083462003695093,-0.00083461315410069,0.00083462059451585,1.0415460700707e-09,-4.3410795888219e-09,2.6548101959591e-09,-5.8497602961325e-09,-0.0020493703980423,0.0020493671983003,-0.0023266899447824,0.002326691381195,-0.0023266918948278,0.0023266877038776,-0.0023266908700563,0.0023266887577371,-0.0023266928201996,0.0023266850805021,-0.0017289512460344,0.0017289546468921,-0.0017289603747947,0.0017289470256017,-0.0017289533371856,0.001728952508678,-0.0017289594290118,0.0017289480046459,2.8619301666192e-09,2.8618730805865e-09,-0.00086994282727559,0.00086994936662407,-1.4668889120801e-09,7.0865045716506e-09,-0.0010382270760654,0.0010382316146619,-0.001038224225299,0.0010382344637503,-0.0010382266861926,0.0010382312246134,-0.0010382238479367,0.001038234086212,-0.00083461251034898,0.00083462123569491,-0.00083461193980056,0.00083462066535414,0.62916623965442,122718,2924,0.0036216059263515,0.0085013139235049,0.0036216059263527,15.357233323904,3.8057866591232e-05,3.8057866591232e-05,3.8057866591232e-05,3216557.6229708,0.015869899347344
23419200,0.99973366812891,0.017373271913086,0.004782945421642,0.0078073810698015,0.004782945421643,-0.00087008246307246,0.00087008907094234,2.8522748658798e-09,2.8522209561681e-09,5.1423371595414e-11,5.484365732568e-09,-0.00103690818145,0.0010369138036047,-0.0010369077725352,0.0010369133945168,-0.0010369063669932,0.0010369156310176,-0.0010369059635939,0.0010369152274445,-0.00083497422530042,0.0008349819089084,-0.00083497478784572,0.00083498247124609,9.9252160149931e-10,-4.2701695671921e-09,2.5718080992044e-09,-5.7461181209769e-09,-0.0020484494819679,0.0020484463030217,-0.0023272859663626,0.002327287327197,-0.0023272878248805,0.0023272836767305,-0.0023272868221811,0.0023272847082324,-0.0023272886807957,0.0023272810578479,-0.0017266682238242,0.0017266715000017,-0.0017266771616615,0.0017266640563214,-0.001726670271256,0.0017266694058412,-0.0017266762365726,0.0017266650144012,2.9932600279332e-09,2.9932028355347e-09,-0.0008700823232387,0.00087008921077622,-1.2450897396572e-09,7.1259468832969e-09,-0.0010369085439554,0.0010369134534923,-0.0010369057527489,0.0010369162425079,-0.0010369081264358,0.001036913035797,-0.001036905348318,0.001036915837901,-0.00083497415490573,0.0008349831016723,-0.00083497357965808,0.0008349825266327,0.64041032974821,122718,2924,0.0036221766582588,0.0084975544528159,0.0036221766582592,15.705604680315,4.0844837442522e-05,4.0844837442522e-05,4.0844837442522e-05,3238511.6572246,0.015867224517882
23919200,0.99975859260547,0.017373679837547,0.0047830624779387,0.0078075548816681,0.0047830624779397,-0.00087240189686116,0.00087240636027757,2.0314901175074e-09,2.031436308445e-09,-6.0319339043869e-10,4.4689102212721e-09,-0.0010400091384652,0.0010400130054313,-0.0010400088810259,0.0010400127478191,-0.0010400074450728,0.001040014710352,-0.0010400071909981,0.0010400144561036,-0.00083705907491212,0.00083706489517861,-0.00083705960609736,0.00083706542615649,8.9028050918862e-10,-4.0338247945979e-09,2.423218251287e-09,-5.468168298212e-09,-0.0020521388797375,0.0020521358304694,-0.0023304529987598,0.0023304542160684,-0.0023304549082345,0.0023304509175683,-0.0023304539337922,0.002330451919077,-0.0023304558433649,0.0023304486206593,-0.001730789547689,0.0017307926538864,-0.0017307981581523,0.0017307857126863,-0.0017307915374236,0.0017307906194819,-0.0017307972583477,0.0017307866440657,2.1662189850006e-09,2.1661619026231e-09,-0.00087240176327985,0.00087240649385952,-1.8654756692341e-09,6.0614921704233e-09,-0.0010400094911911,0.0010400126628134,-0.0010400068521406,0.0010400153024778,-0.0010400092256581,0.0010400123971047,-0.0010400065968618,0.0010400150470227,-0.00083705899363406,0.00083706603636712,-0.00083705845042251,0.00083706549336332,0.68827841655398,122718,2924,0.0036318098704171,0.0085127756513527,0.0036318098704185,17.004012291048,5.1232098328386e-05,5.1232098328386e-05,5.1232098328386e-05,3204355.6565926,0.015902268417812
24419200,0.9997823605886,0.017374057419925,0.00478317052432,0.0078077163712842,0.004783170524321,-0.00087365544147372,0.00087366081537297,2.3752307521324e-09,2.375176711635e-09,-1.6142853795611e-10,4.7235572542153e-09,-0.0010436254504382,0.001043630161899,-0.0010436251269626,0.0010436298382499,-0.0010436238139464,0.0010436318055654,-0.0010436234959141,0.0010436314873588,-0.0008379747918802,0.00083798127969409,-0.00083797533911372,0.00083798182672015,8.343779027984e-10,-3.8937887013692e-09,2.2918125397001e-09,-5.2556987500108e-09,-0.0020567402859512,0.0020567373180089,-0.0023332177088852,0.002333218841122,-0.0023332194259103,0.0023332155641308,-0.0023332184982746,0.0023332165155599,-0.0023332202153976,0.002333213238651,-0.0017369258283285,0.0017369287385477,-0.0017369340614253,0.0017369221005607,-0.0017369277219338,0.0017369268041024,-0.0017369332066644,0.0017369229842385,2.4985534878729e-09,2.4984969636319e-09,-0.00087365531928546,0.00087366093756176,-1.3651962534269e-09,6.230697619847e-09,-0.001043625788681,0.0010436298319553,-0.0010436232564488,0.0010436323634236,-0.0010436254577811,0.0010436295008801,-0.0010436229371835,0.0010436320439825,-0.00083797476221274,0.0008379824014272,-0.00083797420351539,0.00083798184293646,0.66831884736844,122718,2924,0.0036370388725442,0.0085317161618934,0.0036370388725454,17.881465372089,5.8251722976714e-05,5.8251722976714e-05,5.8251722976714e-05,3136104.3900355,0.015932157848454
24919200,0.99980437421884,0.017374389839327,0.0047832653297792,0.0078078591797674,0.0047832653297802,-0.0008737110680133,0.0008737173480961,2.7203411944659e-09,2.7202870491487e-09,1.7096705641569e-10,5.0917381738351e-09,-0.0010429638923527,0.0010429693824232,-0.0010429635036341,0.0010429689935315,-0.0010429622418722,0.0010429710389475,-0.0010429618598674,0.0010429706567686,-0.00083842036022389,0.0008384275963097,-0.00083842092176859,0.00083842815764661,8.3841736345447e-10,-3.9167802808157e-09,2.253530072909e-09,-5.2358576844359e-09,-0.0020565746359369,0.0020565716495541,-0.0023339586418682,0.0023339597550102,-0.0023339602607608,0.0023339564086692,-0.0023339593606217,0.0023339573317096,-0.0023339609796121,0.0023339539854507,-0.0017359102734485,0.0017359130956445,-0.0017359184152773,0.0017359064845127,-0.0017359121117241,0.0017359112175342,-0.0017359175880911,0.0017359073398647,2.8417302525675e-09,2.8416736065228e-09,-0.00087371094780161,0.0008737174683082,-9.9241875587647e-10,6.5535929282052e-09,-0.0010429642182097,0.0010429690647857,-0.0010429617003798,0.0010429715806839,-0.0010429638222005,0.0010429686686013,-0.0010429613172047,0.0010429711973331,-0.00083842036102627,0.00083842871614509,-0.00083841978793016,0.00083842814325591,0.63528367996022,122718,2924,0.0036372700918329,0.0085310509001904,0.0036372700918339,18.351784684201,6.2014277473611e-05,6.2014277473611e-05,6.2014277473611e-05,3138095.4963464,0.015931938676394
25419200,0.9998259950777,0.017374747729848,0.0047833685964905,0.0078080105368658,0.0047833685964916,-0.00087658250248518,0.00087658629642204,1.7690428740262e-09,1.7689893162533e-09,-5.8221654747824e-10,3.9053019729996e-09,-0.0010443263216702,0.0010443297933415,-0.0010443261059168,0.0010443295774152,-0.0010443248162538,0.0010443313029439,-0.0010443246047335,0.0010443310912498,-0.00084147315813638,0.00084147823234272,-0.00084147368275971,0.00084147875675967,7.0501112745282e-10,-3.6423494767825e-09,2.0385665554264e-09,-4.8851888682452e-09,-0.0020579017820999,0.0020578989318111,-0.002336709460111,0.0023367103643163,-0.0023367111154694,0.0023367074503755,-0.0023367102666034,0.0023367083201314,-0.0023367119220598,0.002336705406273,-0.0017359751886865,0.0017359777346648,-0.0017359828907661,0.0017359717856311,-0.0017359769236087,0.0017359759622847,-0.0017359821110522,0.0017359725918187,1.8850071340392e-09,1.8849497576923e-09,-0.00087658238776199,0.00087658641114579,-1.6758021309835e-09,5.2839665061268e-09,-0.0010443266249718,0.0010443294954964,-0.001044324307403,0.0010443318143939,-0.0010443264025195,0.0010443292728683,-0.0010443240945295,0.0010443316013442,-0.00084147315335998,0.00084147928422975,-0.00084147261782132,0.00084147874889924,0.69486037268706,122718,2924,0.0036491747247822,0.0085365800250791,0.0036491747247835,19.919548281295,7.4556386250364e-05,7.4556386250364e-05,7.4556386250364e-05,3155262.1380105,0.015961729752769
25919200,0.9998461179192,0.017375077709291,0.0047834635976306,0.007808150514029,0.0047834635976316,-0.00087798236212325,0.00087798783554239,2.4089341913684e-09,2.4088807512307e-09,3.4830912338434e-11,4.5908707609907e-09,-0.0010486726605456,0.0010486775618921,-0.0010486723267862,0.0010486772279596,-0.0010486711285326,0.0010486790961101,-0.0010486708015963,0.0010486787689999,-0.00084225049930531,0.00084225695226594,-0.00084225105016854,0.00084225750292292,7.2545385229455e-10,-3.6736582609677e-09,1.9986324032696e-09,-4.8557012073083e-09,-0.0020632950764519,0.0020632922157135,-0.0023397248360966,0.0023397257423447,-0.0023397263202315,0.0023397226840519,-0.0023397255092506,0.0023397235130937,-0.0023397269934834,0.0023397204548832,-0.0017433874500953,0.001743389893668,-0.0017433950057637,0.0017433839423242,-0.0017433891069225,0.0017433882027147,-0.001743394264629,0.0017433847076157,2.5152000768605e-09,2.5151429130641e-09,-0.00087798225709065,0.00087798794057553,-1.0102014003936e-09,5.8980188096723e-09,-0.0010486729531922,0.0010486772745868,-0.0010486706481274,0.0010486795786757,-0.0010486726131496,0.0010486769343686,-0.0010486703199758,0.0010486792503479,-0.00084225055035676,0.00084225800069629,-0.00084224998866036,0.00084225743920772,0.68893726601367,122718,2924,0.0036550169819294,0.0085587760871837,0.0036550169819306,20.734154338102,8.1073234704812e-05,8.1073234704812e-05,8.1073234704812e-05,3076321.9424981,0.015996183826106
26419200,0.99986358641516,0.01737537828885,0.0047835506901579,0.0078082769085331,0.004783550690159,-0.00087623613025087,0.00087624419502874,3.3990204698387e-09,3.3989669479845e-09,8.6855923481562e-10,5.775045375975e-09,-0.0010468872713687,0.0010468943066397,-0.0010468867563766,0.0010468937914746,-0.0010468856203743,0.0010468959600949,-0.0010468851151002,0.0010468954546468,-0.00084087885192739,0.00084088752700324,-0.0008408794434677,0.00084088811833669,8.299433666822e-10,-3.8943487440249e-09,2.0865965074384e-09,-5.0555986718132e-09,-0.002062331479223,0.0020623285062709,-0.0023391500888882,0.0023391511103639,-0.0023391514395351,0.0023391477040633,-0.0023391506400727,0.0023391485210611,-0.0023391519908175,0.0023391451148429,-0.0017419948838187,0.0017419973811913,-0.0017420026108492,0.001741991046036,-0.0017419965171113,0.0017419957143956,-0.0017420018840773,0.001741991796486,3.5042192829493e-09,3.5041620821664e-09,-0.00087623602631119,0.00087624429896902,-1.5746528730827e-10,7.0604745621363e-09,-0.0010468875598186,0.0010468940252128,-0.0010468851461398,0.0010468964346794,-0.0010468870384292,0.0010468935036475,-0.0010468846398926,0.0010468959282564,-0.00084087895113826,0.00084088860837359,-0.00084087834822687,0.00084088800566954,0.72144035144325,122718,2924,0.0036477786507366,0.008554793190277,0.0036477786507379,20.398998024486,7.8391984195888e-05,7.8391984195888e-05,7.8391984195888e-05,3067192.3008556,0.015977421768379
26919200,0.99987984998642,0.017375649447568,0.0047836289840844,0.0078083914793983,0.0047836289840855,-0.00087733592925075,0.0008773412947937,2.370606956355e-09,2.3705535419194e-09,-1.0263715200914e-10,4.6564851141055e-09,-0.0010494431504504,0.0010494478950383,-0.0010494428270701,0.0010494475714848,-0.0010494415537505,0.0010494494964686,-0.001049441236807,0.0010494491793512,-0.00084193377226154,0.00084194020989997,-0.00084193432487394,0.00084194076230626,7.9459554471037e-10,-3.8078522767856e-09,2.0314686837909e-09,-4.9509312623307e-09,-0.0020656399436771,0.0020656370203156,-0.0023414105665042,0.0023414115174198,-0.0023414121022656,0.0023414084283557,-0.0023414113148718,0.002341409232515,-0.0023414128507311,0.0023414061435332,-0.0017461117481863,0.0017461141886196,-0.0017461194324789,0.0017461081134473,-0.0017461133567167,0.001746112547463,-0.0017461187170474,0.0017461088519448,2.4730310206054e-09,2.4729738200679e-09,-0.00087733582808137,0.00087734139596362,-1.1139347989389e-09,5.9206706484159e-09,-0.001049443435043,0.0010494476167891,-0.0010494410884786,0.0010494499626215,-0.0010494431054591,0.0010494472870294,-0.0010494407705175,0.0010494496444842,-0.00084193384142256,0.00084194124362806,-0.00084193327765516,0.00084194068006845,0.69956233956871,122718,2924,0.0036523563225033,0.0085684160834945,0.0036523563225045,21.286792592779,8.5494340742232e-05,8.5494340742232e-05,8.5494340742232e-05,3018917.1493477,0.016000575976229
27419200,0.99989494719325,0.017375899203781,0.0047837011682563,0.0078084968672669,0.0047837011682574,-0.0008785627062075,0.00087856785761677,2.2867653102424e-09,2.2867117886718e-09,-1.5343425608034e-10,4.5348974359962e-09,-0.0010498681308629,0.0010498727136511,-0.0010498678210154,0.0010498724036306,-0.0010498665572974,0.0010498742912989,-0.0010498662537408,0.0010498739875681,-0.00084346455110274,0.00084347079066669,-0.0008434650996226,0.00084347133898032,7.6890681718924e-10,-3.7649922485418e-09,1.9911623610625e-09,-4.894223109373e-09,-0.002066349928503,0.0020663470216183,-0.0023430766118785,0.0023430775228899,-0.002343078134683,0.0023430744865719,-0.0023430773566833,0.0023430752811572,-0.0023430788795859,0.0023430722449218,-0.0017459195163251,0.001745921901263,-0.0017459271173794,0.0017459159325865,-0.00174592110621,0.0017459202789696,-0.0017459264106266,0.0017459166622345,2.3889833281661e-09,2.3889260892336e-09,-0.00087856260526436,0.00087856795856042,-1.151044319445e-09,5.7847744669537e-09,-0.0010498684105838,0.0010498724397851,-0.001049866097318,0.0010498747525998,-0.0010498680946151,0.0010498721236406,-0.0010498657927097,0.0010498744478156,-0.00084346462111661,0.00084347181539487,-0.00084346406151312,0.00084347125599971,0.69373344963335,122718,2924,0.0036574467775767,0.0085713719205209,0.0036574467775778,22.250723807746,9.3205790461968e-05,9.3205790461968e-05,9.3205790461968e-05,3020863.730355,0.016013910156675
27919200,0.99990863071465,0.017376132565911,0.0047837688556085,0.0078085948546925,0.0047837688556096,-0.00087942302525932,0.00087942883398274,2.5368024886091e-09,2.5367490938169e-09,8.5406030031246e-11,4.8041065519602e-09,-0.0010506111347823,0.0010506162768053,-0.0010506107783379,0.0010506159201879,-0.0010506095496917,0.0010506178652565,-0.0010506092004153,0.001050617515806,-0.00084434124398543,0.00084434802626835,-0.00084434180213466,0.00084434858421264,7.7570452934733e-10,-3.7821096204414e-09,1.986436665194e-09,-4.8995045142061e-09,-0.0020675579335532,0.0020675550166605,-0.0023446367037138,0.0023446376196458,-0.0023446381690757,0.0023446345186849,-0.0023446373985356,0.0023446353054737,-0.0023446388639957,0.0023446322045946,-0.0017467441054172,0.0017467464704596,-0.0017467516794356,0.0017467404764444,-0.001746745680208,0.0017467448636752,-0.0017467509802807,0.0017467411981945,2.6381060391659e-09,2.6380486442984e-09,-0.00087942292524396,0.00087942893399864,-9.0154598056561e-10,6.0410763710761e-09,-0.0010506114115124,0.001050616005953,-0.0010506090944089,0.0010506183217618,-0.0010506110489938,0.0010506156432594,-0.0010506087441087,0.0010506179712854,-0.00084434132844177,0.00084434905578253,-0.00084434075917051,0.00084434848671909,0.71478775580289,122718,2924,0.0036610233866669,0.0085763669685929,0.0036610233866681,22.918379675761,9.8547037406085e-05,9.8547037406085e-05,9.8547037406085e-05,3010794.7247897,0.016026251080526
28419200,0.99992086886612,0.01737635010593,0.0047838321947016,0.0078086857165254,0.0047838321947026,-0.00087997292044125,0.00087997906816767,2.6668297694642e-09,2.6667764394922e-09,1.8227221549386e-10,4.9744943406125e-09,-0.0010522075021346,0.0010522129109382,-0.0010522071233944,0.001052212532025,-0.0010522058927031,0.0010522145241393,-0.0010522055214711,0.0010522141527336,-0.00084473623803913,0.00084474331963351,-0.00084473680275324,0.00084474388414173,8.0113595872874e-10,-3.8270852311144e-09,2.0044493405074e-09,-4.936224296442e-09,-0.0020698917524904,0.0020698888168238,-0.0023462970483877,0.0023462979898571,-0.0023462985017076,0.0023462948377058,-0.002346297735923,0.0023462956193122,-0.0023462991893407,0.0023462924672432,-0.0017495896332823,0.0017495920088736,-0.0017495972434433,0.0017495859449017,-0.0017495911980991,0.001749590412564,-0.0017495965497629,0.0017495866608276,2.766609530364e-09,2.7665521793095e-09,-0.00087997282194797,0.0008799791666615,-7.9843874295036e-10,6.2016416184079e-09,-0.0010522077780094,0.0010522126412955,-0.0010522054410742,0.0010522149765517,-0.0010522073932206,0.0010522122563308,-0.0010522050688788,0.00105221460418,-0.00084473633317281,0.00084474435155953,-0.00084473575725909,0.00084474377585383,0.74447173974049,122718,2924,0.0036633199205241,0.0085859780061484,0.0036633199205253,23.441308971354,0.00010273047177083,0.00010273047177083,0.00010273047177083,2975697.8289248,0.016040693033105
28919200,0.99993177664199,0.017376535934132,0.0047838861104785,0.0078087637131737,0.0047838861104795,-0.00088034254837472,0.00088034866128908,2.6539439287759e-09,2.6538905696629e-09,1.462963022778e-10,4.9876158019962e-09,-0.001053866310243,0.0010538716690997,-0.001053865935718,0.0010538712944017,-0.0010538646852677,0.001053873298527,-0.0010538643181063,0.0010538729311918,-0.00084506938346139,0.00084507645288773,-0.00084506994926628,0.0008450770184867,8.2052401096646e-10,-3.8571421348966e-09,2.0226255461191e-09,-4.9645150507671e-09,-0.0020723546708952,0.0020723517250581,-0.002347883836554,0.0023478847986838,-0.0023478853077356,0.0023478816345206,-0.0023478845427002,0.0023478824151745,-0.0023478860139795,0.0023478792510934,-0.001752728100539,0.0017527304955224,-0.0017527357538634,0.001752724383254,-0.0017527296635332,0.0017527289012553,-0.0017527350614745,0.0017527250977371,2.7528360855138e-09,2.7527788413843e-09,-0.00088034245076207,0.00088034875890227,-8.3382360149663e-10,6.2121554343716e-09,-0.0010538665867099,0.0010538713991355,-0.0010538642346718,0.001053873749595,-0.0010538662061412,0.0010538710183911,-0.0010538638665826,0.0010538733813297,-0.00084506948104907,0.00084507748453267,-0.00084506890400293,0.00084507690769434,0.71381038574477,122718,2924,0.0036648697912343,0.0085961131679196,0.0036648697912355,23.983578512044,0.00010706862809635,0.00010706862809635,0.00010706862809635,2934042.0323967,0.016054150381609
29419200,0.99994158091434,0.01737668770681,0.0047839298099019,0.0078088280870049,0.004783929809903,-0.00088130171939342,0.00088130725271294,2.432512323501e-09,2.4324590231604e-09,-5.6219560694614e-11,4.7371920140357e-09,-0.0010536649894933,0.0010536698687471,-0.0010536646542182,0.0010536695332992,-0.0010536633812834,0.0010536714816311,-0.0010536630526837,0.001053671152859,-0.00084631750560112,0.00084632409076815,-0.00084631806213479,0.00084632464709903,8.0235369129255e-10,-3.8326126458439e-09,2.0025781703174e-09,-4.9384537018646e-09,-0.0020723991662696,0.0020723962264802,-0.0023491982496048,0.0023491991829236,-0.0023491997568155,0.0023491960908481,-0.0023491989931283,0.0023491968703697,-0.0023492005004389,0.0023491937783769,-0.0017516136913903,0.0017516160634292,-0.0017516213294255,0.0017516100238398,-0.0017516152521112,0.0017516144712059,-0.0017516206379787,0.001751610737526,2.5323995137346e-09,2.5323420929171e-09,-0.00088130162080101,0.00088130735130362,-1.0335274878565e-09,5.9611917378121e-09,-0.0010536652642352,0.0010536696002642,-0.0010536629306176,0.0010536719330327,-0.0010536649229169,0.0010536692587701,-0.0010536626010646,0.0010536716033033,-0.00084631759352998,0.00084632511356317,-0.00084631702574987,0.00084632454599122,0.64935525023164,122718,2924,0.0036688447634253,0.0085963315039184,0.0036688447634218,24.778310318577,0.00011342648254862,0.00011342648254862,0.00011342648254862,2945641.5259495,0.016062434087301
29919200,0.99995028037605,0.017376830376498,0.0047839712069224,0.0078088879626526,0.0047839712069234,-0.00088255570263319,0.00088256145573394,2.5151052556065e-09,2.5150517998713e-09,2.8346334886353e-11,4.8156340355682e-09,-0.001051977002511,0.0010519820827521,-0.001051976648714,0.0010519817287823,-0.0010519753955004,0.0010519836938657,-0.0010519750486962,0.0010519833468877,-0.00084781387241275,0.00084782063513315,-0.00084781443015517,0.00084782119266957,7.917181403778e-10,-3.8346621047637e-09,1.9854898617064e-09,-4.9338871814863e-09,-0.0020705406137792,0.0020705376614992,-0.0023500598383476,0.0023500607519007,-0.0023500613196629,0.0023500576457642,-0.0023500605604848,0.0023500584209842,-0.0023500620418981,0.00235005531493,-0.001747346432811,0.0017473487730699,-0.0017473540486706,0.0017473427544755,-0.0017473479850968,0.001747347189123,-0.0017473533614867,0.0017473434639763,2.6164961589487e-09,2.6164385732874e-09,-0.00088255560258045,0.00088256155578723,-9.4052741623892e-10,6.0344663710365e-09,-0.0010519772734429,0.0010519818179559,-0.0010519749459594,0.0010519841442919,-0.0010519769135836,0.0010519814579207,-0.0010519745982002,0.0010519837963565,-0.00084781396232289,0.00084782165833994,-0.00084781339322786,0.00084782108945329,0.68704429123194,122718,2924,0.0036740283553824,0.008588745593078,0.0036740283553836,25.464962951556,0.00011891970361245,0.00011891970361245,0.00011891970361245,3002153.0130084,0.016065233303996
30419200,0.99995794131492,0.017376943814669,0.0047840037927828,0.007808936229102,0.0047840037927839,-0.00088377167592393,0.00088377749413253,2.5408923328988e-09,2.5408389780143e-09,5.3988559011949e-11,4.8451939387687e-09,-0.0010553027161916,0.0010553078454999,-0.0010553023600589,0.0010553074891967,-0.0010553011078488,0.0010553094579647,-0.001055300758813,0.0010553091087571,-0.00084844571774257,0.00084845253261932,-0.00084844627864029,0.00084845309330925,7.9930820685942e-10,-3.8307110036436e-09,1.9906977685496e-09,-4.9277821420499e-09,-0.0020747265180305,0.0020747235770591,-0.0023525701264628,0.002352571052688,-0.0023525716014531,0.0023525679401063,-0.0023525708434288,0.002352568713733,-0.0023525723185196,0.0023525656012339,-0.0017530001323834,0.0017530024815548,-0.0017530077393706,0.0017529964564741,-0.0017530016817222,0.0017530009010332,-0.0017530070534756,0.0017529971643763,2.6401763942488e-09,2.6401189933847e-09,-0.00088377157795379,0.00088377759210287,-9.1532602630056e-10,6.0596646954637e-09,-0.0010553029885274,0.0010553075793078,-0.0010553006607497,0.0010553099058705,-0.0010553026264022,0.0010553072170067,-0.001055300310763,0.0010553095557075,-0.00084844581355894,0.00084845355624335,-0.00084844524141364,0.00084845298430403,0.62192906581927,122718,2924,0.003679095147762,0.008605978405076,0.0036790951477625,26.130279609587,0.0001242422368767,0.0001242422368767,0.0001242422368767,2944579.5687237,0.016093063953312
30919200,0.99996475441488,0.017377054247751,0.0047840358852913,0.007808982477167,0.0047840358852923,-0.0008857157328935,0.00088572078001574,2.2458566362795e-09,2.2458030971654e-09,-1.7290403257145e-10,4.4668948840746e-09,-0.0010541549620768,0.0010541594773464,-0.0010541546578565,0.0010541591729532,-0.0010541534040395,0.0010541610385936,-0.001054153106101,0.0010541607404813,-0.00085071397921497,0.0008507201206933,-0.00085071452708928,0.00085072066836143,7.4696307843775e-10,-3.7396423468462e-09,1.9231855825888e-09,-4.8232680531189e-09,-0.0020732817396276,0.0020732788358136,-0.0023538182711994,0.0023538191231562,-0.0023538197599338,0.0023538161450519,-0.0023538190115724,0.0023538169089903,-0.0023538205004048,0.0023538139309683,-0.0017492361845739,0.0017492384519818,-0.0017492436655505,0.0017492326356512,-0.0017492377150377,0.00174923689044,-0.0017492429878325,0.0017492333352816,2.3458886897292e-09,2.345831162085e-09,-0.00088571563421907,0.00088572087869072,-1.1277229912485e-09,5.6683274782833e-09,-0.0010541552282602,0.0010541592163221,-0.0010541529618001,0.0010541614826021,-0.0010541549181538,0.0010541589060401,-0.0010541526628229,0.0010541611834487,-0.00085071406601621,0.00085072112738755,-0.00085071350702778,0.0008507205686074,0.67884300028328,122718,2924,0.0036871361673816,0.0086001047882853,0.0036871361673828,27.119345021603,0.00013215476017283,0.00013215476017283,0.00013215476017283,3004550.214536,0.01610340788622
31419200,0.99997084970907,0.017377154021547,0.0047840648557887,0.0078090243099681,0.0047840648557898,-0.00088836850354922,0.00088837279946764,1.9585291553908e-09,1.9584759266073e-09,-3.5232292787199e-10,4.0612389267032e-09,-0.0010597645898132,0.0010597685183121,-0.0010597643398064,0.0010597682681323,-0.0010597631060238,0.001059770003572,-0.0010597628619038,0.0010597697592783,-0.00085263216980391,0.00085263762146212,-0.00085263270588136,0.00085263815733396,6.8179427824104e-10,-3.5859422513963e-09,1.8273433550913e-09,-4.6420927518411e-09,-0.0020796637166622,0.0020796608984023,-0.0023577071237132,0.002357707891361,-0.0023577085884201,0.002357705077372,-0.0023577078585933,0.0023577058214317,-0.0023577093233981,0.0023577030075249,-0.0017578484909371,0.0017578506463057,-0.0017578557250301,0.0017578451251997,-0.001757849983174,0.0017578491244756,-0.0017578550639671,0.0017578458071766,2.0534766013942e-09,2.0534191136472e-09,-0.00088836840993399,0.00088837289308342,-1.2856536261642e-09,5.2292898205392e-09,-0.0010597648505485,0.0010597682613286,-0.0010597626785504,0.0010597704339875,-0.0010597645950059,0.0010597680056102,-0.0010597624332759,0.0010597701885368,-0.0008526322592639,0.00085263860206165,-0.00085263171258461,0.0008526380555906,0.68615600821694,122718,2924,0.0036981699950959,0.0086263844658214,0.0036981699950971,28.436462303994,0.00014269169843195,0.00014269169843195,0.00014269169843195,2924878.6055457,0.016152567391971
31919200,0.99997609973408,0.017377241191111,0.0047840902421883,0.007809060706733,0.0047840902421893,-0.0008894804921387,0.00088948587494054,2.3710883247046e-09,2.3710349657732e-09,4.1939884325984e-11,4.5069800516767e-09,-0.0010612429376941,0.0010612477915075,-0.0010612426100652,0.0010612474637052,-0.0010612414344716,0.0010612492950724,-0.0010612411141685,0.0010612489745963,-0.0008538936711884,0.00085390001837986,-0.00085389422662744,0.00085390057361593,6.9464553193818e-10,-3.6141949447077e-09,1.8268666343019e-09,-4.6565351886934e-09,-0.0020815533878819,0.0020815505546949,-0.0023594018330641,0.0023594026152882,-0.0023594032051132,0.002359399688105,-0.0023594024838847,0.0023594004231013,-0.0023594038560315,0.0023593974959981,-0.0017598991971911,0.0017599013336077,-0.0017599063990382,0.0017598957574956,-0.0017599006718954,0.0017598998298399,-0.0017599057468496,0.0017598964302254,2.4647090022068e-09,2.4646516394698e-09,-0.00088948039985792,0.00088948596722151,-8.7925068796561e-10,5.659683133727e-09,-0.0010612431952369,0.0010612475378109,-0.0010612410126351,0.0010612497196657,-0.0010612428621264,0.0010612472045258,-0.001061240691216,0.0010612493980715,-0.00085389378587295,0.00085390101242512,-0.00085389321979433,0.00085390044655386,0.69501901563282,122718,2924,0.0037027923972502,0.0086341772054728,0.0037027923972506,29.26889011225,0.000149351120898,0.000149351120898,0.000149351120898,2903532.665557,0.016169880015934
32419200,0.99998041053681,0.01737731631122,0.0047841122244889,0.007809091862241,0.00478411222449,-0.00088894353323321,0.00088895077146411,3.0789854638704e-09,3.0789321002034e-09,6.1420044364952e-10,5.3796629857532e-09,-0.0010611897150931,0.001061196078973,-0.0010611892575336,0.0010611956212405,-0.0010611881110047,0.0010611976843513,-0.0010611876627195,0.0010611972358923,-0.0008534346661394,0.00085344261808026,-0.00085343525215264,0.00085344320388772,7.8690099195014e-10,-3.8036107731253e-09,1.9193970286207e-09,-4.8425183686232e-09,-0.0020821222687004,0.0020821193417999,-0.0023597549476766,0.0023597558387053,-0.0023597562455476,0.0023597526364097,-0.0023597555248413,0.0023597533707121,-0.0023597568228102,0.0023597501684987,-0.0017606061887264,0.0017606084054451,-0.0017606135811658,0.0017606024800159,-0.0017606076620521,0.0017606069032742,-0.0017606129320898,0.001760603149458,3.1722843314427e-09,3.1722269785031e-09,-0.00088894344128282,0.00088895086341504,-3.044655929616e-10,6.5290241193335e-09,-0.001061189973419,0.001061195826088,-0.0010611876889641,0.0010611981075044,-0.0010611895102259,0.0010611953627193,-0.0010611872397625,0.0010611976581266,-0.00085343481237837,0.00085344364151288,-0.00085343421526047,0.00085344304460291,0.72871756654491,122718,2924,0.0037005748386984,0.0086365110795899,0.0037005748386995,29.299099317927,0.00014959279454341,0.00014959279454341,0.00014959279454341,2884174.5221521,0.016167747014027
32919200,0.99998392259187,0.017377373179378,0.0047841287581784,0.0078091156630198,0.0047841287581794,-0.00088801483015117,0.00088802247671621,3.2395179907671e-09,3.2394646583954e-09,5.5411575169562e-10,5.7786881180447e-09,-0.0010617057857913,0.001061712348279,-0.0010617053059533,0.0010617118682681,-0.0010617040342679,0.0010617141065638,-0.001061703563121,0.0010617136352431,-0.00085246489361492,0.00085247333528941,-0.00085246548810999,0.00085247392957873,9.432928672857e-10,-4.1028257805475e-09,2.132550071118e-09,-5.1925428539095e-09,-0.0020834850940251,0.0020834820297374,-0.0023600889215902,0.0023600900120354,-0.002360090366639,0.0023600865856468,-0.0023600896107168,0.002360087356624,-0.0023600910558634,0.0023600839303175,-0.0017627804578481,0.0017627829395499,-0.001762788374965,0.0017627764327796,-0.001762782001969,0.0017627813648883,-0.0017627876951656,0.0017627771341241,3.3369199625989e-09,3.3368626583376e-09,-0.00088801473406757,0.00088802257280034,-4.1083692574334e-10,6.9843937931237e-09,-0.0010617060599116,0.0010617120826024,-0.001061703588842,0.0010617145503759,-0.0010617055739129,0.001061711596428,-0.0010617031170294,0.0010617140783871,-0.00085246502663175,0.00085247438868308,-0.00085246442027371,0.00085247378253287,0.67786408637507,122718,2924,0.0036967373492874,0.0086420957331722,0.0036967373492886,29.174656053952,0.00014859724843162,0.00014859724843162,0.00014859724843162,2843948.4907346,0.016165635044638
33419200,0.99998682480528,0.017377423269862,0.004784143437675,0.0078091363945108,0.004784143437676,-0.00088779098956839,0.00088779804449925,3.0145236346241e-09,3.0144702224021e-09,2.9916697060845e-10,5.5723074045397e-09,-0.0010594911860795,0.001059497234475,-0.0010594907460527,0.0010594967942754,-0.0010594894206226,0.0010594990084318,-0.0010594889882932,0.0010594985759287,-0.00085264590578351,0.00085265388790631,-0.00085264648742571,0.00085265446934267,9.4939895798412e-10,-4.1491521692493e-09,2.1893867886188e-09,-5.2883009642121e-09,-0.0020813827345542,0.0020813796312607,-0.0023599207148303,0.002359921827933,-0.0023599222608932,0.0023599184086227,-0.0023599214732489,0.0023599192133303,-0.0023599230194096,0.0023599157941022,-0.0017589497248556,0.0017589523027484,-0.0017589578209851,0.0017589456718571,-0.0017589513342075,0.0017589506605407,-0.0017589571100079,0.0017589464059847,3.1183831806116e-09,3.1183257314544e-09,-0.00088779088702399,0.00088779814704418,-7.0715198299233e-10,6.834822095508e-09,-0.0010594914708616,0.0010594969588475,-0.0010594889526924,0.0010594994744111,-0.001059491024319,0.0010594965121292,-0.0010594885196787,0.0010594990412212,-0.00085264600308612,0.00085265495125549,-0.00085264540930969,0.00085265435768711,0.72119042743762,122718,2924,0.0036957940670563,0.0086334696849532,0.0036957940670574,29.316053470634,0.00014972842776507,0.00014972842776507,0.00014972842776507,2879758.3103441,0.016154929420291
33919200,0.99998929081501,0.017377465383835,0.0047841557501878,0.0078091538834583,0.0047841557501888,-0.00088908368771157,0.00088908933475356,2.4780904393212e-09,2.4780371327568e-09,-1.4001126518946e-10,4.9208935891963e-09,-0.0010627058514927,0.0010627107419703,-0.0010627055126935,0.0010627104029981,-0.0010627041575842,0.0010627124438277,-0.0010627038249066,0.0010627121109764,-0.00085354783328512,0.0008535546011147,-0.00085354839612074,0.00085355516374465,8.9455528989112e-10,-4.0061690732259e-09,2.1521521251711e-09,-5.166013172726e-09,-0.0020852523207761,0.0020852493027284,-0.0023622356799349,0.0023622367463081,-0.0023622372983998,0.0023622335181538,-0.0023622364986041,0.0023622343353304,-0.0023622381171668,0.0023622311072582,-0.0017641323082494,0.0017641348850372,-0.001764140305152,0.0017641284629743,-0.0017641339418284,0.0017641332181798,-0.0017641395801858,0.0017641292114346,2.5818624700687e-09,2.5818051239644e-09,-0.00088908358521368,0.00088908943725199,-1.1666849481639e-09,6.2039328990864e-09,-0.0010627061421381,0.0010627104593431,-0.0010627036839331,0.0010627129167492,-0.0010627057969162,0.0010627101139455,-0.0010627033503931,0.0010627125830329,-0.00085354790531266,0.0008535556523255,-0.00085354733081111,0.00085355507803183,0.71426719130606,122718,2924,0.0037011756287107,0.008649398824699,0.0037011756287119,30.069487884649,0.00015575590307719,0.00015575590307719,0.00015575590307719,2826509.5611711,0.016182074546641
34419200,0.99999143297079,0.017377501230245,0.0047841662256882,0.0078091687788676,0.0047841662256893,-0.00089145770224427,0.0008914618066242,1.8887715841867e-09,1.8887182294287e-09,-5.986940254537e-10,4.1763500266676e-09,-0.0010648216262961,0.0010648252762012,-0.0010648213947261,0.0010648250444586,-0.0010648200277614,0.0010648268814148,-0.0010648198007736,0.0010648266542531,-0.00085612265890587,0.00085612808037212,-0.00085612319789444,0.00085612861915467,8.0322773635578e-10,-3.8268691450686e-09,2.0537689012404e-09,-4.9831353948695e-09,-0.0020874793529912,0.0020874764197012,-0.0023647802646466,0.0023647812192385,-0.0023647819279294,0.0023647782354761,-0.0023647811320847,0.002364779048754,-0.0023647827954653,0.0023647760650738,-0.001766056594648,0.0017660590746498,-0.0017660643857602,0.0017660529933854,-0.0017660582206793,0.0017660574152417,-0.0017660636622131,0.0017660537405029,1.9926326040888e-09,1.9925752326457e-09,-0.00089145759965786,0.00089146190921114,-1.621230632517e-09,5.4554928396261e-09,-0.001064821914098,0.0010648249948323,-0.0010648195568222,0.001064827353222,-0.0010648216762792,0.0010648247568377,-0.0010648193287862,0.0010648271250098,-0.00085612270864735,0.00085612910636641,-0.00085612215842497,0.00085612855635188,0.69956539032079,122718,2924,0.0037110269795255,0.0086586040521856,0.0037110269795267,31.478841809974,0.00016703073447979,0.00016703073447979,0.00016703073447979,2816254.3894192,0.016211444180973
34919200,0.99999331848929,0.017377533578808,0.004784175709061,0.0078091821606851,0.0047841757090621,-0.0008955172912981,0.00089551975038195,1.2600862650641e-09,1.2600329102263e-09,-1.0447964071428e-09,3.337685221184e-09,-0.0010682582077337,0.0010682605599224,-0.0010682580903853,0.0010682604424013,-0.0010682567389314,0.0010682620328595,-0.0010682566246808,0.0010682619184352,-0.00086026981974207,0.00086027377576256,-0.0008602703340111,0.00086027428982555,6.7896652815627e-10,-3.5760072327278e-09,1.9013533258434e-09,-4.709134551819e-09,-0.0020907291899596,0.002090726378643,-0.0023685902778918,0.0023685910747655,-0.0023685919489556,0.0023685883945619,-0.0023685911702076,0.0023685891901723,-0.0023685928413689,0.0023685865100511,-0.0017688118551163,0.0017688141675647,-0.0017688193052875,0.0017688085771421,-0.0017688134469408,0.0017688125430098,-0.0017688185952351,0.0017688093103224,1.3622295477084e-09,1.3621720873112e-09,-0.00089551719044317,0.00089551985123733,-2.0457266598077e-09,4.5910418621084e-09,-0.0010682584872153,0.0010682602845071,-0.0010682562795208,0.001068262495397,-0.0010682583639638,0.0010682601610799,-0.0010682561639839,0.0010682623796837,-0.00086026985480771,0.00086027476725575,-0.00086026932994373,0.00086027424259944,0.71680103816778,122718,2924,0.003727870736938,0.00867204686703,0.0037278707369389,33.571943910854,0.00018377555128683,0.00018377555128683,0.00018377555128683,2811820.0688446,0.016259332252711
35419200,0.99999494868532,0.01737755989897,0.0047841833885885,0.0078091931217924,0.0047841833885895,-0.00090018446454204,0.00090018624847509,9.9972597076004e-10,9.996726304478e-10,-1.1416640248981e-09,2.8979711159128e-09,-0.0010736061002904,0.0010736079793709,-0.001073606027594,0.0010736079065016,-0.0010736047425047,0.0010736093377105,-0.0010736046729081,0.0010736092679404,-0.00086477825453163,0.00086478154388594,-0.00086477875676908,0.00086478204591725,5.6760782961749e-10,-3.3507322650764e-09,1.7459683548064e-09,-4.4444270557454e-09,-0.002096056467694,0.0020960537660766,-0.0023733084817978,0.0023733091344612,-0.0023733100757348,0.0023733066576185,-0.0023733093240682,0.0023733074247605,-0.0023733109181018,0.0023733049480001,-0.0017746706252434,0.0017746727475707,-0.0017746776944176,0.0017746675997015,-0.0017746721621761,0.0017746711794921,-0.00177467700824,0.0017746683079209,1.0974381429721e-09,1.0973807897325e-09,-0.0009001843681279,0.00090018634488966,-2.108193127853e-09,4.1063052740997e-09,-0.0010736063688568,0.0010736077126246,-0.0010736043021793,0.0010736097831517,-0.0010736062907009,0.0010736076342921,-0.0010736042311106,0.0010736097119066,-0.00086477829560269,0.00086478250551264,-0.00086477778340304,0.00086478199352002,0.67521870686676,122718,2924,0.0037472482434756,0.0086940324340086,0.0037472482434765,35.927792238979,0.00020262233791183,0.00020262233791183,0.00020262233791183,2777529.1181699,0.016321069259435
35919200,0.99999626729734,0.017377582073986,0.0047841898952864,0.007809202283412,0.0047841898952874,-0.00090331172973101,0.00090331517683123,1.6287158206567e-09,1.628661509706e-09,-4.4951412608767e-10,3.4819322841235e-09,-0.0010749943249079,0.0010749976713069,-0.0010749941317209,0.0010749974779465,-0.0010749929969329,0.0010749989952782,-0.0010749928094965,0.0010749988076674,-0.00086811430021346,0.00086811889725615,-0.00086811482876683,0.00086811942560197,5.2880908718655e-10,-3.2665917709813e-09,1.6201068523183e-09,-4.2751911114344e-09,-0.0020971456137772,0.00209714295575,-0.0023759482432075,0.0023759488196592,-0.0023759495959405,0.0023759462774725,-0.0023759488995067,0.0023759469867305,-0.0023759502523375,0.0023759444446259,-0.0017744175417715,0.0017744194514996,-0.0017744242570676,0.0017744145372512,-0.0017744189666365,0.0017744179986375,-0.0017744236245646,0.0017744151895629,1.7191986471927e-09,1.7191420812135e-09,-0.00090331164061189,0.00090331526595089,-1.3399947254339e-09,4.596460648172e-09,-0.0010749945709749,0.0010749974255717,-0.0010749925924614,0.0010749994058246,-0.00107499437285,0.0010749972272717,-0.0010749924035585,0.0010749992167461,-0.00086811440325314,0.00086811984957782,-0.00086811386501557,0.00086811931154647,0.70236606706437,122718,2924,0.0037602183634013,0.0086985839823307,0.0037602183634024,37.535203705914,0.00021548162964731,0.00021548162964731,0.00021548162964731,2801876.8946005,0.016352041174937
36419200,0.99999723981482,0.017377598195909,0.0047841946185926,0.0078092089587232,0.0047841946185936,-0.00090293056695803,0.00090293791817753,3.1146884785484e-09,3.1146342736853e-09,8.5137223293843e-10,5.2085767469675e-09,-0.0010759540305975,0.0010759606193724,-0.0010759535613306,0.0010759601499318,-0.0010759525562409,0.001075962089173,-0.0010759520973913,0.0010759616301488,-0.00086742369839973,0.00086743159630922,-0.00086742428842909,0.0008674321861312,6.5143614466118e-10,-3.5303728892963e-09,1.7221369784857e-09,-4.5131470439263e-09,-0.0020988424014667,0.0020988396071873,-0.0023766642415805,0.002376664960775,-0.0023766653569031,0.0023766619181689,-0.0023766646745319,0.0023766626123363,-0.0023766657899526,0.0023766595698125,-0.0017769391654478,0.0017769411308806,-0.0017769460402557,0.0017769357242959,-0.0017769405612421,0.0017769397083002,-0.0017769454253882,0.0017769363581042,3.2023376385002e-09,3.2022811089349e-09,-0.00090293048068968,0.00090293800444623,-1.7450078559137e-11,6.2945467932122e-09,-0.0010759542729823,0.0010759603794534,-0.0010759521606349,0.0010759624885123,-0.0010759537986782,0.0010759599049746,-0.0010759517006248,0.0010759620283268,-0.00086742387364628,0.00086743259901381,-0.00086742327330503,0.00086743199887898,0.69281234127919,122718,2924,0.0037586576172186,0.0087055549201199,0.0037586576172194,37.488420117218,0.00021510736093775,0.00021510736093775,0.00021510736093775,2766832.9118058,0.016355968581307
36919200,0.99999794043492,0.017377609366437,0.0047841978837133,0.0078092135990089,0.0047841978837144,-0.00090114582587574,0.00090115460172814,3.6611786733466e-09,3.6611244419557e-09,1.1600295577848e-09,6.0185986552954e-09,-0.0010739200602155,0.0010739277273435,-0.001073919492466,0.0010739271594205,-0.0010739184219235,0.0010739293652484,-0.0010739178656115,0.0010739288087621,-0.00086574218371157,0.00086575140867943,-0.00086574279624408,0.00086575202100461,8.103713956513e-10,-3.8578136207361e-09,1.8940293479388e-09,-4.8469004718706e-09,-0.0020974141414671,0.0020974111848096,-0.0023756830399807,0.0023756839365347,-0.0023756841933592,0.0023756805869183,-0.0023756835039841,0.0023756812882485,-0.0023756846574603,0.0023756779387144,-0.0017750767654251,0.0017750789002095,-0.0017750840720737,0.0017750729366593,-0.0017750781750283,0.0017750774637037,-0.0017750834549518,0.0017750735727634,3.7497276299941e-09,3.7496710772089e-09,-0.00090114573872218,0.00090115468888226,2.8516021508058e-10,7.1126588713735e-09,-0.0010739203067533,0.0010739274862261,-0.0010739180204937,0.0010739297674638,-0.0010739197336166,0.0010739269129143,-0.0010739174633653,0.0010739292101597,-0.00086574237763454,0.00086575243739725,-0.00086574175390041,0.00086575181386943,0.66632587325998,122718,2924,0.0037512533844465,0.0086996627288081,0.0037512533844477,36.862074311574,0.00021009659449259,0.00021009659449259,0.00021009659449259,2769293.4659256,0.016334925607156
37419200,0.99999848114874,0.017377618080376,0.004784200435145,0.0078092172100848,0.004784200435146,-0.00090264388690867,0.00090264933819522,2.4009744302009e-09,2.4009201298691e-09,-9.2962982390289e-11,4.7097571013299e-09,-0.0010743383910072,0.0010743432025155,-0.001074338061695,0.0010743428730302,-0.0010743367797144,0.0010743448180914,-0.0010743364572502,0.0010743444954533,-0.00086733543047954,0.0008673419535938,-0.00086733599076352,0.00086734251366785,8.0194408498221e-10,-3.8425944387305e-09,1.9030791880607e-09,-4.849152632598e-09,-0.0020978560835802,0.002097853133633,-0.0023771138834307,0.0023771147472073,-0.0023771153376774,0.0023771117264698,-0.0023771146371483,0.0023771124396115,-0.0023771160914928,0.0023771094189546,-0.0017746553593006,0.0017746575327178,-0.0017746628225656,0.0017746516890749,-0.0017746567917506,0.0017746560726342,-0.0017746621945399,0.0017746523365846,2.4915770092367e-09,2.4915203723093e-09,-0.00090264379770232,0.00090264942740225,-9.8294347245752e-10,5.8238452478847e-09,-0.0010743386415673,0.0010743429575466,-0.0010743363705046,0.0010743452280391,-0.0010743383067603,0.0010743426225646,-0.0010743360472095,0.0010743449045676,-0.00086733556425064,0.00086734293807296,-0.00086733499267858,0.00086734236670526,0.6733413893935,122718,2924,0.003757456445409,0.0087015212109491,0.0037574564454105,37.673431362598,0.00021658745090078,0.00021658745090078,0.00021658745090078,2783801.6582626,0.016349412997099
37919200,0.99999887995534,0.017377624296236,0.0047842022505379,0.0078092197951591,0.004784202250539,-0.00090241624406419,0.0009024235645053,3.1101776078579e-09,3.1101233569891e-09,5.3070783155805e-10,5.5302718156392e-09,-0.0010745897249775,0.0010745960913068,-0.0010745892625676,0.0010745956287235,-0.0010745880457096,0.0010745977744787,-0.001074587592315,0.0010745973209098,-0.0008669385622391,0.00086694665987133,-0.00086693915212193,0.00086694724954674,8.6055687240179e-10,-3.9630976842626e-09,1.986281997919e-09,-4.9919437692503e-09,-0.0020986320029966,0.0020986289933206,-0.0023776171299249,0.0023776180865399,-0.0023776184891851,0.0023776148033077,-0.0023776177734519,0.0023776155323516,-0.0023776191328099,0.0023776122492016,-0.0017756563893447,0.0017756586590325,-0.0017756639908057,0.0017756525171452,-0.0017756578525195,0.0017756571674057,-0.0017756633490726,0.0017756531789358,3.2027595935289e-09,3.202703015755e-09,-0.00090241615286546,0.00090242365570458,-3.7909242739833e-10,6.6690132770549e-09,-0.0010745899819894,0.0010745958409885,-0.0010745876263961,0.0010745981935581,-0.0010745895138711,0.0010745953726951,-0.0010745871722528,0.0010745977392391,-0.00086693871604133,0.00086694768337174,-0.00086693811460046,0.00086694708213714,0.65161956252221,122718,2924,0.0037565207645652,0.0087047137763515,0.0037565207645664,37.67646444929,0.00021661171559432,0.00021661171559432,0.00021661171559432,2768157.5312627,0.016350761812672
38419200,0.99999916827931,0.017377629078735,0.0047842036563333,0.0078092217660678,0.0047842036563344,-0.00090117487083792,0.00090118335442572,3.5543690203302e-09,3.5543147524816e-09,8.5008799084577e-10,6.1148172919409e-09,-0.0010725506342305,0.0010725579350429,-0.0010725500883439,0.0010725573889815,-0.0010725488670656,0.001072559707741,-0.0010725483312908,0.001072559171792,-0.00086576802466704,0.00086577715474999,-0.00086576863277052,0.00086577776264811,9.3742236333145e-10,-4.1375559142128e-09,2.0958144707183e-09,-5.1954724681177e-09,-0.0020969944219591,0.0020969913180392,-0.0023768205877007,0.0023768216476604,-0.0023768219439312,0.0023768181442903,-0.0023768212081833,0.0023768188943824,-0.0023768225645114,0.0023768153910955,-0.0017732688191701,0.0017732712152616,-0.0017732766793616,0.0017732647210914,-0.0017732703230921,0.0017732696817267,-0.0017732760199686,0.0017732654013408,3.6503374445791e-09,3.6502808172916e-09,-0.00090117477625201,0.00090118344901088,-8.498407003029e-11,7.2869172441489e-09,-0.0010725508991953,0.001072557678451,-0.0010725484335729,0.0010725601395045,-0.0010725503472694,0.00107255712635,-0.0010725478971929,0.0010725596029483,-0.00086576818325725,0.00086577820970573,-0.00086576756308765,0.00086577758974123,0.69258613402303,122718,2924,0.0037513652899611,0.0086979745106582,0.0037513652899597,37.198315038268,0.00021278652030615,0.00021278652030615,0.00021278652030615,2784096.2959907,0.016333425665738
38880000,0.99999936962115,0.017377632465068,0.0047842046520062,0.0078092231610547,0.0047842046520072,-0.00090091694075374,0.00090092434772654,3.1486571185871e-09,3.1486028854802e-09,3.9718941659552e-10,5.7516265906969e-09,-0.0010741624027288,0.0010741687285402,-0.0010741619398474,0.0010741682654853,-0.0010741606102772,0.0010741705297486,-0.001074160155436,0.0010741700747331,-0.00086514998886402,0.00086515828073844,-0.00086515058443012,0.00086515887609712,9.8218072905292e-10,-4.1947396805821e-09,2.2048852758566e-09,-5.315971539542e-09,-0.0020993290312764,0.0020993259157725,-0.0023776576317376,0.0023776587757162,-0.0023776591591015,0.0023776553060691,-0.0023776583823394,0.0023776560990423,-0.002377659909801,0.0023776526294773,-0.0017769021554123,0.001776904736349,-0.0017769102786407,0.0017768980493583,-0.0017769037421086,0.0017769031178198,-0.0017769095792814,0.0017768987711589,3.2493744709341e-09,3.249318071442e-09,-0.00090091684136467,0.00090092444711613,-5.9522582767131e-10,6.9928574265452e-09,-0.0010741626849818,0.0010741684556242,-0.0010741601507278,0.0010741709869861,-0.0010741622157101,0.0010741679861775,-0.001074159695254,0.0010741705313367,-0.00086515010902564,0.00086515934908929,-0.00086514950130365,0.00086515874157322,0.70236789374911,122718,2924,0.0037503086977365,0.0087075640382331,0.0037503086977376,37.193685302087,0.0002127494824167,0.0002127494824167,0.0002127494824167,2737744.2206146,0.01634104413947
