time,ASR_ext,ASR_strain,ASR_strain_xx,ASR_strain_yy,ASR_strain_zz,disp_x_101,disp_x_102,disp_x_103,disp_x_104,disp_x_105,disp_x_106,disp_x_p1_neg,disp_x_p1_pos,disp_x_p2_neg,disp_x_p2_pos,disp_x_p3_neg,disp_x_p3_pos,disp_x_p4_neg,disp_x_p4_pos,disp_x_p5_neg,disp_x_p5_pos,disp_x_p6_neg,disp_x_p6_pos,disp_y_101,disp_y_102,disp_y_103,disp_y_104,disp_y_105,disp_y_106,disp_y_p1_neg,disp_y_p1_pos,disp_y_p2_neg,disp_y_p2_pos,disp_y_p3_neg,disp_y_p3_pos,disp_y_p4_neg,disp_y_p4_pos,disp_y_p5_neg,disp_y_p5_pos,disp_y_p6_neg,disp_y_p6_pos,disp_y_p7_neg,disp_y_p7_pos,disp_y_p8_neg,disp_y_p8_pos,disp_z_101,disp_z_102,disp_z_103,disp_z_104,disp_z_105,disp_z_106,disp_z_p1_neg,disp_z_p1_pos,disp_z_p2_neg,disp_z_p2_pos,disp_z_p3_neg,disp_z_p3_pos,disp_z_p4_neg,disp_z_p4_pos,disp_z_p5_neg,disp_z_p5_pos,disp_z_p6_neg,disp_z_p6_pos,humidity,ndof,nelem,strain_xx,strain_yy,strain_zz,temp,thermal_strain_xx,thermal_strain_yy,thermal_strain_zz,vonmises,vstrain
2419200,0,0,0,0,0,0,0,0,0,0,0,0,0,0,0,0,0,0,0,0,0,0,0,0,0,0,0,0,0,0,0,0,0,0,0,0,0,0,0,0,0,0,0,0,0,0,0,0,0,0,0,0,0,0,0,0,0,0,0,0,0,0,0,0,0,0,0,0,0,0,0,0,0,0,0
3419200,0.15971932824948,0.0026614135285058,0.00088713784283527,0.00088713784283527,0.00088713784283527,-0.00023684229214025,0.00023684228279064,-3.1822675532121e-12,-3.1822603942511e-12,-2.4670578513665e-12,-3.8982992919855e-12,-0.00024340810003379,0.00024340809322732,-0.00024340810113464,0.00024340809432818,-0.00024340810050962,0.00024340809274408,-0.00024340810160057,0.00024340809383503,-0.00023743212208451,0.00023743211451283,-0.00023743212241464,0.00023743211484299,-4.4250097086967e-13,9.213540407665e-13,-5.3995495327623e-13,9.9891148393985e-13,-0.00026351126304222,0.00026351126350313,-0.00026764673319849,0.00026764673263249,-0.00026764673380151,0.00026764673431674,-0.00026764673385963,0.00026764673425628,-0.00026764673446266,0.00026764673594053,-0.00025775858751867,0.00025775858694551,-0.00025775858650828,0.00025775858892784,-0.00025775858740144,0.00025775858706528,-0.00025775858655313,0.00025775858888138,-3.1966114118921e-12,-3.1966185881434e-12,-0.00023684229215469,0.0002368422827762,-2.403168878958e-12,-3.993764032083e-12,-0.00024340810001281,0.0002434080932376,-0.0002434081005585,0.00024340809270559,-0.00024340810111519,0.00024340809433999,-0.00024340810164824,0.00024340809379534,-0.00023743212245748,0.00023743211480179,-0.00023743212213019,0.00023743211447453,0.75746877217741,122718,2924,0.00098635754023725,0.0010973570814372,0.00098635754023725,31.872947281316,0.00017018357825053,0.00017018357825053,0.00017018357825053,2014944.2121668,0.0030747923495439
4419200,0.35065972117305,0.0056701817656661,0.0018009913606121,0.002068199044442,0.0018009913606121,-0.0004380565786773,0.00043805656125424,-6.4870928366344e-12,-6.4870742134958e-12,-5.3408075929132e-12,-8.02005413991e-12,-0.00045934285496701,0.00045934284053179,-0.00045934285784055,0.00045934284340534,-0.00045934285587773,0.00045934283962223,-0.00045934285872379,0.0004593428424683,-0.00043954236810296,0.00043954235310891,-0.00043954236886684,0.00043954235387286,-5.5535487252515e-13,1.9356558155729e-12,-6.2390329312384e-13,1.9599332430318e-12,-0.00056299264173848,0.00056299264308155,-0.00058636379030627,0.00058636378986276,-0.00058636379341256,0.00058636379477915,-0.00058636379345123,0.00058636379474299,-0.00058636379655751,0.00058636379965937,-0.00053351569092639,0.00053351569058716,-0.00053351569060024,0.0005335156953093,-0.00053351569084385,0.00053351569066834,-0.00053351569060845,0.00053351569530203,-6.4875116859712e-12,-6.4875299721773e-12,-0.00043805657867751,0.00043805656125403,-5.3124505318123e-12,-8.0498805678876e-12,-0.00045934285494827,0.00045934284053763,-0.00045934285589652,0.00045934283961631,-0.00045934285782315,0.00045934284341252,-0.00045934285874128,0.00045934284246107,-0.00043954236887876,0.0004395423538631,-0.00043954236811921,0.0004395423531036,0.73992840791513,122718,2924,0.0018236163153039,0.0023430167430295,0.0018236163153039,33.606623198775,0.0001840529855902,0.0001840529855902,0.0001840529855902,3744172.3142544,0.0060082484963638
5419200,0.55056594790348,0.0086796841504299,0.0026347864715755,0.0034101112072789,0.0026347864715755,-0.00061614921050508,0.00061614920597804,-1.1750137291371e-12,-1.1752271560672e-12,-3.5315129639678e-12,1.772135833055e-12,-0.00065861409758786,0.00065861409190986,-0.0006586140993198,0.00065861409364165,-0.00065861409591887,0.0006586140936837,-0.00065861409762899,0.00065861409539368,-0.00061562063325636,0.00061562063160393,-0.00061562063344148,0.00061562063178868,1.8935766378276e-12,-3.4706529004068e-12,4.0562292026292e-12,-5.5597656529757e-12,-0.00090670917990488,0.00090670917839356,-0.00096493614458637,0.00096493614806689,-0.00096493614911322,0.00096493614621483,-0.00096493614774887,0.00096493614764719,-0.00096493615227569,0.00096493614579514,-0.00083723128795746,0.00083723129408944,-0.00083723129635674,0.0008372312836557,-0.00083723129071129,0.00083723129125667,-0.00083723129504722,0.00083723128501944,-8.5046587179258e-13,-8.5025039308119e-13,-0.00061614921017726,0.00061614920630586,-5.2453118769697e-12,4.219454502054e-12,-0.0006586140980104,0.00065861409155018,-0.00065861409487086,0.00065861409468185,-0.00065861409972484,0.00065861409326476,-0.00065861409658521,0.00065861409639635,-0.00061562063241326,0.00061562063281002,-0.0006156206322161,0.00061562063261244,0.72499638738019,122718,2924,0.0025642204063644,0.0037706876463957,0.0025642204063644,36.277814908948,0.00020542251927159,0.00020542251927159,0.00020542251927159,4631233.1188806,0.0089389183827927
6419200,0.7068194434013,0.010586765709157,0.0031186590657341,0.0043494475776892,0.0031186590657342,-0.00070433448527189,0.0007043344822391,-6.2718925340177e-13,-6.2729410960221e-13,-3.4708191398136e-12,1.6328520586669e-12,-0.0007685473603245,0.0007685473560323,-0.00076854736124213,0.00076854735694985,-0.00076854735870067,0.00076854735774936,-0.00076854735959672,0.00076854735864533,-0.00069618617667437,0.00069618617664927,-0.00069618617644615,0.00069618617642089,8.2912964124683e-13,-4.2873283632967e-12,3.0820816680501e-12,-6.4490770733575e-12,-0.0011502971708127,0.0011502971674307,-0.001249618123787,0.0012496181252531,-0.0012496181281683,0.0012496181233347,-0.0012496181267065,0.0012496181248269,-0.0012496181310877,0.0012496181229084,-0.0010365568321548,0.0010365568364299,-0.0010365568421123,0.0010365568277116,-0.0010365568350583,0.0010365568334552,-0.0010365568407566,0.0010365568291183,-3.3187242034889e-13,-3.3176521774151e-13,-0.00070433448497577,0.00070433448253521,-5.2683841133052e-12,4.1208071365272e-12,-0.00076854736078741,0.00076854735561723,-0.00076854735768534,0.00076854735873504,-0.00076854736168754,0.00076854735651742,-0.00076854735858056,0.00076854735963034,-0.00069618617543084,0.00069618617743521,-0.00069618617564609,0.00069618617765026,0.59839168540088,122718,2924,0.0029309283414222,0.0047811894240879,0.0029309283414222,36.740412351431,0.00020912329881144,0.00020912329881144,0.00020912329881144,4787486.2180903,0.010700034969804
7419200,0.8322209545485,0.011926512602253,0.0034572621833546,0.0050119882355435,0.0034572621833547,-0.00076254190689211,0.00076254190299945,-8.8235859785934e-13,-8.8244311136206e-13,-3.5860753191841e-12,1.4109921010422e-12,-0.00084265609675714,0.00084265609208749,-0.00084265609779149,0.00084265609312174,-0.00084265609516068,0.00084265609376518,-0.00084265609617505,0.00084265609477945,-0.00074775854062962,0.00074775853998774,-0.00074775854048659,0.0007477585398446,8.4164272956881e-13,-4.1621208206542e-12,3.1298444442242e-12,-6.3601372904069e-12,-0.0013339333393389,0.0013339333360962,-0.0014700262136001,0.0014700262151624,-0.0014700262178377,0.0014700262131236,-0.0014700262163469,0.0014700262146352,-0.0014700262205846,0.0014700262125964,-0.001182115689818,0.0011821156942271,-0.0011821156995724,0.0011821156853835,-0.0011821156927755,0.0011821156912086,-0.0011821156981892,0.0011821156868106,-6.3735032350276e-13,-6.3726450259512e-13,-0.0007625419066486,0.00076254190324297,-5.4711337135618e-12,3.8817713718102e-12,-0.00084265609728044,0.00084265609160458,-0.00084265609419126,0.00084265609471036,-0.00084265609829976,0.00084265609262394,-0.00084265609520441,0.00084265609572359,-0.00074775853951142,0.00074775854082257,-0.00074775853963916,0.00074775854095009,0.52694121020036,122718,2924,0.0031730234471711,0.0055423087558793,0.0031730234471711,40.777849921072,0.00024142279936857,0.00024142279936857,0.00024142279936857,4671148.327666,0.011959529667345
8419200,0.90786576208037,0.012651710219616,0.0036429736256571,0.0053657629683021,0.0036429736256571,-0.00078011722588395,0.00078011722502683,1.211799524474e-13,1.2107120915868e-13,-2.8054639769865e-12,2.6851607348886e-12,-0.00087215659945409,0.00087215659707752,-0.00087215660014097,0.00087215659776432,-0.00087215659768968,0.00087215659892037,-0.00087215659835998,0.00087215659959059,-0.00076183552271469,0.00076183552454609,-0.00076183552266284,0.00076183552449408,9.8174580245728e-13,-4.4878700457095e-12,3.3403885416583e-12,-6.7504367199684e-12,-0.0014361584807735,0.0014361584773515,-0.001593531671569,0.0015935316733295,-0.0015935316756102,0.0015935316706747,-0.0015935316740743,0.0015935316722312,-0.0015935316781156,0.0015935316695763,-0.0012616111381416,0.0012616111427991,-0.0012616111483924,0.001261611133279,-0.00126161114119,0.0012616111396898,-0.0012616111469685,0.0012616111347466,3.5780876036445e-13,3.5791965403555e-13,-0.00078011722564934,0.00078011722526144,-4.762427864039e-12,5.2130154610296e-12,-0.00087215660000899,0.00087215659656309,-0.00087215659670814,0.00087215659987775,-0.00087215660068084,0.000872156597235,-0.00087215659737702,0.00087215660054672,-0.00076183552167441,0.00076183552548594,-0.00076183552170966,0.00076183552552096,0.47156008474719,122718,2924,0.0032462703033694,0.0059656984981238,0.0032462703033694,41.436037209418,0.00024668829767535,0.00024668829767535,0.00024668829767535,4346458.6828639,0.012536455423012
9419200,0.94972990770468,0.012999436065446,0.00373377178622,0.0055318924930061,0.00373377178622,-0.00078036455525388,0.00078036455571294,5.5856104847573e-13,5.5845008707922e-13,-2.5046082340994e-12,3.306113941665e-12,-0.00088031259339643,0.00088031259200863,-0.00088031259393933,0.00088031259255143,-0.00088031259152458,0.0008803125939584,-0.00088031259205217,0.00088031259448591,-0.00076024059704273,0.00076024059998426,-0.00076024059707488,0.00076024060001625,1.0719400176742e-12,-4.7036611887324e-12,3.4871352351181e-12,-7.0190743956247e-12,-0.0014873481734751,0.0014873481699313,-0.0016561709120977,0.0016561709139849,-0.0016561709160534,0.0016561709109613,-0.0016561709144816,0.0016561709125546,-0.0016561709184373,0.001656170909531,-0.0013002400319429,0.0013002400367821,-0.0013002400425313,0.0013002400267863,-0.0013002400350639,0.001300240033599,-0.0013002400410743,0.0013002400282879,7.9349978853791e-13,7.9361381446626e-13,-0.00078036455502117,0.00078036455594564,-4.514971511896e-12,5.8860587079248e-12,-0.00088031259397183,0.00088031259147399,-0.00088031259052758,0.00088031259493119,-0.00088031259449959,0.00088031259200181,-0.00088031259105357,0.00088031259545726,-0.00076024059607051,0.00076024060102434,-0.00076024059602118,0.00076024060097478,0.40621133923259,122718,2924,0.0032474683545438,0.0061776095311936,0.0032474683545438,41.144274718997,0.00024435419775198,0.00024435419775198,0.00024435419775198,4035907.3302883,0.012753513733664
10419200,0.970662623295,0.013187980691808,0.0037847961342886,0.0056183884232308,0.0037847961342886,-0.00077427626430492,0.00077427626771676,1.549279931591e-12,1.5492418278894e-12,-1.8170353841986e-12,4.6666855830176e-12,-0.00087794307089385,0.00087794307169871,-0.0008779430710997,0.00087794307190443,-0.00087794306879902,0.00087794307387483,-0.00087794306899182,0.00087794307406753,-0.00075372254814106,0.00075372255355777,-0.00075372254827379,0.00075372255369042,1.2660305883404e-12,-5.1558028761142e-12,3.7800518749511e-12,-7.561482060737e-12,-0.0015090329778405,0.0015090329740468,-0.0016832421067062,0.001683242108855,-0.0016832421105047,0.0016832421051025,-0.0016832421088714,0.0016832421067599,-0.0016832421126699,0.0016832421030075,-0.00131569202819,0.0013156920333782,-0.001315692039471,0.0013156920224426,-0.0013156920314359,0.0013156920300673,-0.0013156920379586,0.0013156920240018,1.7913777599332e-12,1.791416288168e-12,-0.00077427626406525,0.00077427626795644,-3.9088799393422e-12,7.3459702759079e-12,-0.00087794307149596,0.00087794307114082,-0.00087794306776306,0.00087794307488374,-0.00087794307168605,0.00087794307133087,-0.00087794306795454,0.00087794307507518,-0.00075372254723166,0.00075372255473597,-0.00075372254708032,0.00075372255458458,0.43665130715676,122718,2924,0.0032222789203609,0.0062673511233038,0.0032222789203609,38.08776624176,0.00021990212993408,0.00021990212993408,0.00021990212993408,3881785.227902,0.012793398937258
11419200,0.98275703721273,0.013289120829757,0.0038123575172818,0.0056644057951937,0.0038123575172818,-0.00076945639174302,0.00076945639286537,7.7838754064788e-13,7.7839453425891e-13,-2.5944905581091e-12,3.8991285019478e-12,-0.00087895595324279,0.00087895595215734,-0.00087895595373572,0.00087895595265025,-0.00087895595115054,0.00087895595433404,-0.00087895595162705,0.00087895595481054,-0.00074877465615503,0.00074877465983639,-0.00074877465626002,0.00074877465994144,1.2977285611656e-12,-5.1538046430412e-12,3.9117432048126e-12,-7.6593634234697e-12,-0.0015264409822238,0.0015264409784639,-0.0017021166360135,0.0017021166382587,-0.0017021166401793,0.0017021166347452,-0.0017021166384817,0.0017021166364695,-0.0017021166426475,0.0017021166329559,-0.0013305228604699,0.0013305228659155,-0.0013305228720201,0.0013305228547891,-0.0013305228638451,0.0013305228624715,-0.0013305228704442,0.0013305228564143,1.0260039798121e-12,1.0259955388935e-12,-0.00076945639149783,0.00076945639311056,-4.7783247019309e-12,6.6851763606864e-12,-0.00087895595387316,0.00087895595157134,-0.00087895595007667,0.00087895595538121,-0.00087895595435002,0.00087895595204817,-0.00087895595055159,0.00087895595585613,-0.00074877465517953,0.00074877466102574,-0.00074877465505603,0.00074877466090226,0.40445605707229,122718,2924,0.0032023546109769,0.0063393275615476,0.003202354610977,37.626141271257,0.00021620913017005,0.00021620913017005,0.00021620913017005,3651842.4160412,0.012825966613809
12419200,0.98969341596076,0.0133544974118,0.0038305755589845,0.005693346293831,0.0038305755589845,-0.00076651150969073,0.00076651151125221,9.1948610518359e-13,9.1946730724568e-13,-2.4796167512486e-12,4.0786528411319e-12,-0.00087752075755238,0.00087752075680306,-0.00087752075799449,0.00087752075724516,-0.0008775207554382,0.00087752075900164,-0.00087752075586411,0.00087752075942752,-0.00074582288734495,0.00074582289137777,-0.00074582288747461,0.00074582289150741,1.3134145231467e-12,-5.1983643994183e-12,3.9948692536041e-12,-7.770457970784e-12,-0.0015347611833234,0.0015347611795355,-0.0017123640749554,0.00171236407726,-0.0017123640791127,0.0017123640736072,-0.0017123640773724,0.0017123640753765,-0.0017123640815297,0.0017123640717237,-0.0013364200883804,0.0013364200939678,-0.0013364201000988,0.001336420082629,-0.0013364200918428,0.0013364200904342,-0.0013364200984807,0.0013364200842984,1.1731754838237e-12,1.1731947185302e-12,-0.00076651150943947,0.00076651151150348,-4.7218176928871e-12,6.9381791977998e-12,-0.00087752075819927,0.00087752075620088,-0.00087752075433695,0.00087752076007627,-0.00087752075862495,0.00087752075662656,-0.00087752075476113,0.00087752076050046,-0.00074582288636609,0.00074582289261988,-0.00074582288621784,0.00074582289247159,0.45322610794666,122718,2924,0.0031901660670058,0.0063737503292852,0.0031901660670058,36.800802157114,0.00020960641725691,0.00020960641725691,0.00020960641725691,3571108.8877976,0.012836147894743
13419200,0.99356692801458,0.013387943899054,0.0038398919008431,0.0057081600973673,0.0038398919008431,-0.00075846381645431,0.00075846381926225,1.3261378623986e-12,1.326175397155e-12,-2.1428537891259e-12,4.6005039283511e-12,-0.00087355575756704,0.00087355575770206,-0.00087355575787972,0.00087355575801473,-0.00087355575539129,0.00087355575996281,-0.00087355575568862,0.00087355576026009,-0.00073787497184152,0.00073787497687482,-0.00073787497201718,0.00073787497705065,1.3898216595494e-12,-5.2977145702211e-12,4.132243880433e-12,-7.9289020127803e-12,-0.0015390810898348,0.0015390810860259,-0.0017164994512024,0.0017164994536501,-0.0017164994552771,0.0017164994497115,-0.001716499453498,0.0017164994515209,-0.0017164994575727,0.0017164994475823,-0.0013401379122727,0.0013401379180679,-0.0013401379241983,0.0013401379063589,-0.0013401379158131,0.0013401379144548,-0.0013401379225429,0.0013401379080669,1.5818659839036e-12,1.5818274850797e-12,-0.00075846381620107,0.00075846381951548,-4.4411157387274e-12,7.5219073997709e-12,-0.00087355575823272,0.00087355575708195,-0.00087355575426793,0.00087355576105888,-0.00087355575852884,0.00087355575737802,-0.00087355575456355,0.00087355576135451,-0.00073787497088672,0.00073787497818477,-0.00073787497069185,0.00073787497799002,0.4150894025916,122718,2924,0.0031567997505869,0.0063915573737348,0.0031567997505869,34.786205534318,0.00019348964427454,0.00019348964427454,0.00019348964427454,3424898.1182841,0.012786615360158
14419200,0.99580381796305,0.013405807165768,0.0038448996154789,0.0057160079348107,0.0038448996154789,-0.00075288707562119,0.00075288707861512,1.387122286131e-12,1.3871750103073e-12,-2.1613914415633e-12,4.7436272030922e-12,-0.00086767829584841,0.00086767829610861,-0.00086767829613529,0.00086767829639548,-0.00086767829362043,0.00086767829842346,-0.00086767829389172,0.00086767829869479,-0.00073222197353296,0.00073222197876032,-0.00073222197372419,0.00073222197895169,1.4311049571965e-12,-5.41526339095e-12,4.2401003501978e-12,-8.1103424110771e-12,-0.0015376390466328,0.00153763904275,-0.0017166926025813,0.001716692605104,-0.001716692606716,0.0017166926010346,-0.0017166926048954,0.0017166926028881,-0.0017166926090301,0.0017166925988187,-0.0013369680362065,0.0013369680421596,-0.0013369680484155,0.0013369680301656,-0.0013369680398319,0.0013369680384581,-0.0013369680467201,0.0013369680319155,1.6504673587669e-12,1.6504171544182e-12,-0.00075288707536031,0.000752887078876,-4.5139882184055e-12,7.7377703085241e-12,-0.00086767829652898,0.00086767829547493,-0.00086767829246822,0.00086767829954759,-0.00086767829679882,0.00086767829574473,-0.00086767829273782,0.00086767829981716,-0.00073222197256497,0.00073222198011461,-0.0007322219723545,0.00073222197990424,0.38312450045663,122718,2924,0.0031336484131411,0.0063855966194773,0.0031336484131411,32.634956993696,0.00017627965594957,0.00017627965594957,0.00017627965594957,3416242.4041476,0.012733683018825
15419200,0.99696809607153,0.01341824774041,0.0038484403889382,0.0057213669625335,0.0038484403889382,-0.00074085275016189,0.00074085275651923,2.5075180698383e-12,2.5075144466436e-12,-1.3225474316426e-12,6.2159370191556e-12,-0.00085567819157102,0.00085567819432297,-0.0008556781914723,0.00085567819422422,-0.00085567818913314,0.0008556781968517,-0.00085567818902133,0.00085567819673988,-0.00072019245364892,0.00072019246163917,-0.00072019245393733,0.00072019246192764,1.6206060504211e-12,-5.8310996874366e-12,4.5296839742051e-12,-8.6179751973616e-12,-0.0015290933439574,0.001529093339856,-0.0017090299782689,0.0017090299810615,-0.001709029982192,0.0017090299762307,-0.0017090299803094,0.0017090299781493,-0.0017090299842325,0.0017090299733184,-0.0013274486954115,0.0013274487017197,-0.0013274487082603,0.0013274486888097,-0.0013274486991629,0.0013274486978888,-0.0013274487065084,0.0013274486906184,2.7807663436146e-12,2.7807738139747e-12,-0.00074085274989105,0.00074085275679008,-3.7551961636878e-12,9.3139019846105e-12,-0.00085567819227616,0.00085567819366886,-0.00085567818793805,0.00085567819801518,-0.00085567819215946,0.00085567819355215,-0.00085567818782482,0.00085567819790192,-0.00072019245273682,0.00072019246313146,-0.00072019245242809,0.0007201924628227,0.51103778709309,122718,2924,0.0030836720432652,0.0063502160441522,0.0030836720432651,27.046978021966,0.00013157582417573,0.00013157582417573,0.00013157582417573,3434991.1736759,0.012596637327991
16419200,0.99771616762182,0.013425512518373,0.0038504876941892,0.0057245371299947,0.0038504876941892,-0.00072967641671809,0.00072967642027935,1.5705102462547e-12,1.5704792384417e-12,-2.2108644449029e-12,5.2129266016118e-12,-0.00085044480500419,0.0008504448054647,-0.00085044480525562,0.0008504448057161,-0.00085044480261014,0.0008504448079519,-0.00085044480284491,0.00085044480818662,-0.00070936762951477,0.00070936763534479,-0.00070936762973835,0.00070936763556834,1.640096602057e-12,-5.7216056794622e-12,4.6349469349645e-12,-8.596147570063e-12,-0.001530402437301,0.0015304024333266,-0.0017082040486445,0.0017082040515349,-0.0017082040529828,0.0017082040470908,-0.0017082040510442,0.0017082040490671,-0.0017082040553826,0.0017082040446229,-0.001329843083002,0.0013298430895583,-0.0013298430959942,0.0013298430766176,-0.0013298430868649,0.0013298430856132,-0.0013298430941862,0.0013298430784844,1.8435336813115e-12,1.8435661950241e-12,-0.00072967641644726,0.0007296764205502,-4.7300298831868e-12,8.3995347984151e-12,-0.00085044480573839,0.00085044480478097,-0.00085044480138649,0.00085044480914481,-0.00085044480597179,0.00085044480501434,-0.00085044480161955,0.00085044480937787,-0.00070936762850903,0.00070936763680132,-0.00070936762826592,0.00070936763655813,0.46538451425637,122718,2924,0.0030373182838314,0.0063555140467945,0.0030373182838314,24.407508040501,0.00011046006432401,0.00011046006432401,0.00011046006432401,3243698.0694255,0.012508160127553
17419200,0.99821863575662,0.013431042401043,0.0038520705456503,0.005726901309742,0.0038520705456503,-0.00072360529026099,0.00072360529364109,1.5064885513383e-12,1.5064364225884e-12,-2.2427370226881e-12,5.1008219675079e-12,-0.00084280073394581,0.00084280073434034,-0.00084280073420399,0.00084280073459846,-0.00084280073157759,0.00084280073680115,-0.00084280073181892,0.00084280073704243,-0.00070321379312777,0.00070321379878777,-0.0007032137933573,0.00070321379901724,1.5897214645123e-12,-5.691774473138e-12,4.636229425197e-12,-8.6183479506801e-12,-0.0015260882715895,0.0015260882675945,-0.0017060150752316,0.0017060150780823,-0.0017060150795909,0.0017060150736449,-0.0017060150776201,0.001706015075656,-0.0017060150819794,0.0017060150712185,-0.0013234627197048,0.0013234627262902,-0.00132346273275,0.0013234627133556,-0.001323462723635,0.0013234627222752,-0.0013234627309086,0.0013234627152577,1.788479833757e-12,1.7885345820845e-12,-0.00072360528998122,0.00072360529392087,-4.8022746467471e-12,8.3489147317719e-12,-0.00084280073468821,0.00084280073364835,-0.00084280073032948,0.00084280073801916,-0.000842800734928,0.00084280073388815,-0.00084280073056895,0.00084280073825864,-0.00070321379210204,0.00070321380027606,-0.00070321379185285,0.00070321380002672,0.52521873377382,122718,2924,0.0030120969298657,0.0063376875717217,0.0030120969298658,21.970372467531,9.0962979740245e-05,9.0962979740245e-05,9.0962979740245e-05,3267936.799333,0.012439029989583
18419200,0.99853081885715,0.013434342978841,0.0038530106670252,0.0057283216447911,0.0038530106670252,-0.00071063285878826,0.00071063286418485,2.1658983222636e-12,2.1658707507541e-12,-1.6676599456775e-12,5.9053747125032e-12,-0.000832623259493,0.00083262326135591,-0.00083262325953332,0.00083262326139619,-0.00083262325704734,0.00083262326389437,-0.00083262325707246,0.00083262326391943,-0.00069035153789608,0.00069035154515261,-0.00069035153819187,0.00069035154544842,1.6788553885909e-12,-5.8171564369227e-12,4.7780543866595e-12,-8.7940238780188e-12,-0.0015210253857863,0.0015210253817572,-0.0017005124347606,0.0017005124377677,-0.0017005124389403,0.0017005124329267,-0.0017005124369361,0.0017005124349724,-0.0017005124411157,0.0017005124301314,-0.0013183396435769,0.0013183396503637,-0.0013183396568185,0.0013183396370079,-0.0013183396475742,0.0013183396462804,-0.0013183396549456,0.0013183396389426,2.4483612924784e-12,2.448390953337e-12,-0.00071063285850799,0.00071063286446514,-4.2765478249877e-12,9.2051045178572e-12,-0.00083262326025289,0.0008326232606475,-0.000832623255781,0.00083262326512953,-0.00083262326027462,0.00083262326066922,-0.0008326232558043,0.00083262326515285,-0.00069035153691921,0.00069035154672457,-0.00069035153660354,0.00069035154640886,0.50516361584657,122718,2924,0.0029582465114603,0.006316668168369,0.0029582465114603,17.468055186903,5.4944441495227e-05,5.4944441495227e-05,5.4944441495227e-05,3181311.2900616,0.012308732250544
19419200,0.99878947877439,0.013437890760068,0.0038540346905012,0.0057298213790657,0.0038540346905012,-0.00070966078135667,0.00070966078238033,7.2357899442311e-13,7.2353873525548e-13,-2.9476378891858e-12,4.2013679746217e-12,-0.00083092060010387,0.00083092059869633,-0.00083092060063713,0.00083092059922955,-0.00083092059780292,0.00083092060109017,-0.00083092059831676,0.00083092060160398,-0.0006893111734443,0.00068931117725309,-0.00068931117362703,0.00068931117743576,1.5386638184059e-12,-5.5673438626431e-12,4.6540405281389e-12,-8.5653770394933e-12,-0.0015217517052505,0.0015217517013264,-0.0017024325632744,0.0017024325661065,-0.0017024325679435,0.0017024325620223,-0.0017024325659283,0.0017024325640801,-0.0017024325705974,0.0017024325599959,-0.0013178913886997,0.001317891395387,-0.0013178914018072,0.0013178913825754,-0.0013178913927202,0.0013178913912788,-0.0013178913999197,0.0013178913845255,1.0098599730004e-12,1.0099001041274e-12,-0.00070966078107261,0.00070966078266439,-5.5720918940645e-12,7.5257651959803e-12,-0.00083092060086491,0.00083092059798463,-0.00083092059652867,0.00083092060233572,-0.00083092060137968,0.0008309205984994,-0.00083092059704038,0.00083092060284745,-0.00068931117234431,0.0006893111787224,-0.00068931117214225,0.00068931117852022,0.65325215552177,122718,2924,0.0029542096259672,0.0063196920567813,0.0029542096259672,17.551688956307,5.5613511650453e-05,5.5613511650453e-05,5.5613511650453e-05,3170359.2400682,0.012303615844454
20419200,0.99901460914837,0.013441199020193,0.0038549878686596,0.0057312232828739,0.0038549878686596,-0.00070616865449775,0.00070616865456908,3.9576040243843e-13,3.9572251386129e-13,-3.0505055775309e-12,3.6411766763167e-12,-0.0008325038871105,0.00083250388506071,-0.00083250388775742,0.00083250388570759,-0.00083250388495736,0.00083250388730113,-0.00083250388558501,0.00083250388792873,-0.00068607933881819,0.0006860793417365,-0.00068607933898924,0.00068607934190753,1.415864069854e-12,-5.2401658871174e-12,4.5055901808422e-12,-8.2195117819101e-12,-0.0015289184304885,0.0015289184267624,-0.0017077325426619,0.0017077325453746,-0.001707732547296,0.0017077325415856,-0.0017077325452949,0.0017077325436276,-0.0017077325499289,0.0017077325398386,-0.0013260648406448,0.0013260648471954,-0.0013260648532888,0.0013260648348886,-0.0013260648446353,0.001326064843119,-0.0013260648514112,0.0013260648368278,6.7176428688568e-13,6.7181884404253e-13,-0.00070616865422388,0.00070616865484296,-5.6673780419617e-12,6.9354916994783e-12,-0.00083250388787235,0.00083250388434468,-0.00083250388370151,0.00083250388853142,-0.0008325038885015,0.00083250388497385,-0.00083250388432664,0.00083250388915657,-0.00068607933772361,0.00068607934317741,-0.00068607933753444,0.00068607934298813,0.70012779305903,122718,2924,0.0029397647214338,0.0063492568339675,0.0029397647214338,18.599612991929,6.3996903935435e-05,6.3996903935435e-05,6.3996903935435e-05,2974963.5609532,0.012304324584306
21419200,0.9991676842048,0.013443291065648,0.0038555937306162,0.0057321036044157,0.0038555937306162,-0.00069507279005475,0.0006950727944723,1.8149110520367e-12,1.8148461280378e-12,-1.7551632725109e-12,5.2912391503937e-12,-0.00082250696902492,0.00082250697023283,-0.00082250696918385,0.0008225069703917,-0.00082250696674936,0.00082250697259463,-0.00082250696689311,0.00082250697273831,-0.000675029293975,0.00067502930028679,-0.00067502929428287,0.00067502930059463,1.5218620081603e-12,-5.4557138610983e-12,4.598591692651e-12,-8.4175906130907e-12,-0.0015249782869841,0.0015249782831527,-0.0017049027204415,0.0017049027232858,-0.001704902724558,0.0017049027187532,-0.0017049027225664,0.0017049027207854,-0.0017049027266828,0.0017049027162528,-0.0013206362540895,0.0013206362607014,-0.001320636266804,0.0013206362479077,-0.0013206362580609,0.0013206362566445,-0.0013206362649386,0.0013206362498344,2.0895210489192e-12,2.0895696650811e-12,-0.00069507278978234,0.00069507279474472,-4.3564565603013e-12,8.5669383295727e-12,-0.00082250696978405,0.00082250696952105,-0.00082250696549911,0.00082250697381763,-0.00082250696992514,0.00082250696966215,-0.00082250696564053,0.00082250697395906,-0.00067502929302396,0.0006750293018575,-0.00067502929269741,0.00067502930153086,0.64990944923706,122718,2924,0.0028936980857256,0.0063329219979387,0.0028936980857256,15.218210652509,3.6945685220076e-05,3.6945685220076e-05,3.6945685220076e-05,2906822.8492593,0.012194532126485
22419200,0.99929445599624,0.013445069969503,0.0038561115302686,0.0057328469089659,0.0038561115302686,-0.00069347931815163,0.00069347931966307,8.6509353522162e-13,8.6505074031459e-13,-2.6493063780087e-12,4.2083795545404e-12,-0.00081884383574081,0.00081884383479265,-0.00081884383622079,0.0008188438352726,-0.00081884383353119,0.00081884383708943,-0.00081884383399323,0.00081884383755143,-0.00067320470528637,0.00067320470934473,-0.00067320470551764,0.00067320470957598,1.448164906615e-12,-5.3620441638197e-12,4.51405627515e-12,-8.3150060410966e-12,-0.001523974155754,0.0015239741519408,-0.0017060861080438,0.0017060861107665,-0.001706086112503,0.0017060861067231,-0.0017060861105186,0.0017060861087486,-0.0017060861149777,0.0017060861047053,-0.0013176943321619,0.0013176943386723,-0.0013176943448565,0.0013176943262164,-0.0013176943361203,0.0013176943346279,-0.0013176943429964,0.0013176943281379,1.142434320004e-12,1.1424816126768e-12,-0.0006934793178766,0.0006934793199381,-5.2382069175508e-12,7.4775953738773e-12,-0.00081884383649342,0.00081884383408642,-0.00081884383228277,0.0008188438383117,-0.00081884383695561,0.00081884383454862,-0.00081884383274236,0.0008188438387713,-0.00067320470425948,0.00067320471083849,-0.00067320470400954,0.00067320471058846,0.66642562144511,122718,2924,0.0028870666822175,0.006328811666294,0.0028870666822175,14.858153796286,3.4065230370288e-05,3.4065230370288e-05,3.4065230370288e-05,2925750.8719019,0.012176936744588
23419200,0.9994070485043,0.013446559361153,0.0038565435961864,0.0057334721687797,0.0038565435961864,-0.00069358898597821,0.00069358898629654,4.6981331480514e-13,4.6976690417102e-13,-2.9119024569817e-12,3.6533803035042e-12,-0.00081953303676384,0.00081953303496723,-0.0008195330373798,0.00081953303558314,-0.00081953303464983,0.00081953303716558,-0.00081953303524724,0.00081953303776294,-0.00067324568220765,0.00067324568526407,-0.00067324568240658,0.00067324568546295,1.3557337597348e-12,-5.1715086316082e-12,4.3868276324859e-12,-8.0939091483961e-12,-0.0015268123163625,0.0015268123126435,-0.0017090867873418,0.0017090867899419,-0.0017090867918547,0.0017090867861895,-0.0017090867898913,0.0017090867881927,-0.0017090867944041,0.0017090867844404,-0.0013203132384551,0.0013203132448143,-0.0013203132508618,0.0013203132327511,-0.0013203132423705,0.0013203132408144,-0.0013203132490201,0.0013203132346533,7.428557474433e-13,7.4290874582424e-13,-0.00069358898570751,0.00069358898656725,-5.4751458262886e-12,6.8868269582115e-12,-0.00081953303750859,0.00081953303426674,-0.00081953303341733,0.00081953303837386,-0.00081953303810716,0.00081953303486532,-0.00081953303401207,0.00081953303896861,-0.00067324568116325,0.00067324568671082,-0.00067324568094624,0.00067324568649369,0.62875729639221,122718,2924,0.0028875324137161,0.0063405507640507,0.0028875324137161,15.707577899738,4.0860623197901e-05,4.0860623197901e-05,4.0860623197901e-05,2876984.1174648,0.012189765601326
24419200,0.99951334886713,0.013448042963165,0.0038569761872643,0.0057340905886368,0.0038569761872643,-0.00069799116918065,0.00069799116817304,3.129704941133e-14,3.1251049926187e-14,-3.2012568324777e-12,3.0276978000282e-12,-0.00082271592780792,0.00082271592507946,-0.00082271592857078,0.00082271592584227,-0.00082271592580387,0.00082271592716482,-0.00082271592654746,0.00082271592790836,-0.00067753049302745,0.0006775304949689,-0.00067753049318394,0.00067753049512535,1.2410691156022e-12,-4.960757893428e-12,4.2178175015117e-12,-7.833270287205e-12,-0.0015306155812918,0.0015306155776649,-0.0017138533920762,0.00171385339451,-0.0017138533966366,0.001713853391097,-0.0017138533947072,0.0017138533930649,-0.0017138533992675,0.0017138533896519,-0.001323328924737,0.001323328930877,-0.0013233289367907,0.0013233289193011,-0.0013233289285839,0.001323328926947,-0.0013233289349798,0.0013233289211715,3.011226538508e-13,3.0117063767905e-13,-0.00069799116891325,0.00069799116844046,-5.7183563963726e-12,6.2068443428865e-12,-0.0008227159285371,0.0008227159243922,-0.00082271592459306,0.00082271592835349,-0.00082271592928301,0.00082271592513811,-0.00082271592533379,0.00082271592909425,-0.000677530491961,0.00067753049635311,-0.00067753049178692,0.00067753049617893,0.66255127740754,122718,2924,0.0029058118101682,0.0063563240577443,0.0029058118101682,17.886371127341,5.8290969018732e-05,5.8290969018732e-05,5.8290969018732e-05,2878538.3935369,0.012242730625426
25419200,0.99961025593985,0.013449636354949,0.0038574427443678,0.0057347508662137,0.0038574427443678,-0.00070060586715673,0.00070060586626221,6.3380446123818e-14,6.3327724848388e-14,-3.067962240933e-12,2.9627055796135e-12,-0.00082667662991231,0.00082667662732939,-0.0008266766306615,0.00082667662807849,-0.00082667662797105,0.00082667662934871,-0.00082667662870183,0.00082667663007941,-0.00068016943822921,0.00068016944018229,-0.00068016943839479,0.00068016944034784,1.1797601356083e-12,-4.8229648970271e-12,4.0890392003063e-12,-7.6310892872252e-12,-0.0015359641477291,0.0015359641441758,-0.001718658926791,0.0017186589291263,-0.0017186589312254,0.001718658925802,-0.0017186589293381,0.0017186589277253,-0.0017186589337725,0.0017186589244011,-0.001329035472375,0.0013290354783285,-0.0013290354840969,0.0013290354670716,-0.001329035476136,0.0013290354744874,-0.0013290354823259,0.0013290354689,3.2495067592108e-13,3.2500511543446e-13,-0.00070060586689761,0.00070060586652132,-5.5306761592868e-12,6.0679135664462e-12,-0.00082667663062671,0.00082667662665516,-0.00082667662679037,0.00082667663050855,-0.00082667663135948,0.00082667662738796,-0.00082667662751819,0.00082667663123642,-0.00068016943720178,0.00068016944154597,-0.00068016943701898,0.00068016944136308,0.77991302017261,122718,2924,0.0029166902095142,0.0063784391540479,0.0029166902095142,19.931081935369,7.464865548295e-05,7.464865548295e-05,7.464865548295e-05,2811258.0431213,0.012287147550739
26419200,0.99968969681517,0.013451026317558,0.0038578507668934,0.0057353247837712,0.0038578507668934,-0.00069745542209695,0.00069745542277335,5.7475357770214e-13,5.7470777386819e-13,-2.582797214965e-12,3.5497130292918e-12,-0.00082703678442166,0.0008270367830158,-0.00082703678499984,0.00082703678359393,-0.00082703678244455,0.00082703678507001,-0.00082703678300608,0.00082703678563149,-0.0006772314499383,0.00067723145310503,-0.0006772314501638,0.00067723145333051,1.2192734285043e-12,-4.8731953625209e-12,4.0843184621687e-12,-7.636096663665e-12,-0.0015402794672219,0.0015402794636588,-0.0017217411025868,0.0017217411049549,-0.0017217411067983,0.0017217411013943,-0.001721741104939,0.0017217411032876,-0.0017217411091505,0.0017217410997271,-0.0013339554175016,0.0013339554234112,-0.0013339554291361,0.0013339554120719,-0.0013339554212049,0.0013339554196299,-0.0013339554273943,0.0013339554138698,8.2876753466188e-13,8.288106656972e-13,-0.00069745542184539,0.00069745542302492,-5.0096691345173e-12,6.6016741611617e-12,-0.00082703678512876,0.00082703678234892,-0.00082703678128514,0.00082703678620811,-0.00082703678569088,0.00082703678291103,-0.00082703678184383,0.00082703678676682,-0.00067723144899302,0.00067723145450616,-0.00067723144875042,0.00067723145426348,0.82922923068302,122718,2924,0.0029036471858153,0.0063962285579469,0.0029036471858153,20.395173348787,7.8361386790296e-05,7.8361386790296e-05,7.8361386790296e-05,2677296.0893376,0.012278766219797
27419200,0.99975898771546,0.013452119878257,0.0038581724678546,0.0057357749425473,0.0038581724678546,-0.00069840444235825,0.00069840444164918,1.1821843814022e-13,1.1815775536628e-13,-2.9970523024035e-12,3.0184798169253e-12,-0.0008287663481196,0.00082876634567448,-0.00082876634885374,0.00082876634640864,-0.00082876634618253,0.00082876634768844,-0.00082876634689896,0.00082876634840489,-0.00067817151117516,0.00067817151325473,-0.00067817151136374,0.00067817151344353,1.183404230166e-12,-4.8024909342573e-12,4.0149196999003e-12,-7.5333020392644e-12,-0.0015454038293933,0.0015454038258639,-0.0017274125062587,0.0017274125085575,-0.001727412510607,0.0017274125052579,-0.0017274125087689,0.0017274125071291,-0.0017274125131171,0.0017274125038295,-0.0013383001469157,0.0013383001527291,-0.00133830015845,0.0013383001416231,-0.0013383001505762,0.0013383001489915,-0.0013383001567284,0.0013383001434,3.6900084492454e-13,3.6905794612131e-13,-0.00069840444210992,0.00069840444189754,-5.3955998151882e-12,6.0345927829027e-12,-0.00082876634881841,0.00082876634501495,-0.00082876634503739,0.00082876634881297,-0.00082876634953684,0.00082876634573346,-0.00082876634575105,0.00082876634952663,-0.00067817151020728,0.00067817151460543,-0.00067817151000167,0.00067817151439988,0.74718867332314,122718,2924,0.0029076091638967,0.0064174279203685,0.0029076091638967,22.256950461195,9.3255603689561e-05,9.3255603689561e-05,9.3255603689561e-05,2601414.1322702,0.012308249842337
28419200,0.99981592920192,0.013453143553349,0.003858476299049,0.0057361909552506,0.003858476299049,-0.00070113074467848,0.00070113074463948,3.3762452219966e-13,3.3756888043096e-13,-2.7831422397827e-12,3.2493857040854e-12,-0.00082870802248315,0.00082870802057451,-0.00082870802313606,0.00082870802122737,-0.00082870802053879,0.00082870802259476,-0.00082870802117473,0.00082870802323066,-0.00068063999209287,0.00068063999468524,-0.00068063999230258,0.00068063999489488,1.1761242172713e-12,-4.8211582169259e-12,3.9732715016359e-12,-7.5172557647612e-12,-0.0015464522111584,0.0015464522076033,-0.0017306909284524,0.0017306909307166,-0.0017306909326875,0.0017306909273357,-0.0017306909308717,0.0017306909291839,-0.0017306909351068,0.001730690925803,-0.0013375006781649,0.00133750068389,-0.0013375006896263,0.0013375006728269,-0.0013375006817808,0.0013375006801981,-0.0013375006879269,0.0013375006745808,5.8786505583195e-13,5.8792073060172e-13,-0.00070113074443084,0.00070113074488714,-5.1480431719913e-12,6.2298071404696e-12,-0.00082870802317092,0.00082870801992576,-0.00082870801940602,0.00082870802370698,-0.00082870802380813,0.00082870802056298,-0.0008287080200391,0.00082870802434008,-0.000680639991158,0.00068063999604471,-0.00068063999093117,0.00068063999581774,0.8493285419621,122718,2924,0.0029189126929207,0.0064218313526874,0.0029189126929208,23.444427181691,0.00010275541745353,0.00010275541745353,0.00010275541745353,2642404.8790794,0.012335578694032
29419200,0.99986219598506,0.013453737932551,0.0038586502061778,0.0057364375201952,0.0038586502061778,-0.00070088709589569,0.00070088709570949,2.8695546900151e-13,2.868969682611e-13,-2.8227678472622e-12,3.1967956342054e-12,-0.00083143947644329,0.00083143947440604,-0.00083143947711968,0.00083143947508236,-0.00083143947450349,0.00083143947642155,-0.00083143947516292,0.00083143947708093,-0.00068048248628561,0.00068048248875796,-0.00068048248649921,0.0006804824889715,1.1818587479677e-12,-4.803986888557e-12,3.9565257779122e-12,-7.478099313905e-12,-0.001551676629928,0.0015516766263954,-0.0017345661336058,0.0017345661358688,-0.0017345661378418,0.0017345661325265,-0.0017345661360398,0.0017345661343598,-0.0017345661402757,0.0017345661310175,-0.0013436759764869,0.0013436759821838,-0.001343675987886,0.0013436759711678,-0.001343675980074,0.0013436759785221,-0.0013436759862005,0.001343675972907,5.3226291620386e-13,5.3232107619182e-13,-0.00070088709565295,0.00070088709595223,-5.1716734501026e-12,6.1499374439451e-12,-0.00083143947712846,0.00083143947375958,-0.00083143947338245,0.00083143947752216,-0.00083143947778939,0.00083143947442051,-0.000831439474039,0.00083143947817873,-0.00068048248536677,0.00068048249010913,-0.00068048248513626,0.00068048248987848,0.60881578646039,122718,2924,0.0029179339571938,0.006443394786804,0.0029179339571938,24.783777901701,0.00011347022321361,0.00011347022321361,0.00011347022321361,2528856.5530485,0.012355442769447
30419200,0.99989899835438,0.013454138568918,0.003858768039577,0.0057366024897643,0.003858768039577,-0.00070806247490896,0.00070806247469925,2.8450253658397e-13,2.8446417300986e-13,-2.8384035148239e-12,3.1791884073882e-12,-0.00083125206909223,0.00083125206708205,-0.00083125206975699,0.00083125206774678,-0.00083125206715229,0.00083125206909728,-0.00083125206780005,0.000831252069745,-0.00068727845648025,0.00068727845894467,-0.00068727845667957,0.00068727845914399,1.1549153357763e-12,-4.8282652351054e-12,3.9057235063573e-12,-7.4780483742847e-12,-0.0015492979383538,0.0015492979347705,-0.0017364289263358,0.0017364289285313,-0.0017364289305631,0.0017364289252136,-0.0017364289287772,0.0017364289270309,-0.0017364289330045,0.0017364289237132,-0.0013380754425946,0.0013380754481916,-0.0013380754539817,0.0013380754372634,-0.0013380754461507,0.0013380754445609,-0.0013380754523119,0.0013380754389867,5.3372915082316e-13,5.3376950253162e-13,-0.00070806247466246,0.00070806247494576,-5.1587297572882e-12,6.1116641278745e-12,-0.00083125206976527,0.00083125206644758,-0.00083125206603637,0.00083125207019298,-0.0008312520704145,0.0008312520670968,-0.00083125206668131,0.00083125207083794,-0.00068727845555141,0.00068727846027725,-0.00068727845533474,0.00068727846006047,0.51512748248588,122718,2924,0.0029476696552104,0.0064337082423235,0.0029476696552105,26.134523743932,0.00012427618995146,0.00012427618995146,0.00012427618995146,2719371.7759996,0.012405806321915
31419200,0.99992879230435,0.013454556974428,0.0038588914476799,0.0057367740790677,0.0038588914476799,-0.00071608516495668,0.00071608516374782,-4.3414752753222e-14,-4.3457674351004e-14,-3.0955811141072e-12,2.7566475804263e-12,-0.00083761500175506,0.00083761499899191,-0.00083761500253486,0.00083761499977167,-0.00083761499987025,0.0008376150009512,-0.0008376150006322,0.00083761500171311,-0.00069506992367851,0.0006950699253356,-0.00069506992383659,0.00069506992549366,1.1050868285912e-12,-4.7218923376656e-12,3.8241068820421e-12,-7.3421705840815e-12,-0.0015517501554946,0.0015517501519656,-0.0017387287599351,0.0017387287620536,-0.0017387287642372,0.0017387287589615,-0.0017387287624709,0.0017387287607581,-0.001738728766773,0.0017387287576661,-0.0013412159576018,0.001341215963094,-0.0013412159688173,0.0013412159524184,-0.0013412159611177,0.0013412159595047,-0.0013412159671657,0.0013412159541226,2.0282731847053e-13,2.0287239062302e-13,-0.00071608516471316,0.00071608516399135,-5.3902038917946e-12,5.6560011087287e-12,-0.0008376150024202,0.00083761499836432,-0.00083761499876759,0.00083761500203449,-0.00083761500318468,0.0008376149991288,-0.00083761499952667,0.00083761500279359,-0.0006950699227214,0.00069506992661409,-0.00069506992254628,0.00069506992643887,0.66479676253864,122718,2924,0.0029809665480133,0.0064438945578401,0.0029809665480133,28.445480075181,0.00014276384060145,0.00014276384060145,0.00014276384060145,2784118.4549995,0.012483536322767
32419200,0.99995055286826,0.013454916937184,0.0038589974573191,0.0057369220225454,0.0038589974573191,-0.00071437549019913,0.0007143754904749,4.4331111156161e-13,4.4325477668448e-13,-2.6459162113554e-12,3.3349834420745e-12,-0.00084191747953343,0.00084191747788157,-0.00084191748015391,0.00084191747850199,-0.00084191747760469,0.00084191747988471,-0.00084191747820898,0.00084191748048896,-0.0006937446776479,0.00069374468046104,-0.00069374467786731,0.00069374468068041,1.1609123290429e-12,-4.7830650865272e-12,3.8658271369287e-12,-7.3881159451881e-12,-0.0015573757191998,0.0015573757156665,-0.0017406981615162,0.0017406981637099,-0.0017406981656332,0.0017406981603625,-0.0017406981638755,0.0017406981621492,-0.0017406981679926,0.0017406981588019,-0.0013496254499116,0.0013496254554424,-0.0013496254611226,0.0013496254445953,-0.0013496254534085,0.0013496254518732,-0.001349625459481,0.0013496254462889,6.8339200519628e-13,6.8344967990495e-13,-0.00071437548996169,0.00071437549071236,-4.9327699837336e-12,6.2128224594319e-12,-0.00084191748020028,0.0008419174772529,-0.00084191747651155,0.00084191748095758,-0.00084191748080559,0.00084191747785822,-0.00084191747711307,0.00084191748155913,-0.00069374467676298,0.00069374468178986,-0.00069374467652665,0.0006937446815534,0.7835582016357,122718,2924,0.0029739224149814,0.006467052208445,0.0029739224149814,29.29806970383,0.00014958455763064,0.00014958455763064,0.00014958455763064,2614736.5891954,0.012492748951751
33419200,0.99996567564585,0.013455175964919,0.0038590742530275,0.0057370274588643,0.0038590742530275,-0.00071045740319624,0.00071045740434329,7.2592002768556e-13,7.2587350954669e-13,-2.4307567714609e-12,3.7184755795941e-12,-0.00084127093847163,0.00084127093742444,-0.00084127093900187,0.00084127093795462,-0.00084127093648751,0.00084127093948404,-0.00084127093700219,0.00084127093999868,-0.00069011594575981,0.00069011594928392,-0.00069011594601462,0.0006901159495387,1.2228060852899e-12,-4.8826042515564e-12,3.9330842587404e-12,-7.4908959817991e-12,-0.0015603954988237,0.0015603954952547,-0.0017426679278702,0.0017426679301436,-0.0017426679319189,0.00174266792661,-0.0017426679301581,0.0017426679283998,-0.0017426679342069,0.0017426679248662,-0.0013529961805863,0.0013529961861928,-0.0013529961919075,0.0013529961751245,-0.0013529961840892,0.0013529961826177,-0.0013529961902644,0.0013529961768195,9.6506012101692e-13,9.6510931069068e-13,-0.00071045740295973,0.00071045740457981,-4.7220960961468e-12,6.59894310259e-12,-0.00084127093914149,0.00084127093679361,-0.00084127093539316,0.0008412709405572,-0.00084127093965655,0.0008412709373087,-0.00084127093590514,0.00084127094106924,-0.0006901159449099,0.00069011595064848,-0.00069011594463802,0.00069011595037648,0.80945760226261,122718,2924,0.0029576911042874,0.0064794816375937,0.0029576911042874,29.317375146541,0.00014973900117233,0.00014973900117233,0.00014973900117233,2495409.6649501,0.012472479878283
34419200,0.99997712298757,0.01345535394576,0.0038591271526987,0.005737099640363,0.0038591271526988,-0.00071290867605497,0.00071290867500117,1.2975688160457e-15,1.2462612727023e-15,-3.0896259872087e-12,2.873141609849e-12,-0.00084376114628242,0.00084376114358616,-0.00084376114705781,0.0008437611443615,-0.00084376114436234,0.00084376114558182,-0.0008437611451202,0.00084376114633963,-0.00069249436351325,0.000692494365311,-0.0006924943637039,0.0006924943655016,1.1642771674258e-12,-4.7713126514384e-12,3.8739363597857e-12,-7.3810848070434e-12,-0.0015652778465293,0.0015652778430112,-0.0017483665650967,0.0017483665672916,-0.0017483665693965,0.0017483665641378,-0.0017483665676358,0.0017483665659277,-0.0017483665719355,0.001748366562774,-0.0013569626983897,0.0013569627039438,-0.0013569627096555,0.0013569626931444,-0.0013569627018928,0.0013569627003683,-0.0013569627080109,0.001356962694841,2.4070495545237e-13,2.4076673297687e-13,-0.00071290867581818,0.00071290867523793,-5.3817310918093e-12,5.7551936101754e-12,-0.00084376114695154,0.00084376114295504,-0.00084376114326838,0.00084376114665572,-0.00084376114771185,0.00084376114371534,-0.00084376114402336,0.00084376114741073,-0.0006924943625986,0.00069249436661198,-0.00069249436239114,0.00069249436640436,0.73398852679868,122718,2924,0.0029678837882265,0.0064996942249244,0.0029678837882264,31.489045065614,0.00016711236052491,0.00016711236052491,0.00016711236052491,2446423.968399,0.01251358325979
35419200,0.99998610175785,0.013455477510587,0.0038591638903267,0.0057371497299333,0.0038591638903267,-0.00072287630005293,0.00072287629655995,-8.0137781441374e-13,-8.0139512506368e-13,-3.6926965913892e-12,1.8012299442499e-12,-0.0008511072285581,0.00085110722408859,-0.00085110722960672,0.0008511072251372,-0.0008511072267928,0.0008511072259262,-0.00085110722782205,0.00085110722695544,-0.00070218448006851,0.00070218447987129,-0.00070218448017042,0.00070218447997317,1.0097932985667e-12,-4.4771134919619e-12,3.6810853688982e-12,-7.0545864872253e-12,-0.0015722003492954,0.0015722003459114,-0.001756987432781,0.0017569874347722,-0.0017569874372611,0.001756987432159,-0.0017569874355239,0.0017569874339246,-0.0017569874400039,0.0017569874313114,-0.0013626128410634,0.0013626128463965,-0.0013626128519405,0.0013626128362211,-0.0013626128445197,0.0013626128428688,-0.0013626128503151,0.001362612837898,-5.6375293949938e-13,-5.637314107453e-13,-0.00072287629981804,0.00072287629679485,-5.9542213379194e-12,4.6480434218243e-12,-0.00085110722921539,0.00085110722346625,-0.00085110722571411,0.00085110722698759,-0.00085110723024941,0.00085110722450025,-0.00085110722674028,0.00085110722801375,-0.0007021844790786,0.0007021844810707,-0.00070218447896053,0.0007021844809525,0.64952121200817,122718,2924,0.0030092643973354,0.0065284099651935,0.0030092643973354,35.943761949264,0.00020275009559411,0.00020275009559411,0.00020275009559411,2472591.1470165,0.012626447321846
36419200,0.9999918464244,0.013455560448473,0.0038591886066099,0.0057371832352529,0.0038591886066099,-0.00072764270904554,0.00072764270856278,1.8484842837505e-13,1.8483509362042e-13,-2.7563804102793e-12,2.8995763022873e-12,-0.0008537270726518,0.00085372707051739,-0.00085372707335057,0.00085372707121614,-0.00085372707082765,0.00085372707241168,-0.00085372707151034,0.00085372707309434,-0.00070675546396713,0.00070675546609131,-0.00070675546416975,0.00070675546629396,1.0497606070046e-12,-4.5745852201499e-12,3.6878109281429e-12,-7.1170129330814e-12,-0.0015736077873618,0.001573607783922,-0.0017594171493548,0.0017594171513847,-0.0017594171534286,0.0017594171482934,-0.001759417151713,0.0017594171500364,-0.0017594171557868,0.0017594171469451,-0.0013634093296533,0.0013634093349437,-0.0013634093404739,0.0013634093245863,-0.0013634093330657,0.0013634093314612,-0.001363409338871,0.0013634093262396,4.1987014384355e-13,4.1988559925375e-13,-0.00072764270881329,0.00072764270879504,-4.9864804899733e-12,5.7084039012417e-12,-0.00085372707330048,0.00085372706990415,-0.00085372706976239,0.00085372707345898,-0.00085372707398473,0.00085372707058838,-0.00085372707044213,0.00085372707413873,-0.00070675546309193,0.00070675546737718,-0.00070675546287287,0.00070675546715807,0.6811981079479,122718,2924,0.0030290387002127,0.0065342831503747,0.0030290387002127,37.485516757988,0.0002150841340639,0.0002150841340639,0.0002150841340639,2523597.8804321,0.012672433880446
37419200,0.99999523825369,0.013455607485891,0.0038592025739257,0.00573720233804,0.0038592025739257,-0.00072721962429936,0.00072721962524769,6.5879474559627e-13,6.5878585357701e-13,-2.4058988341627e-12,3.5399631212625e-12,-0.00085490354344681,0.0008549035423458,-0.00085490354398872,0.00085490354288767,-0.00085490354152713,0.00085490354433764,-0.00085490354205404,0.00085490354486452,-0.00070640418674478,0.00070640419004798,-0.00070640418699911,0.00070640419030235,1.143909848457e-12,-4.7594741013332e-12,3.7796967681523e-12,-7.2959769364422e-12,-0.0015750481421116,0.0015750481385844,-0.001759802508027,0.0017598025101616,-0.0017598025119871,0.0017598025067677,-0.0017598025102735,0.0017598025085082,-0.0017598025142336,0.0017598025051143,-0.001365725288973,0.0013657252943459,-0.0013657252999871,0.0013657252836546,-0.0013657252923808,0.0013657252908685,-0.0013657252983891,0.0013657252853028,8.9227515337125e-13,8.9228885883491e-13,-0.00072721962406865,0.00072721962547842,-4.6323907777592e-12,6.3415951790064e-12,-0.00085490354409672,0.00085490354173302,-0.00085490354046345,0.00085490354538162,-0.00085490354462397,0.00085490354226025,-0.0008549035409876,0.00085490354590578,-0.00070640418592433,0.00070640419138237,-0.00070640418565313,0.00070640419111112,0.65495763090949,122718,2924,0.0030272952888586,0.006540210104392,0.0030272952888586,37.681073039941,0.00021664858431953,0.00021664858431953,0.00021664858431953,2479229.9016334,0.012674913803137
38419200,0.99999718766591,0.013455637611339,0.0038592115677166,0.0057372144759055,0.0038592115677166,-0.00072621701261868,0.00072621701430294,9.0498215304878e-13,9.0497181110829e-13,-2.2915413828514e-12,3.9365468882535e-12,-0.0008535561002465,0.0008535560996457,-0.0008535561007062,0.00085355610010539,-0.00085355609823507,0.00085355610173208,-0.00085355609868,0.00085355610217701,-0.00070541759319989,0.00070541759715767,-0.00070541759347821,0.000705417597436,1.2313860290609e-12,-4.947364979043e-12,3.8909883682704e-12,-7.5038335277425e-12,-0.0015739726534956,0.0015739726498715,-0.0017590379274726,0.0017590379297113,-0.0017590379314336,0.0017590379261035,-0.0017590379297055,0.0017590379278592,-0.0017590379336665,0.0017590379242514,-0.0013643444363867,0.0013643444418835,-0.0013643444476823,0.0013643444308488,-0.0013643444398237,0.0013643444383761,-0.0013643444460726,0.0013643444325091,1.1407595476377e-12,1.1407728266438e-12,-0.00072621701238566,0.00072621701453595,-4.535617998807e-12,6.7612546859024e-12,-0.00085355610090255,0.0008535560990286,-0.000853556097161,0.00085355610278475,-0.00085355610134731,0.00085355609947331,-0.00085355609760336,0.00085355610322709,-0.00070541759239402,0.00070541759852524,-0.0007054175920983,0.00070541759822949,0.72891346290552,122718,2924,0.0030231289365696,0.0065357654387647,0.0030231289365696,37.194402188614,0.00021275521750891,0.00021275521750891,0.00021275521750891,2488537.316028,0.012661972462512
38880000,0.99999786846938,0.013455648368342,0.0038592147777216,0.0057372188128987,0.0038592147777216,-0.00072444482802643,0.00072444482922737,7.4565163629552e-13,7.4564327387291e-13,-2.5008664090714e-12,3.8291907267341e-12,-0.00085402266525665,0.00085402266421694,-0.00085402266578038,0.00085402266474065,-0.00085402266321412,0.00085402266633657,-0.00085402266372218,0.00085402266684461,-0.00070378284363743,0.00070378284726467,-0.00070378284390279,0.00070378284753008,1.2760707816194e-12,-5.008758132936e-12,3.9711203320586e-12,-7.5993918437956e-12,-0.0015756669884347,0.0015756669847951,-0.0017595765970019,0.0017595765993122,-0.0017595766010888,0.0017595765957204,-0.0017595765993382,0.0017595765974995,-0.0017595766034251,0.0017595765939078,-0.0013668424416543,0.001366842447275,-0.0013668424531263,0.0013668424360694,-0.0013668424451365,0.0013668424437212,-0.0013668424514952,0.001366842437752,9.8348029358741e-13,9.8348961683201e-13,-0.00072444482779134,0.00072444482946247,-4.7765557265601e-12,6.6907789239069e-12,-0.0008540226659229,0.00085402266359046,-0.00085402266212609,0.00085402266740257,-0.0008540226664315,0.00085402266409903,-0.00085402266263159,0.00085402266790808,-0.00070378284280504,0.00070378284863286,-0.00070378284252217,0.00070378284834995,0.74537476942469,122718,2924,0.0030157917538121,0.0065427299278245,0.0030157917538121,37.193613676952,0.00021274890941562,0.00021274890941562,0.00021274890941562,2420725.5890353,0.012654176309207
