time,ASR_ext,ASR_strain,ASR_strain_xx,ASR_strain_yy,ASR_strain_zz,disp_x_101,disp_x_102,disp_x_103,disp_x_104,disp_x_105,disp_x_106,disp_x_p10_neg,disp_x_p10_pos,disp_x_p11_neg,disp_x_p11_pos,disp_x_p12_neg,disp_x_p12_pos,disp_x_p13_neg,disp_x_p13_pos,disp_x_p14_neg,disp_x_p14_pos,disp_x_p15_neg,disp_x_p15_pos,disp_x_p16_neg,disp_x_p16_pos,disp_x_p1_neg,disp_x_p1_pos,disp_x_p2_neg,disp_x_p2_pos,disp_x_p3_neg,disp_x_p3_pos,disp_x_p4_neg,disp_x_p4_pos,disp_x_p5_neg,disp_x_p5_pos,disp_x_p6_neg,disp_x_p6_pos,disp_x_p7_neg,disp_x_p7_pos,disp_x_p8_neg,disp_x_p8_pos,disp_x_p9_neg,disp_x_p9_pos,disp_y_101,disp_y_102,disp_y_103,disp_y_104,disp_y_105,disp_y_106,disp_y_p10_neg,disp_y_p10_pos,disp_y_p11_neg,disp_y_p11_pos,disp_y_p12_neg,disp_y_p12_pos,disp_y_p1_neg,disp_y_p1_pos,disp_y_p2_neg,disp_y_p2_pos,disp_y_p3_neg,disp_y_p3_pos,disp_y_p4_neg,disp_y_p4_pos,disp_y_p5_neg,disp_y_p5_pos,disp_y_p6_neg,disp_y_p6_pos,disp_y_p7_neg,disp_y_p7_pos,disp_y_p8_neg,disp_y_p8_pos,disp_y_p9_neg,disp_y_p9_pos,disp_z_101,disp_z_102,disp_z_103,disp_z_104,disp_z_105,disp_z_106,disp_z_p10_neg,disp_z_p10_pos,disp_z_p11_neg,disp_z_p11_pos,disp_z_p12_neg,disp_z_p12_pos,disp_z_p13_neg,disp_z_p13_pos,disp_z_p14_neg,disp_z_p14_pos,disp_z_p15_neg,disp_z_p15_pos,disp_z_p16_neg,disp_z_p16_pos,disp_z_p1_neg,disp_z_p1_pos,disp_z_p2_neg,disp_z_p2_pos,disp_z_p3_neg,disp_z_p3_pos,disp_z_p4_neg,disp_z_p4_pos,disp_z_p5_neg,disp_z_p5_pos,disp_z_p6_neg,disp_z_p6_pos,disp_z_p7_neg,disp_z_p7_pos,disp_z_p8_neg,disp_z_p8_pos,disp_z_p9_neg,disp_z_p9_pos,humidity,ndof,nelem,strain_xx,strain_yy,strain_zz,temp,thermal_strain_xx,thermal_strain_yy,thermal_strain_zz,vonmises,vstrain
14391759,0,0,0,0,0,0,0,0,0,0,0,0,0,0,0,0,0,0,0,0,0,0,0,0,0,0,0,0,0,0,0,0,0,0,0,0,0,0,0,0,0,0,0,0,0,0,0,0,0,0,0,0,0,0,0,0,0,0,0,0,0,0,0,0,0,0,0,0,0,0,0,0,0,0,0,0,0,0,0,0,0,0,0,0,0,0,0,0,0,0,0,0,0,0,0,0,0,0,0,0,0,0,0,0,0,0,0,0,0,0,0,0,0,0,0,0,0,0,0,0,0,0,0
15391759,0.10054933691868,0.0015492377304913,0.00051641257683045,0.00051641257683045,0.00051641257683045,-0.00014716296276874,0.00014708219723413,-1.5533796518892e-07,-1.2672887950264e-07,-2.0962399617286e-08,-4.5721940608489e-09,-0.00013080549486439,0.00013023465968326,-0.00014602837739455,0.0001459953365737,-0.00014600440877626,0.00014631659910937,-0.00013090926053481,0.00013034715694338,-0.00013082134895792,0.00013021861848026,-0.00014604421033493,0.00014597914134085,-0.00014602025164293,0.00014630041335914,-0.00015434981809914,0.00015428074690668,-0.00015432550628929,0.00015438198926102,-0.00015434452786658,0.00015428626048498,-0.0001543202115369,0.00015438749843726,-0.00014551847055058,0.00014524398509722,-0.00014544120668369,0.00014509112072128,-0.0001455238451757,0.00014523852755799,-0.0001454465905954,0.00014508567250043,-0.00013089342475251,0.00013036321648283,5.2573990575603e-09,-1.0852147230723e-08,-3.0484630092719e-08,2.5128547872523e-08,-0.00015925356984076,0.00015924818745554,-0.000156246992219,0.00015630152339025,-0.0001579292664044,0.00015792103550098,-0.00015788203392115,0.00015784211246725,-0.00016116772401743,0.00016114925701961,-0.0001611616793838,0.00016118031282202,-0.00016116856706847,0.0001611392828449,-0.00016118169193612,0.00016118950809287,-0.00015630509292177,0.00015623990047503,-0.00015630494257146,0.00015634864950718,-0.00015791648568038,0.00015794533854555,-0.00015770378981425,0.00015770095208401,-0.00015625541203172,0.00015620104363549,1.7941986754996e-08,2.4210147938004e-07,-0.00015245541257281,0.00015248633543615,4.2452567585877e-08,-1.3175049981598e-08,-0.0001505702449602,0.00015054175177859,-0.00015117253348587,0.00015069878168653,-0.00015123568628611,0.00015113028489589,-0.00015079647580769,0.00015219701595154,-0.00015051596695803,0.00015059634773655,-0.00015111805539934,0.00015075321285718,-0.00015118132376254,0.00015118483142571,-0.00015629736376917,0.00015630424883097,-0.00015631587438085,0.00015628566626887,-0.00015627903936576,0.00015624679400481,-0.00015629760444734,0.00015622826585379,-0.00015244233196722,0.00015287803151147,-0.00015233347283116,0.00015235233644418,-0.00015231501041163,0.00015237095309622,-0.0001524237457609,0.00015289652418074,-0.0001508510067848,0.00015214267346115,0.70055894083924,122718,2924,0.00061282374924079,0.00066332374195144,0.00063509265457248,27.188289267375,0.000132706314139,0.000132706314139,0.000132706314139,1233751.1319982,0.0019130708340635
16391759,0.18930467016359,0.0030042804333766,0.00097732330540374,0.0010276038440394,0.00099935328393341,-0.00024447612789911,0.00024425648908215,-5.0770379379181e-07,-2.7352297235979e-07,-6.9718701697186e-08,-2.2528274656298e-08,-0.00020789214727655,0.00020654619950305,-0.00024682140510252,0.00024668288800921,-0.00024670850216194,0.00024756080673508,-0.00020832293525564,0.00020660769318746,-0.00020793773775617,0.00020650001069071,-0.00024686699043958,0.00024663625233353,-0.00024675410868399,0.00024751418979367,-0.00025924598095661,0.00025900088233598,-0.0002591302014513,0.00025934246569813,-0.00025923066123067,0.00025901678969065,-0.00025911487234598,0.00025935836440901,-0.00024376524173528,0.00024285360148657,-0.0002434087650852,0.00024256428628607,-0.00024378072952866,0.00024283787533042,-0.00024342427130652,0.00024254857866997,-0.00020827738050079,0.00020665391970303,1.3497101928036e-08,-3.2802432962307e-08,-1.0505117352969e-07,8.6427759520317e-08,-0.00028007991808941,0.00028006122673473,-0.00027509732362622,0.00027528182137868,-0.00027756363667616,0.0002775261321585,-0.00027748284802551,0.00027735437772904,-0.00028302360559494,0.00028295678244494,-0.00028299562675075,0.00028305649342325,-0.00028302190125701,0.00028292402973807,-0.00028305230373721,0.00028308212117209,-0.00027529351556273,0.00027507193445641,-0.0002753689966426,0.00027552239107666,-0.00027751411390603,0.0002776042725587,-0.00027705329438817,0.00027705248741911,-0.00027515797000849,0.000274967489573,1.089458806266e-07,6.8310820641372e-07,-0.00025921525368502,0.00025927343501155,1.3391006390525e-07,-5.7622673806553e-08,-0.00026084419738755,0.00026084240781927,-0.00026113383733779,0.00025955104967289,-0.00026129516785109,0.00026097960532831,-0.00026147743290245,0.00026541379615135,-0.00026065719346882,0.00026103037312001,-0.00026094623389948,0.00025973848799075,-0.00026110790776235,0.00026116738869697,-0.00026615642517628,0.0002662126570991,-0.00026622018396244,0.00026614871254535,-0.00026610382058343,0.00026594507015886,-0.00026616773729355,0.00026588128331432,-0.00026159735450471,0.00026279705208001,-0.00026126499906434,0.00026142142277901,-0.00026120138860143,0.00026148548577158,-0.00026153338470979,0.00026286075497343,-0.00026166520036229,0.00026522659450897,0.7587163515091,122718,2924,0.0010176843571331,0.0011662741653564,0.0010796000097493,24.444989989966,0.00011075991991973,0.00011075991991973,0.00011075991991973,1894731.4016179,0.0032688950554049
17391759,0.26838988133473,0.0041580635598876,0.0013188509514037,0.0014604469949986,0.0013787656134854,-0.00031491831297526,0.00031444469455632,-1.0821911604534e-06,-5.0966657639448e-07,-1.4164580583525e-07,-3.9717793539726e-08,-0.00024708431171267,0.00024472249444126,-0.00031986226462578,0.0003195122760636,-0.00031958662323797,0.0003212234214592,-0.00024810571644693,0.0002446367031604,-0.00024718285986235,0.00024462272349196,-0.0003199606243366,0.00031941150869209,-0.00031968504106813,0.00032112270231868,-0.00034117482656029,0.00034062548784153,-0.00034089972258891,0.00034132194293266,-0.00034114174764122,0.00034065983546122,-0.00034086661688787,0.00034135626594924,-0.00031235284043107,0.00031036747848328,-0.00031151117683512,0.00030981673027321,-0.00031238628908639,0.00031033350988798,-0.00031154467927665,0.0003097828162755,-0.00024800726935652,0.00024473658005066,2.8910253562966e-08,-7.1111281908878e-08,-2.1916094946912e-07,1.7844408618091e-07,-0.00038302335974523,0.00038298249029029,-0.00037439272047312,0.00037477507847296,-0.00037720747983657,0.0003771312529153,-0.0003770403738627,0.00037676766130348,-0.00038853092492679,0.00038839137555456,-0.00038847165098981,0.00038859729686216,-0.00038852938455436,0.00038832285612876,-0.00038857878738098,0.00038863745230571,-0.00037481854750163,0.00037435512621181,-0.00037523192888343,0.00037554711860167,-0.00037710568005863,0.00037729455605485,-0.00037617879803771,0.00037617118559162,-0.00037453253021626,0.00037413626806643,2.8509469901419e-07,1.3037032216474e-06,-0.00034176275221359,0.00034185148366907,2.6392609587289e-07,-1.3384558691667e-07,-0.00034481307953494,0.00034493267695838,-0.00034597275621212,0.00034258590883161,-0.0003462862999595,0.00034568647474567,-0.00034615987607073,0.00035366109692809,-0.00034442475019876,0.00034532295868409,-0.00034558316216773,0.00034297511808027,-0.00034589743885446,0.00034607641770121,-0.00035454229458901,0.00035469889049192,-0.00035467473133685,0.00035456610022343,-0.00035449708287889,0.00035415973473406,-0.00035462983883749,0.00035402726274517,-0.00034641056401282,0.00034877805901622,-0.00034558936771994,0.00034602498460638,-0.00034545723076306,0.00034615798553676,-0.00034627771063564,0.00034891034063126,-0.0003465497895619,0.00035327240173289,0.68097528185715,122718,2924,0.0013103464702431,0.0015945539897544,0.0014231803189084,22.111452437929,9.2091619503432e-05,9.2091619503432e-05,9.2091619503432e-05,2426412.6279091,0.0043374748075052
18391759,0.32531647342336,0.0048883936287332,0.0015296291006956,0.001742735257636,0.0016160292704015,-0.00035243361747577,0.00035177254776124,-1.4964203405272e-06,-6.6772466574183e-07,-1.972068071738e-07,-7.4348424619738e-08,-0.00026614516556354,0.00026313642520608,-0.00035995509085018,0.00035940468955372,-0.00035955691838914,0.00036169440623876,-0.00026758760634346,0.0002629462120901,-0.0002662636583324,0.00026301634606608,-0.00036007352491348,0.00035928327042201,-0.00035967539441304,0.00036157301488399,-0.0003864064194139,0.00038561612859074,-0.00038601123040453,0.00038659704074118,-0.00038636646053911,0.00038565758954434,-0.00038597125166239,0.00038663848566275,-0.00034756993643639,0.00034477902912308,-0.00034636517827025,0.00034408979093175,-0.00034761023990924,0.00034473810696555,-0.00034640551962103,0.00034404890742739,-0.0002674691788281,0.00026306636677372,3.1419982832849e-08,-8.8833607247968e-08,-3.2237151072541e-07,2.6675967268926e-07,-0.00044370392908858,0.00044364814327846,-0.00043124839117204,0.00043181027399867,-0.00043315154165734,0.00043301603298279,-0.00043289612891701,0.00043252461177069,-0.00045360829716791,0.00045339697698369,-0.00045351229307389,0.00045369379645593,-0.00045359481385967,0.00045330288658201,-0.000453672674312,0.00045377356897498,-0.00043187165916442,0.00043119903067677,-0.00043247752575574,0.00043295862514516,-0.00043299532256899,0.00043325257213822,-0.00043178787513256,0.00043180911462899,-0.00043149849953419,0.00043090663734176,4.0869280468911e-07,1.7439236468491e-06,-0.00038714971323962,0.00038723223557538,3.6431440663551e-07,-2.250530771699e-07,-0.00038993769918595,0.00039009499433956,-0.00039362607312049,0.00038894179480076,-0.00039407236174528,0.00039320925776768,-0.00039162669063158,0.00040149840248888,-0.00038936201924266,0.00039067323800691,-0.0003930487414207,0.00038951850645734,-0.00039349600288843,0.00039378694428754,-0.0004047292778053,0.00040495795196564,-0.00040492554531558,0.00040476127436967,-0.00040466562037997,0.00040419639335792,-0.00040486230009951,0.00040400012627099,-0.00039198794157253,0.00039521443800051,-0.00039087545297013,0.00039149200563938,-0.00039067956206773,0.00039168898130711,-0.00039179112795668,0.00039541048646118,-0.00039220449025018,0.00040092228409691,0.60484717275765,122718,2924,0.0014660731358156,0.0018469102810728,0.0016119921245048,17.505441539254,5.524353231403e-05,5.524353231403e-05,5.524353231403e-05,2830762.8579438,0.0049371477655235
19391759,0.3839898001552,0.0057938495021004,0.0017864003204944,0.002097185598969,0.001910263582637,-0.00040988382711576,0.00040895312265407,-2.062075144459e-06,-8.9692793699218e-07,-2.8145104047431e-07,-1.0933516635442e-07,-0.00029978981270332,0.00029591145669526,-0.00042371262759563,0.00042288800778793,-0.00042315107496285,0.00042596743464453,-0.000301816822852,0.00029551003795739,-0.00029995588943995,0.0002957431630694,-0.00042387853164695,0.00042271785532764,-0.00042331703758961,0.00042579732230336,-0.0004511365919743,0.00045002030662441,-0.00045058070327173,0.00045136365053125,-0.00045108061400768,0.00045007838669673,-0.00045052469506734,0.00045142170601761,-0.00040474127682596,0.00040086866519437,-0.0004030507755599,0.00039994214944152,-0.00040479772334422,0.00040081133073022,-0.00040310728252698,0.0003998848779526,-0.00030165084516359,0.00029567845096454,4.3680781522049e-08,-1.2480168397446e-07,-4.6324251978589e-07,3.8465303169974e-07,-0.00053098827513641,0.00053090944621698,-0.00051649901001103,0.00051730757170603,-0.00051701251001354,0.00051681447392409,-0.00051666992177464,0.00051614120281117,-0.00054258754832799,0.00054228328090416,-0.00054244155588228,0.0005427026812725,-0.0005425641443406,0.00054214701390769,-0.00054268812025327,0.00054283637969874,-0.00051744826947511,0.00051648320398399,-0.00051850135844079,0.00051919678907692,-0.00051678145485204,0.00051714867735468,-0.00051518758275743,0.00051522413015823,-0.00051690870615318,0.00051605674270431,5.7876565406515e-07,2.3477261660916e-06,-0.00045479073054397,0.00045487332612462,4.9852416201627e-07,-3.4981645616879e-07,-0.00046264027427711,0.00046285778356174,-0.00046729876691501,0.00046070925200461,-0.00046795102601683,0.0004667471030892,-0.00046487259998711,0.00047827801539938,-0.00046181157739779,0.00046369000133172,-0.00046646780666449,0.00046153938174757,-0.00046712139793749,0.00046757856379228,-0.00047535197394275,0.00047568764432184,-0.0004756344899546,0.00047540455615078,-0.00047528064231039,0.00047465487305468,-0.00047556372828197,0.0004743723506311,-0.00046297402778776,0.00046736421856858,-0.00046144164122293,0.00046230810196823,-0.00046115965001966,0.00046259158899582,-0.00046269076879283,0.00046764643063134,-0.00046570419546152,0.00047744870449563,0.73021614767059,122718,2924,0.001704544276129,0.0022097887204705,0.0018933374578131,17.480149051455,5.5041192411637e-05,5.5041192411637e-05,5.5041192411637e-05,3111813.606812,0.0058245956490129
20391759,0.44842424838954,0.006830013870996,0.0020700106875403,0.002518070250179,0.0022419329332767,-0.00047243928794443,0.00047104842839532,-3.0087255389659e-06,-1.2831930899241e-06,-4.0123119571211e-07,-1.483547441331e-07,-0.00032104986776014,0.00031556551478658,-0.0004924216204768,0.00049120443402531,-0.00049156591086621,0.00049553208643637,-0.00032412210371707,0.00031502438801531,-0.00032129360123206,0.00031531869919001,-0.00049266524047091,0.00049095464832807,-0.00049180957733111,0.00049528231983723,-0.00052675437252368,0.00052507917640428,-0.00052593052360081,0.00052695642329743,-0.00052667211728323,0.00052516446352913,-0.00052584824215713,0.00052704169446824,-0.00046554532295225,0.00045987389809655,-0.00046304806130461,0.00045854455309221,-0.00046562820103086,0.00045978977224727,-0.00046313099100524,0.00045846048195512,-0.000323878445499,0.00031527131089044,6.6529580409427e-08,-1.8068717278747e-07,-6.7391921406296e-07,5.6348569083147e-07,-0.00063886411090362,0.00063875330877563,-0.00062246774533405,0.00062365249997209,-0.00062205957266789,0.00062177614914659,-0.00062153032483427,0.00062076166885899,-0.00065037912145241,0.00064993989438804,-0.00065016596357042,0.0006505517210772,-0.00065035481891392,0.00064974985248191,-0.00065052313455492,0.00065074314339459,-0.00062386609835558,0.00062246143919271,-0.00062567720810157,0.00062669590359918,-0.00062173578102571,0.00062227721384232,-0.00061938576526708,0.00061944198370226,-0.00062306966769672,0.00062183101060033,8.8374016955455e-07,3.3147559009918e-06,-0.00053072608403832,0.0005308387536707,7.2429647749372e-07,-5.1386203570711e-07,-0.00054315387134589,0.00054356437659766,-0.00054787193369423,0.00053827932040656,-0.00054873965455404,0.00054703567423277,-0.00054659071350715,0.00056604900884477,-0.0005419443070917,0.00054477919429116,-0.00054665903302182,0.00053949086523655,-0.00054752878646348,0.00054824923625832,-0.00055729420264797,0.00055782554963166,-0.00055770650048333,0.00055741239359771,-0.00055727558557983,0.00055636786291809,-0.00055768875639203,0.00055595557118731,-0.00054620367058245,0.00055245037562988,-0.00054377158323387,0.0005450996324684,-0.00054336005366797,0.00054551343399952,-0.00054579018694677,0.00055286220618423,-0.00054780468453644,0.00056483862188216,0.76377140340812,122718,2924,0.0019638340400974,0.002658066328276,0.0022091539117849,18.603327087563,6.4026616700501e-05,6.4026616700501e-05,6.4026616700501e-05,3283089.2201207,0.0068544798208258
21391759,0.49854164088085,0.0075568999245574,0.0022671476639799,0.002820461717698,0.0024692905428795,-0.00050734379642924,0.00050557549506513,-3.7635160478588e-06,-1.5847812204137e-06,-5.0479723786712e-07,-1.9433587736021e-07,-0.00032841097539052,0.0003216055473427,-0.0005313227875,0.00052976753685593,-0.00053022244945454,0.00053506656369218,-0.00033234007674239,0.00032113127970774,-0.00032871005460363,0.00032130278498312,-0.00053162186337421,0.00052946093431974,-0.00053052155744738,0.00053475995618228,-0.00057187730772275,0.00056972380836988,-0.00057083647660399,0.00057204938203321,-0.00057177629252211,0.00056982851177322,-0.00057073543732501,0.00057215407536674,-0.000497641377038,0.00049051786697709,-0.00049449178208458,0.00048890115729098,-0.00049774308088151,0.00049041464774699,-0.00049459353933139,0.00048879799419209,-0.00033204105845085,0.00032143414720625,8.0518118782638e-08,-2.2262051533454e-07,-8.5235876865002e-07,7.1489039477028e-07,-0.00070857455714065,0.00070843663832478,-0.00068906849465041,0.00069056813642458,-0.0006874736262496,0.00068710733577427,-0.00068676236823693,0.00068580108946419,-0.00072261435530436,0.00072205711342216,-0.00072233821330002,0.00072282582002775,-0.00072257957192222,0.00072181915700752,-0.00072278135108632,0.0007230657705896,-0.00069081375504119,0.00068904037503436,-0.0006930447409173,0.00069434072815385,-0.00068706913485475,0.00068774751765321,-0.0006841491768179,0.00068423260697852,-0.00068984638148425,0.00068827657158393,1.1259644392593e-06,4.0661926580772e-06,-0.00057415625506413,0.00057427808657307,9.0619864044449e-07,-6.6217922656858e-07,-0.00058762318547091,0.00058816637786205,-0.00059440686201326,0.00058258057814265,-0.00059543687577122,0.00059329605904649,-0.0005918635292155,0.00061580306041033,-0.00058609096878822,0.00058970523005264,-0.00059287043304441,0.00058411519957634,-0.00059390302845432,0.00059483323360012,-0.00060644404051541,0.00060712249973675,-0.00060696631839405,0.00060659919265685,-0.0006064562425053,0.00060531103457743,-0.0006069796138534,0.00060478880741348,-0.00059350321529636,0.00060125453355887,-0.00059038654729564,0.00059207313129038,-0.00058986525259703,0.00059259728162733,-0.00059297945000895,0.00060177618996526,-0.00059340133934831,0.00061426984507535,0.6908403174145,122718,2924,0.0021082548517145,0.0029476145687966,0.0023897232305246,15.312519376887,3.7700155015098e-05,3.7700155015098e-05,3.7700155015098e-05,3455678.8997354,0.0074734346925288
22391759,0.54583133843919,0.0082413769658693,0.0024517275013127,0.0031080043212307,0.0026816451433259,-0.00054643542365538,0.00054431391407137,-4.4299556851684e-06,-1.860368727904e-06,-5.9972765703096e-07,-2.4712684173196e-07,-0.00034639435096585,0.00033854792580847,-0.00057531102577181,0.00057341834373925,-0.00057399598251052,0.00057952275719228,-0.00035106241413521,0.00033805712239188,-0.00034673383240269,0.00033820425385139,-0.00057565062808106,0.00057307013604709,-0.00057433560353728,0.00057917451963942,-0.00061900141676358,0.00061639751718064,-0.00061777173242654,0.00061913795555385,-0.00061888659881593,0.00061651645912547,-0.00061765689226177,0.00061925689272459,-0.0005340167715641,0.00052558587403395,-0.00053030101535558,0.00052372328404629,-0.0005341322410736,0.0005254686858301,-0.00053041653908772,0.0005236061516983,-0.00035072298057388,0.00033840089891139,8.7901201016926e-08,-2.5597687333199e-07,-1.021377183925e-06,8.5862118953137e-07,-0.00077883971901409,0.00077867646330487,-0.00075627394684757,0.00075806837011289,-0.00075262379208605,0.00075216724581291,-0.00075173313161826,0.00075060178481489,-0.00079623617244739,0.0007955632391979,-0.00079589707172662,0.00079647745328188,-0.00079618159557179,0.00079527830245101,-0.00079642367962199,0.00079677368149256,-0.00075834188203691,0.0007562233500429,-0.00076099917025675,0.0007625625578612,-0.00075213861289063,0.00075293515681603,-0.00074878186425425,0.00074890366144533,-0.00075724051175236,0.00075535289819795,1.3273604186428e-06,4.7334048909596e-06,-0.00062048388156347,0.0006205972099214,1.0671668281597e-06,-8.1438174749401e-07,-0.00063594461376938,0.00063655888356249,-0.0006445614745276,0.00063073687760939,-0.00064575899695829,0.00064319507256008,-0.00064073904410257,0.00066849906409754,-0.0006341063273271,0.00063840492734572,-0.00064271823428848,0.0006325778854729,-0.0006439187681666,0.00064503905377071,-0.00065731779875269,0.00065811821012174,-0.00065794441542758,0.0006574904815953,-0.00065733090192233,0.00065597839793838,-0.00065795877539237,0.00065535190754349,-0.00064291889556673,0.00065205980225607,-0.0006392623003166,0.00064123389009308,-0.00063863685450742,0.00064186261985688,-0.00064229059040677,0.00065268564204819,-0.0006425838841899,0.00066665963803333,0.69163756941875,122718,2924,0.0022701056833227,0.0032393872842177,0.0025822655360829,14.81100183063,3.3688014645041e-05,3.3688014645041e-05,3.3688014645041e-05,3649110.6716012,0.0081246513780506
23391759,0.59404633365849,0.0089080363379465,0.0026298746417788,0.0033914579346478,0.0028867037615199,-0.00058501967580794,0.00058246849321095,-5.2434747867887e-06,-2.2184255500205e-06,-7.1863694500372e-07,-3.0195993023955e-07,-0.00035799855820336,0.00034871008065104,-0.00061828594277221,0.00061601134079892,-0.00061670785289958,0.00062314625292807,-0.00036358492384068,0.00034832185424213,-0.00035839970308581,0.0003483041802389,-0.00061868732140386,0.00061559995594885,-0.00061710923827135,0.00062273481269496,-0.00066751019863257,0.00066436858691728,-0.00066605233858986,0.0006675965422752,-0.00066737449282874,0.00066450912362098,-0.00066591661223107,0.00066773708035034,-0.00056966670376025,0.00055966301898316,-0.00056527080014312,0.00055748918107968,-0.0005698031478219,0.00055952459265862,-0.00056540730018196,0.00055735081199047,-0.0003631838166724,0.00034872786067432,1.0336160921783e-07,-3.0279241276444e-07,-1.2082309320384e-06,1.0150576323375e-06,-0.00085199402037978,0.00085180027288657,-0.00082583969736788,0.00082796092360055,-0.0008211490045836,0.00082060793341,-0.00082006226999106,0.00081872419528575,-0.00087246583775812,0.00087166918793604,-0.00087205956153241,0.00087274504120114,-0.00087239733962888,0.00087132864073941,-0.00087267368857686,0.00087308708944334,-0.0008282802046969,0.00082577428384919,-0.00083140275960022,0.00083325112639084,-0.00082058217108747,0.00082152293916395,-0.0008166223023621,0.0008167661461786,-0.00082699950223736,0.0008247662796366,1.5808802365066e-06,5.5122157506437e-06,-0.00066622223298455,0.00066635802207772,1.2567190096407e-06,-9.6865907011438e-07,-0.00068296713744089,0.00068372452617681,-0.00069394246238741,0.00067779734838505,-0.00069530956447601,0.00069229333204348,-0.00068862956715297,0.00072112063943537,-0.00068079289166627,0.00068590791443015,-0.00069176237820325,0.00067997472524684,-0.0006931330361423,0.00069447421242655,-0.00070877889062245,0.00070973402270272,-0.0007095200212686,0.00070899160736415,-0.00070882388050458,0.00070723193205664,-0.00070956649967131,0.00070649097977686,-0.00069249380956231,0.00070322142550774,-0.00068810250988331,0.00069044741474468,-0.00068736277677656,0.0006911910240304,-0.00069175068108624,0.00070396159737285,-0.00069081158119021,0.00071894510676517,0.66282300645257,122718,2924,0.0024296849546961,0.0035430457056534,0.0027723906172316,15.635021878728,4.0280175029827e-05,4.0280175029827e-05,4.0280175029827e-05,3749175.1114393,0.0087835551056958
24391759,0.64671396783939,0.0096687446955181,0.0028328443155176,0.0037167438574837,0.0031191565225169,-0.00063171744037726,0.00062865830403045,-6.1947157214171e-06,-2.6400470594983e-06,-8.5709632174303e-07,-3.6065910956481e-07,-0.0003755123012842,0.00036460267759423,-0.00067097778088132,0.00066825659407451,-0.00066908929327887,0.00067657301188699,-0.00038218596244098,0.00036430271078041,-0.00037599017438681,0.00036411933648236,-0.00067145604288583,0.00066776656769522,-0.00066956754804837,0.00067608289827484,-0.00072467401588882,0.00072089565080469,-0.00072295040173962,0.00072469105242179,-0.00072451232402456,0.00072106307045852,-0.00072278869107503,0.00072485848118953,-0.00061336831645217,0.00060151939862394,-0.0006081803937483,0.00059896432610393,-0.00061353085855722,0.00060135454233243,-0.00060834299447727,0.00059879952964926,-0.00038170811628456,0.00036478616221123,1.2227245087944e-07,-3.6133418051484e-07,-1.4321783719159e-06,1.2005630565237e-06,-0.00093816752464843,0.00093793523829605,-0.00090834457514653,0.0009108545174608,-0.00090203474497727,0.00090139375589065,-0.000900714846712,0.00089912486900071,-0.000961766441329,0.00096082116596042,-0.00096127844825719,0.00096208819843067,-0.00096168050794308,0.00096041131557184,-0.00096199765910777,0.00096248345433253,-0.00091123266967917,0.0009082614662725,-0.00091493727725345,0.00091712234519651,-0.00090137040579691,0.00090248406466238,-0.0008967205357151,0.0008968853208129,-0.00090974336310536,0.00090709681004436,1.8759215711651e-06,6.431351593201e-06,-0.00072034119626081,0.00072050192574694,1.4804866894304e-06,-1.1550872393485e-06,-0.00073950657576231,0.0007404222310988,-0.0007531301383477,0.00073424635764011,-0.00075470253781779,0.00075114743589833,-0.00074614540623096,0.00078415597764652,-0.00073693158332815,0.0007430081342736,-0.00075054818916535,0.00073682501326303,-0.00075212482666984,0.00075373025653656,-0.00076883879518044,0.00076997662698899,-0.00076971653049009,0.00076909738875649,-0.00076891574338297,0.0007670440428957,-0.00076979525894434,0.00076616654987162,-0.00075147368076564,0.00076410184169653,-0.0007462312754061,0.00074900638105558,-0.00074535522821397,0.0007498870567796,-0.00075059356125286,0.00076497838738332,-0.00074872969865843,0.00078157949363947,0.69344629843763,122718,2924,0.0026228139724382,0.0039006153848789,0.0029973048693851,17.85840464196,5.8067237135683e-05,5.8067237135683e-05,5.8067237135683e-05,3856701.580627,0.0095663037347505
25391759,0.7012366510516,0.010532977066363,0.0030625249420216,0.0040893728970715,0.0033810792272699,-0.00068178995739519,0.0006780537207827,-7.4881840818375e-06,-3.2244174383542e-06,-1.0405064725706e-06,-4.1153416497452e-07,-0.00038611446872552,0.00037284879256795,-0.00072806571657403,0.00072480108606048,-0.00072574704042457,0.00073477790196571,-0.00039432362326096,0.00037278876034226,-0.00038672005292567,0.00037223677070245,-0.00072867183639684,0.00072418047068296,-0.00072635313690263,0.00073415715953466,-0.0007879974347733,0.00078336840743415,-0.00078591077884901,0.00078787980337285,-0.00078779264764357,0.00078358042505812,-0.0007857059745107,0.00078809184607162,-0.00066069163543993,0.00064636221180443,-0.0006544251548535,0.00064324190327785,-0.00066089757716391,0.00064615344878618,-0.00065463116161287,0.00064303320623169,-0.00039371805994155,0.00037340090647691,1.5901984993658e-07,-4.5353464462807e-07,-1.7184298613361e-06,1.4332978602662e-06,-0.001037286128022,0.0010370001423309,-0.0010040531148883,0.0010070613470166,-0.00099680507932456,0.00099606272814529,-0.00099519541936558,0.00099325077916046,-0.0010623026143321,0.0010611745527749,-0.0010617142839585,0.0010626870951211,-0.0010622073504854,0.0010606689163005,-0.001062554772145,0.0010631171578255,-0.001007536000839,0.0010039599458858,-0.0010120290926734,0.0010146258550662,-0.00099602726366434,0.00099738527762417,-0.00099033822016111,0.00099049412217322,-0.0010057340752412,0.0010025691705299,2.2955418811373e-06,7.6522045584083e-06,-0.00077807793951223,0.00077830994004633,1.7807513522063e-06,-1.374921059901e-06,-0.00080018224312475,0.00080139286003631,-0.00081710035615417,0.00079456329797839,-0.00081890590146242,0.0008146907527235,-0.00080839050271281,0.00085405460117347,-0.0007970992865132,0.00080448937612491,-0.00081400883692145,0.00079765072102292,-0.0008158196728955,0.00081778335561072,-0.00083395977090425,0.00083536119262128,-0.00083501063439452,0.00083430841381654,-0.00083413107216814,0.00083188763716351,-0.00083518418244997,0.00083083705551261,-0.00081684749728013,0.00083198662128531,-0.00081032029077882,0.00081372471474156,-0.00080927151945856,0.00081477929297879,-0.00081579358688535,0.00083303597824198,-0.00081148507889797,0.00085096986627579,0.76207065498803,122718,2924,0.0028296281498507,0.0043116952951773,0.003237301853616,19.840271748909,7.3922173991269e-05,7.3922173991269e-05,7.3922173991269e-05,3897022.8776933,0.010432803863824
26391759,0.75119065827795,0.011388049094643,0.003290463626462,0.0044608668159778,0.0036367186522028,-0.00072678464317628,0.00072228602608778,-8.9882432469121e-06,-3.8982750971384e-06,-1.2473561713282e-06,-4.482924853444e-07,-0.00038795938634672,0.00037181767811414,-0.00077984573049425,0.00077600875027221,-0.00077701372690499,0.0007879931585965,-0.00039801703513331,0.00037220837922182,-0.00038872901278394,0.0003710405979344,-0.00078061603024615,0.00077522061769381,-0.00077778398148748,0.00078720484702532,-0.00084747407131852,0.00084187539186139,-0.00084496173109167,0.00084716614854503,-0.00084721407639514,0.00084214460153073,-0.00084470172002901,0.00084743539773337,-0.00070312536465969,0.00068593586695975,-0.00069559637776943,0.00068213069145503,-0.00070338703035934,0.00068567078036588,-0.00069585812247135,0.00068186568106841,-0.00039724742468832,0.00037298561185294,2.0884073629795e-07,-5.6919127048066e-07,-2.0377180582021e-06,1.6892227982405e-06,-0.001134816806891,0.00113446720877,-0.0010980971795769,0.0011016612523877,-0.001090881972105,0.0010900452515949,-0.0010889253743446,0.0010865611739997,-0.0011603087871889,0.0011589817097778,-0.001159609104066,0.0011607661637712,-0.001160216241461,0.0011583678197614,-0.0011605682921419,0.0011612039215249,-0.0011022410160162,0.0010979829844269,-0.0011075481084517,0.0011105896027144,-0.001089987346921,0.0010916340629869,-0.0010829772301045,0.0010830967427334,-0.0011000751404255,0.001096339244034,2.8007411351035e-06,9.0463807131055e-06,-0.00082888726836922,0.00082922731243018,2.1273683606524e-06,-1.6050137024398e-06,-0.00085299793738037,0.00085461833180376,-0.00087446586237616,0.0008478149468377,-0.00087650110717193,0.00087157249982873,-0.00086317126193113,0.00091764218060611,-0.00084935181455212,0.00085828121061429,-0.00087080929217368,0.00085146648266696,-0.00087285113119878,0.0008752304604033,-0.00089330285264673,0.00089501848203577,-0.00089454564661336,0.00089377324724388,-0.00089361471257038,0.00089093304010866,-0.00089486033121132,0.00088969056217711,-0.00087630048254671,0.00089433391823691,-0.00086819783446257,0.00087237341814654,-0.00086695759314246,0.00087362087445946,-0.00087505379414008,0.00089557481576111,-0.00086683182414906,0.00091399397622838,0.82335182229769,122718,2924,0.0030151670019577,0.0047159681146479,0.0034485672379281,20.413395188853,7.8507161510824e-05,7.8507161510824e-05,7.8507161510824e-05,3883693.9398163,0.011242604458212
27391759,0.79896744709275,0.012126899594797,0.0034898288288688,0.0047833212452136,0.0038537495207142,-0.00076624722915173,0.00076101094053515,-1.0481918572432e-05,-4.5569920247748e-06,-1.4632458025903e-06,-4.9972913671943e-07,-0.00038833812526555,0.00036919706834725,-0.00082433576014278,0.00081992342570312,-0.00082098025409422,0.00083401048690027,-0.00040026928939524,0.00037022754763168,-0.0003892664651383,0.00036826051935603,-0.00082526500410619,0.0008189733707552,-0.00082190942284474,0.00083306018653598,-0.00090142010664965,0.00089485113791079,-0.00089848008822151,0.00090096799834815,-0.00090110674344442,0.00089517566523112,-0.00089816670981776,0.00090129258057368,-0.00073891885625294,0.00071888166675074,-0.00073012640912325,0.00071446872043946,-0.00073923443159821,0.00071856213120312,-0.00073044208391972,0.00071414927802677,-0.00039934096365473,0.00037116428126407,2.5502822370994e-07,-6.8277732638468e-07,-2.3543836884901e-06,1.9408572956865e-06,-0.0012237052248963,0.0012232903845115,-0.0011813687683424,0.0011854783219419,-0.001175520013638,0.0011745840565601,-0.0011731915872532,0.0011704141835999,-0.001252006331134,0.0012504789588338,-0.0012511925312056,0.0012525279590533,-0.0012519210330585,0.0012497652376817,-0.001252270663592,0.0012529775500459,-0.001186119164785,0.0011811861738625,-0.0011919547791113,0.0011954345217373,-0.0011745140808682,0.0011764399585091,-0.0011661305468582,0.0011662153714921,-0.0011836357190072,0.0011793319574931,3.3080585160929e-06,1.0428767158542e-05,-0.00087098863469736,0.00087143878263893,2.4746063968415e-06,-1.8278488082984e-06,-0.00089437452086782,0.00089641210186794,-0.00092242607778344,0.0008918710966569,-0.0009246790307744,0.00091904113573449,-0.00090646684197378,0.00096933373023345,-0.00089017169437812,0.00090063468090065,-0.00091821100191855,0.0008960801917937,-0.00092047176818562,0.00092325780713142,-0.00094515489226717,0.00094718042445275,-0.00094658745336458,0.00094574498072274,-0.00094558145132635,0.00094244795839828,-0.00094701737480919,0.00094101578940738,-0.0009246429579162,0.00094552275892877,-0.00091504549627987,0.00091999673444422,-0.00091361596970386,0.0009214348037353,-0.00092320574704952,0.00094695299630816,-0.00091068677578766,0.00096512857674511,0.74366212196709,122718,2924,0.0031777517920126,0.0050842370963015,0.0036236552246954,22.218671596212,9.2949372769696e-05,9.2949372769696e-05,9.2949372769696e-05,3815308.1668016,0.011956778327333
28391759,0.84141560179117,0.012873989270727,0.0036939351482971,0.0051071687686981,0.0040728853537318,-0.00080775628635745,0.00080184309852182,-1.1787201124986e-05,-5.1408398295519e-06,-1.6518881263859e-06,-5.5450001702321e-07,-0.00040139769635977,0.00037997223589954,-0.00087332300940287,0.00086836930606234,-0.00086951196756235,0.00088415244993622,-0.00041493515256537,0.00038133634701422,-0.00040245503403954,0.0003789059044185,-0.00087438154554223,0.00086728737308599,-0.00087057039281473,0.00088307020924947,-0.00095340863305025,0.00094593733618996,-0.00095010120999246,0.00095280630582464,-0.00095305159997165,0.00094630695951669,-0.00094974416413853,0.00095317599838974,-0.00077748721580237,0.00075491497365541,-0.00076760860885296,0.00074994407895212,-0.0007778466784079,0.00075455112103805,-0.00076796819244744,0.00074958033369673,-0.00041387782226453,0.00038240289216734,2.8579543685382e-07,-7.8157336400878e-07,-2.6469120783897e-06,2.1673871082512e-06,-0.0013095752722526,0.0013090942757076,-0.0012625173568607,0.0012671131153153,-0.0012565271095834,0.001255477733381,-0.0012538153149583,0.0012506701030455,-0.001340848251973,0.0013391258840234,-0.0013399244734606,0.0013414107181194,-0.0013407475338426,0.0013383100598733,-0.0013411013590251,0.0013418723512439,-0.0012678185339538,0.0012622678917172,-0.0012741902404238,0.0012780692203284,-0.0012554102412972,0.0012575682681637,-0.0012459232016755,0.0012459859153935,-0.0012650832392359,0.0012602486541006,3.7313217235084e-06,1.1664295456127e-05,-0.00091468171238614,0.00091521959539757,2.7794304005556e-06,-2.0439572241876e-06,-0.00094181960063661,0.00094415755536071,-0.000973868624236,0.00093991005862725,-0.00097635396210027,0.00097004766842885,-0.00095528063411734,0.0010251074731633,-0.00093710808831147,0.00094889155963369,-0.00096914317489275,0.00094462859695809,-0.00097163738127861,0.00097477477016511,-0.0009951804042463,0.00099745862973403,-0.00099678641434143,0.00099584947906735,-0.00099565376787185,0.00099212741199959,-0.00099726356896196,0.00099052194661592,-0.00097426640907207,0.00099787569395948,-0.00096347197869883,0.00096905628968151,-0.00096186944726137,0.00097066841506689,-0.00097265517997497,0.00099947894723809,-0.00096001164175196,0.0010203933648921,0.84556057744222,122718,2924,0.003348901092381,0.005439869831596,0.0038052672905292,23.417035582701,0.00010253628466161,0.00010253628466161,0.00010253628466161,3857578.1112604,0.012673935068615
29391759,0.87811215780142,0.013364910822387,0.0038289672731952,0.0053217323505353,0.004214211198656,-0.00082963116241235,0.0008230089329972,-1.3321096585598e-05,-5.803614737098e-06,-1.8917812831462e-06,-6.2135607846964e-07,-0.00038462067717083,0.00035956603989779,-0.00089702511238016,0.00089148354825778,-0.00089265706728504,0.00090967820826139,-0.00040015378453414,0.00036206688696605,-0.00038584565347017,0.00035833200842613,-0.00089825141417906,0.00089023152631507,-0.00089388323160202,0.00090842582101668,-0.00098964575030602,0.00098122815850821,-0.0009858854367285,0.00098899943176833,-0.00098923250662433,0.00098165587712048,-0.00098547217929989,0.00098942723083408,-0.00079609427546919,0.00077064105499881,-0.00078489541180553,0.0007651633458237,-0.00079651059836733,0.00077021989873857,-0.0007853118860298,0.00076474233004269,-0.00039892883874862,0.00036330119182443,3.405654844969e-07,-8.9540619693482e-07,-2.9326205144678e-06,2.3961877480068e-06,-0.0013735736631952,0.001373035587782,-0.0013204305933702,0.0013255301015827,-0.0013186669892321,0.0013175536648765,-0.0013156439207657,0.001312103153458,-0.0014071435654279,0.0014052498743267,-0.0014061163742782,0.0014077740799441,-0.0014070816512095,0.0014043597603195,-0.0014073981952002,0.0014082275089872,-0.0013262768154762,0.001320109097795,-0.0013329928807261,0.0013372626273906,-0.0013174703555068,0.0013199068253536,-0.0013064393244378,0.0013064490248881,-0.0013232212516153,0.0013178824112011,4.2907033501784e-06,1.3007116821382e-05,-0.00093392282068971,0.00093461842072741,3.1257281895306e-06,-2.2142574569591e-06,-0.00095608356299049,0.0009589987365605,-0.00099704996348135,0.00095930355446944,-0.00099968922540799,0.00099278964326645,-0.00097188364421779,0.0010503832398794,-0.00095086724539455,0.00096423965396191,-0.00099181852407248,0.00096452737745794,-0.00099446760456154,0.00099802289849047,-0.0010256116944408,0.0010282418000438,-0.0010273896823842,0.0010264602553268,-0.0010262310053451,0.0010222507699734,-0.0010280132567684,0.0010204733622181,-0.00099858568860689,0.0010247113764878,-0.00098620856201313,0.00099267941260638,-0.00098443447561924,0.00099446426704871,-0.00099680182030311,0.001026486217815,-0.0009771214741468,0.0010451643389986,0.64299206939106,122718,2924,0.003438490071559,0.0057047509421279,0.0038855442421556,24.738669946701,0.00011310935957361,0.00011310935957361,0.00011310935957361,3642965.9853844,0.013114338873113
30391759,0.90878126577649,0.013720891387248,0.0039292291493868,0.00547518243292,0.0043164798049409,-0.00084981389678178,0.00084291328488666,-1.3808378519413e-05,-5.9915516786058e-06,-1.980427145295e-06,-7.0753342070548e-07,-0.0004027963911066,0.00037743812028006,-0.0009219508946804,0.00091609319440128,-0.00091741181845445,0.0009347217426929,-0.00041883875258768,0.00037975386950763,-0.00040402335105782,0.00037620174568086,-0.00092317965309507,0.00091483851373379,-0.00091864040181139,0.00093346665609191,-0.0010135955557663,0.0010047295743242,-0.0010097077071316,0.0010129294604107,-0.0010131812058901,0.0010051583488708,-0.0010092933468288,0.0010133583235025,-0.00081211874546953,0.00078561527568391,-0.00080053845164456,0.00078009284837248,-0.00081253591181632,0.00078519328666965,-0.00080095578650493,0.00077967100346354,-0.00041761180658725,0.00038099053092253,3.20392958995e-07,-9.1684439114435e-07,-3.0686596393401e-06,2.4907708663885e-06,-0.0014146396023799,0.0014140601644569,-0.0013549047866647,0.0013601893530348,-0.001352838218202,0.0013516070531458,-0.0013495861191567,0.0013459257472759,-0.0014560716733321,0.0014540603005256,-0.0014549808425602,0.0014566746096872,-0.0014559707620409,0.0014531307580006,-0.0014563198662434,0.0014571847962837,-0.0013609008707325,0.0013544653863329,-0.0013673801602091,0.0013718341581204,-0.0013515786861308,0.0013540509232035,-0.0013404312029273,0.0013404749764431,-0.0013578805122444,0.0013522746465723,4.4077966113214e-06,1.3535622825065e-05,-0.00095454796397044,0.00095524438915583,3.2488294051199e-06,-2.323004813679e-06,-0.0009813121824186,0.00098420178884935,-0.0010233812949147,0.00098469490689065,-0.0010261913878782,0.0010189349894241,-0.00099688223109569,0.001076740144085,-0.00097586959529112,0.00098966985785997,-0.0010179228109994,0.00099014529026476,-0.001020742901845,0.0010243949678534,-0.0010482044831891,0.0010508771130315,-0.0010500598280857,0.0010490184528171,-0.0010486795597546,0.0010445246197478,-0.001050539171202,0.0010426700964596,-0.0010185676398007,0.0010460781231141,-0.0010061075730991,0.001012731493378,-0.0010042563555559,0.00101459350897,-0.0010167065665415,0.0010479300574144,-0.0010023469822272,0.0010712947956319,0.55654009761524,122718,2924,0.0035217449535296,0.0058747368900402,0.0039711699243361,26.078675534381,0.00012382940427505,0.00012382940427505,0.00012382940427505,3726686.6972359,0.013457710289676
31391759,0.93460453248233,0.014093287349923,0.0040330710760553,0.0056353578538728,0.0044248584199945,-0.00087199324516566,0.00086460383873614,-1.4735734570496e-05,-6.446947692332e-06,-2.1379663449223e-06,-7.7437907689271e-07,-0.00040596200018271,0.00037857678530815,-0.00094789274273102,0.00094162187575904,-0.00094303510220888,0.00096156167578744,-0.00042311979743753,0.00038145892798688,-0.00040727680655682,0.00037725252112949,-0.00094920946222746,0.00094027808573386,-0.00094435163793173,0.00096021745168511,-0.0010422584875004,0.0010327605994803,-0.0010381106374946,0.0010415355671154,-0.0010418143883671,0.0010332198510345,-0.0010376665252097,0.0010419949148547,-0.00083284949542742,0.00080455667009925,-0.00082051654274198,0.00079867874421434,-0.00083329652833193,0.0008041046438153,-0.00082096375994444,0.00079822687788699,-0.00042180502488009,0.00038278351617627,3.4309121065932e-07,-9.8245388817248e-07,-3.2403477662889e-06,2.6205595239507e-06,-0.0014624280528209,0.0014618066533205,-0.0013993881604524,0.0014049558419431,-0.0013990103768702,0.0013977228584582,-0.0013955375472107,0.0013916473901317,-0.0015052934321341,0.0015031695795478,-0.0015041361109873,0.0015059182275255,-0.0015051917396492,0.0015021801620053,-0.0015055234639406,0.0015064176234509,-0.0014057112568577,0.0013989091155711,-0.0014125509604305,0.0014172289633474,-0.0013976960317741,0.0014003125350802,-0.0013857145589862,0.0013857292675498,-0.0014025195925006,0.0013966060741928,4.7142797754977e-06,1.4339986443107e-05,-0.00097534811842082,0.00097615105647198,3.4478869802443e-06,-2.4267881753146e-06,-0.0010036901323087,0.0010068749785857,-0.0010487742590129,0.0010079095808461,-0.001051713009896,0.0010440857267184,-0.0010204583623064,0.0011052311355366,-0.00099795155612457,0.0010126400960721,-0.0010430191700911,0.0010136561517368,-0.0010459683723046,0.0010498422988259,-0.0010732177387365,0.0010760716950337,-0.0010751739306689,0.0010741120608468,-0.0010737261869794,0.0010693332953167,-0.0010756868584931,0.0010673779981024,-0.0010431042166576,0.0010723026226234,-0.0010297870620783,0.0010368900443589,-0.0010278352142328,0.0010388531803593,-0.0010411420140105,0.001074255144727,-0.0010262201358674,0.001099489829832,0.69215549466537,122718,2924,0.0036129363943177,0.0060724745535203,0.00405775860633,28.365078060352,0.00014212062448281,0.00014212062448281,0.00014212062448281,3661416.7719042,0.013838384613342
32391759,0.95408336939655,0.014415581363807,0.0041235284419587,0.0057734380568305,0.0045186148650173,-0.00088469368203653,0.0008766270213352,-1.6308604421374e-05,-7.0924548347937e-06,-2.373557464351e-06,-7.980459785797e-07,-0.00037894881674497,0.00034738515869123,-0.000961323281503,0.00095449713792594,-0.0009558677254363,0.00097716057866569,-0.00039830381456753,0.00035178004845413,-0.00038046939762988,0.00034585545372387,-0.00096284554299954,0.0009529452721143,-0.00095738979320513,0.00097560822807207,-0.0010671021944837,0.0010567266176802,-0.0010624648183912,0.0010663570960888,-0.0010665893112565,0.0010572568346216,-0.0010619519178718,0.0010668874181216,-0.00084574920512326,0.00081457608309784,-0.00083200564643068,0.0008081258434771,-0.00084626590606738,0.00081405387005239,-0.00083252256507512,0.00080760383903328,-0.00039678331714377,0.00035331016367337,4.2412260003946e-07,-1.108628245644e-06,-3.4942485267543e-06,2.8318136367759e-06,-0.0015081811679279,0.0015075168611146,-0.0014439416294262,0.0014499918318098,-0.0014483755345536,0.0014470931425759,-0.0014446763860943,0.001440383254159,-0.0015469002843477,0.0015446487964225,-0.0015456584370537,0.0015476226565392,-0.001546879813618,0.001543601300323,-0.0015471349654853,0.0015480718710099,-0.0014508337325936,0.0014434642370025,-0.0014582962930193,0.0014633180303372,-0.0014470151067107,0.0014499459770577,-0.0014332095373201,0.001433130686372,-0.0014472260366969,0.0014408837626834,5.3579903621603e-06,1.5627890127626e-05,-0.00098097192868113,0.00098198260868965,3.793808960819e-06,-2.5481767429764e-06,-0.001001719295996,0.001005717120057,-0.0010568071366306,0.0010119018294723,-0.0010598158559462,0.0010517532220402,-0.0010215320787706,0.0011159756478646,-0.00099552365419515,0.0010119409003168,-0.0010505943604691,0.0010181056649718,-0.0010536144293834,0.0010579678539755,-0.0010896346282389,0.0010929256330816,-0.0010917462811007,0.001090809921146,-0.0010904142144306,0.0010855708408711,-0.0010925308768736,0.0010834599698249,-0.0010562802568094,0.0010876232578456,-0.0010410615636338,0.00104921844168,-0.0010389545884125,0.0010513380003807,-0.0010541617614922,0.0010897309506116,-0.0010277526034016,0.0011097774791267,0.79325035118638,122718,2924,0.0036645074813163,0.006261638217029,0.004081641863893,29.295717419299,0.00014956573935439,0.00014956573935439,0.00014956573935439,3356314.3752676,0.014106767248449
33391759,0.96785610050103,0.014650544993769,0.0041914654768865,0.0058721894294653,0.0045868900874174,-0.00089177556976157,0.0008832544712104,-1.7460396626427e-05,-7.4749736995042e-06,-2.534749503222e-06,-8.2017798495508e-07,-0.00036211747496586,0.00032779844331934,-0.00096984124488324,0.00096257142777179,-0.00096391906234623,0.00098722475054479,-0.00038315304245153,0.00033315916139679,-0.0003637729274365,0.00032613406213639,-0.00097149838119583,0.00096088298278152,-0.00096557596878007,0.00098553575685489,-0.0010824587524926,0.0010714264179651,-0.0010774515454523,0.0010817378066072,-0.0010819008109971,0.0010720032394501,-0.0010768935870241,0.0010823147422879,-0.00085216926704065,0.00081885898482181,-0.0008373509938915,0.00081209625964295,-0.00085273163762735,0.00081829073500398,-0.00083791361800162,0.00081152825964457,-0.00038149769668888,0.0003348240265801,4.7534613022119e-07,-1.1927637472279e-06,-3.6959663917084e-06,3.0024321935411e-06,-0.0015399263541844,0.0015392307912336,-0.0014737807248382,0.0014802100776166,-0.0014813722745429,0.001480067060005,-0.0014774719052222,0.0014728893489972,-0.0015773148195282,0.0015749540831335,-0.0015760015604428,0.0015781044518416,-0.0015773571257553,0.001573878285854,-0.0015775702584307,0.0015785547114055,-0.0014810838823413,0.0014732734280085,-0.0014887072383694,0.0014940174267263,-0.0014799732293474,0.0014831287508526,-0.0014649172879762,0.001464796637945,-0.0014772151126447,0.0014705224228252,5.8483234466664e-06,1.6634128302752e-05,-0.00098115930138673,0.00098229920510259,4.066952726883e-06,-2.6493892779367e-06,-0.0009969308113086,0.0010015249284212,-0.0010599872981632,0.0010121384912721,-0.001063074154172,0.0010546606522094,-0.0010186869163178,0.0011198034472961,-0.00099036909271232,0.0010081160215902,-0.001053407911376,0.0010187085844673,-0.001056506737057,0.0010612420809847,-0.0010978464621318,0.0011014724344909,-0.0011000827060797,0.0010992317764311,-0.0010987823237329,0.0010935517884563,-0.0011010239282805,0.001091316303712,-0.0010611858995095,0.0010942545284596,-0.0010446875655431,0.001053644456128,-0.0010424562944631,0.0010558892151394,-0.001058942314587,0.0010964865709659,-0.0010252747126958,0.0011132392727532,0.81381076464073,122718,2924,0.0036931268414226,0.0063928469728194,0.0040827895824311,29.275781191109,0.00014940624952887,0.00014940624952887,0.00014940624952887,3149048.840387,0.014270072307881
34391759,0.97842087554938,0.014812645280229,0.0042392172057326,0.0059395067960087,0.004633921278488,-0.00090082609159788,0.00089201832347038,-1.81625332256e-05,-7.7096445345826e-06,-2.643629481262e-06,-8.5922960636147e-07,-0.00036040379132483,0.00032458934487835,-0.00098062269587603,0.00097304138498489,-0.000974417005613,0.00099881897494258,-0.00038242731297219,0.00033044404219245,-0.0003621268598192,0.00032285739421459,-0.00098234762793062,0.00097128428658089,-0.00097614167322453,0.00099706127635633,-0.0010960743293775,0.0010846010155866,-0.0010908499667677,0.0010953903389838,-0.0010954937442123,0.0010852013172213,-0.0010902693661783,0.0010959907620826,-0.0008597902878303,0.0008251397174711,-0.0008443383191774,0.00081824454845243,-0.0008603755984258,0.00082454834821475,-0.00084492391169549,0.00081765345536843,-0.00038070436315547,0.00033217652972872,4.9548322583686e-07,-1.2402085446068e-06,-3.8311555476222e-06,3.1112858904168e-06,-0.0015649609291283,0.0015642389836492,-0.0014960781792634,0.0015027430623379,-0.0015057785261935,0.0015044315449336,-0.0015017335049113,0.0014969762439918,-0.0016035789742194,0.0016011336345195,-0.0016022128697764,0.0016043936834334,-0.0016036495188058,0.0016000406251112,-0.0016038481816839,0.0016048650771171,-0.0015036091903483,0.0014955107957829,-0.0015111310008403,0.0015166314400428,-0.0015043484785062,0.0015076244707911,-0.0014886846541116,0.0014885516368538,-0.001499634412135,0.0014926989592784,6.1261363806121e-06,1.7282327614516e-05,-0.00098537039245213,0.00098657930752343,4.2393305718852e-06,-2.7225392221547e-06,-0.0010002107004965,0.0010051011250171,-0.0010673341749667,0.001017827231327,-0.0010705017322838,0.0010618244942891,-0.0010228419865924,0.001127553960717,-0.00099340901803908,0.0010119330175781,-0.0010605143717053,0.0010246374550073,-0.0010636942362115,0.0010686463442333,-0.0011063093345265,0.0011101163883389,-0.0011086273343043,0.0011077938602261,-0.0011072724643317,0.0011017961096724,-0.0011095960007617,0.0010994789214367,-0.0010674820491147,0.0011017755620238,-0.0010503616778736,0.0010597629081877,-0.0010480488753072,0.0010620896844561,-0.0010651565085015,0.0011040891696691,-0.0010296704896498,0.0011207498158572,0.7296115327816,122718,2924,0.0037301791822771,0.0064963387058796,0.004100472668977,31.398393345196,0.00016638714676157,0.00016638714676157,0.00016638714676157,3029683.9530527,0.014430592807651
35391759,0.98681418643905,0.014928631357758,0.0042737010467729,0.0059873113200091,0.0046676189909759,-0.00091432016851826,0.00090537778912471,-1.8381931793796e-05,-7.8242173323022e-06,-2.6970405487018e-06,-9.1533016718662e-07,-0.00037498539636954,0.00033895891073286,-0.00099637978303786,0.00098864145627583,-0.00099010181330497,0.0010145854614005,-0.00039721184759306,0.00034481190014183,-0.0003767056701929,0.00033722965959511,-0.00099810220186172,0.00098688689426335,-0.00099182395775771,0.0010128302875741,-0.0011103753117564,0.0010986938639197,-0.0011051045904741,0.001109709757275,-0.0011097954580207,0.0010992933981412,-0.0011045247173029,0.0011103094110544,-0.00087151397758179,0.00083638421787069,-0.00085592308345016,0.00082947536555923,-0.0008720984319895,0.00083579372858265,-0.0008565078447759,0.00082888516950897,-0.00039549170611472,0.00034654172405477,4.8333464421139e-07,-1.2491276507201e-06,-3.8886296391105e-06,3.1477047380763e-06,-0.001586081241334,0.0015853383021025,-0.0015141563575261,0.0015208911990238,-0.0015245705518547,0.0015231677038591,-0.0015204352535112,0.0015156288611122,-0.0016278559734053,0.0016253573458379,-0.0016264605313827,0.0016286506685744,-0.0016279118860444,0.0016242519995302,-0.0016281231846509,0.001629151692296,-0.0015217260573014,0.0015135156851986,-0.0015290334312168,0.0015346060134971,-0.0015231174161533,0.0015264000634946,-0.0015074723596157,0.0015073527700876,-0.0015177928732049,0.0015107432243217,6.1641916187972e-06,1.7552478960117e-05,-0.00099748485033047,0.00099870958661777,4.2971529373649e-06,-2.7593651844583e-06,-0.0010159924369949,0.0010208489693166,-0.0010826944210383,0.0010328698343127,-0.0010859449656427,0.0010771061391054,-0.0010384472550591,0.0011436832604282,-0.0010090984972016,0.0010277735072442,-0.0010757819845033,0.0010397724835107,-0.0010790448828696,0.001084020454297,-0.0011183638519311,0.0011221767137619,-0.0011207134307961,0.0011198227389764,-0.0011192260121362,0.0011136806003052,-0.0011215811142209,0.0011113319522379,-0.0010795346145983,0.0011145366445887,-0.0010624570544854,0.0010719023826348,-0.0010601127954237,0.0010742606183465,-0.0010771776017648,0.0011168816987262,-0.0010453682831891,0.0011367867766642,0.65593630488581,122718,2924,0.0037859108762717,0.0065837046081126,0.0041507880677669,35.851114312918,0.00020200891450334,0.00020200891450334,0.00020200891450334,3014200.8297821,0.014626816490873
36391759,0.9922547184497,0.015007394815936,0.0042970964792933,0.0060196817091688,0.0046906166274744,-0.00092135198682941,0.00091230151515458,-1.8533377501098e-05,-7.9284992133016e-06,-2.7390549738881e-06,-9.5735191867136e-07,-0.0003815329298987,0.00034522896736039,-0.0010047519213132,0.00099690394153733,-0.00099843446301867,0.0010229836181839,-0.00040386902363786,0.00035114942484431,-0.00038325325618198,0.00034349967339864,-0.0010064744775102,0.00099514939252581,-0.0010001567314986,0.0010212284440592,-0.0011178434496262,0.0011060209597476,-0.0011125416352507,0.001117181006786,-0.0011172634069408,0.0011066205271226,-0.0011119615771534,0.001117780698666,-0.00087780178523263,0.00084234817220632,-0.00086212262728241,0.00083540829917427,-0.00087838631368969,0.00084175766930112,-0.00086270746071531,0.00083481808486856,-0.0004021488227851,0.00035287929346579,4.7718633011682e-07,-1.2552171003326e-06,-3.9181787237795e-06,3.1648996324483e-06,-0.0015976905657936,0.0015969353119579,-0.0015241790550295,0.0015309473293891,-0.001535090349468,0.0015336594248907,-0.0015309105537248,0.0015260764385735,-0.0016409463405143,0.0016384197609437,-0.0016395341959161,0.0016417275023676,-0.0016409899322592,0.0016373023283681,-0.0016412026890643,0.0016422345963432,-0.001531775860179,0.0015235073543936,-0.0015390659577067,0.0015446720862449,-0.0015336232759027,0.0015369089629163,-0.0015179488143052,0.0015178326375927,-0.001527855471855,0.0015207475585782,6.1880230520921e-06,1.7693500798078e-05,-0.0010040350232988,0.0010052784759508,4.326779691235e-06,-2.7768070188366e-06,-0.0010247046468907,0.0010295542600243,-0.0010910086860502,0.0010409768876557,-0.0010943043684975,0.0010853812262612,-0.0010471613834947,0.0011528716897693,-0.0010177646503002,0.0010365248403523,-0.0010840501832871,0.0010479255462536,-0.0010873581830969,0.00109234151053,-0.0011246570673487,0.0011284707353576,-0.0011270223554074,0.0011261011460953,-0.0011254661464433,0.0011198943499528,-0.0011278369214133,0.0011175300512465,-0.0010862817245534,0.0011216600808637,-0.0010691883042172,0.0010786642901703,-0.0010668283452353,0.0010810381254368,-0.0010839090786446,0.0011240208001242,-0.0010541284520567,0.0011459291651908,0.68699515304475,122718,2924,0.0038148806918214,0.0066317215382157,0.0041780105773918,37.529917595317,0.00021543934076254,0.00021543934076254,0.00021543934076254,3016291.1685989,0.014732558978946
37391759,0.99546589180111,0.015053415349287,0.0043107624868886,0.0060386005271961,0.0047040523352026,-0.0009227238712526,0.00091350118582763,-1.8955651908748e-05,-8.0950675501359e-06,-2.8058574291381e-06,-9.6705006100911e-07,-0.00037269061913382,0.00033508815042286,-0.0010056016547884,0.00099758964405468,-0.00099911939811143,0.0010244984885485,-0.00039563513052293,0.00034155093685698,-0.00037446662420703,0.00033330346504945,-0.0010073797259287,0.00099577913537344,-0.0010008971784559,0.0010226873392929,-0.0011220804131102,0.0011100351071567,-0.0011166398716893,0.0011214303217038,-0.0011214817993793,0.0011106537405803,-0.0011160412405835,0.0011220490805629,-0.00087956363112952,0.0008433462524276,-0.00086349165522186,0.00083627263790075,-0.00088016697917488,0.00084273681978705,-0.00086409532104333,0.00083566351351875,-0.00039385926949853,0.0003433362280258,5.0171846700073e-07,-1.2867788035664e-06,-3.9751404922594e-06,3.2153634886624e-06,-0.0016053933554534,0.0016046315381922,-0.0015319941755947,0.0015388799193304,-0.0015443457110684,0.0015429276334814,-0.0015401317228795,0.001535199896502,-0.001647080843817,0.0016445308357879,-0.0016456497685548,0.0016478911563133,-0.0016471533359556,0.0016434046278386,-0.0016473387278919,0.0016483810211497,-0.0015397351373109,0.0015313362343415,-0.0015472291868079,0.0015529152853993,-0.0015428738150331,0.0015462436686787,-0.0015266607884148,0.0015265182701013,-0.0015356919310955,0.0015284910654444,6.3748323565994e-06,1.7992217993893e-05,-0.0010022226786266,0.0010035241575067,4.4130886454363e-06,-2.7984983401525e-06,-0.0010190971373241,0.0010242142140811,-0.0010889893355447,0.0010378789998066,-0.001092287833161,0.0010832882729743,-0.0010425132099405,0.0011509028944587,-0.0010120512475089,0.0010312906616051,-0.0010819251031264,0.0010449334059039,-0.0010852360387084,0.0010903543929257,-0.0011260911728237,0.0011300339149685,-0.001128492398023,0.0011276282351601,-0.0011269921291281,0.0011213026344147,-0.0011293989457742,0.0011189023418661,-0.0010862150904391,0.0011219943434651,-0.0010685682381639,0.0010783568030024,-0.0010661723707222,0.0010807667699996,-0.0010838063314836,0.0011243909605394,-0.0010495862753966,0.0011438546445156,0.68009907945379,122718,2924,0.0038202864744144,0.0066635286490637,0.0041706525248379,37.635794683195,0.00021628635746556,0.00021628635746556,0.00021628635746556,2925663.7920236,0.014762874496528
38391759,0.99732004499404,0.015081470254635,0.0043191486797118,0.0060500524083035,0.0047122691666199,-0.00092242787796108,0.00091314530159369,-1.9116556167744e-05,-8.1307522511356e-06,-2.8270536987632e-06,-9.7553460126123e-07,-0.00036989494929183,0.00033198241003868,-0.0010056457559467,0.00099755822628665,-0.000999093871091,0.0010247221855723,-0.00039307861073868,0.00033853621528011,-0.0003716832403764,0.00033018546815953,-0.0010074361595974,0.00099573524373174,-0.0010008839710491,0.0010228985460645,-0.0011228100491476,0.0011106681574801,-0.0011173153727715,0.0011221674895831,-0.0011222073093407,0.0011112910619758,-0.0011167126184461,0.001122790523408,-0.00087906868171166,0.00084254584585987,-0.00086283849898912,0.0008354564931421,-0.00087967620304536,0.00084193221073511,-0.00086344634037207,0.00083484316795426,-0.00039129046268882,0.00034033377262315,5.0550242490059e-07,-1.2952527716294e-06,-4.0042313911794e-06,3.2399462674042e-06,-0.0016084168826081,0.0016076505481061,-0.0015345711954178,0.0015415091540183,-0.001547380070065,0.0015459515735691,-0.0015431320751468,0.0015381657040855,-0.0016501809836361,0.0016476127928268,-0.00164873862436,0.001650997545673,-0.0016502610545459,0.001646485889912,-0.0016504427577859,0.0016514943032758,-0.0015423619875458,0.0015339019026021,-0.00154982760282,0.0015555576987917,-0.0015459025072129,0.001549297600864,-0.0015295424388528,0.0015294010596844,-0.0015382941215532,0.0015310402670356,6.4473485711214e-06,1.8131464812671e-05,-0.0010007445443746,0.0010020625013382,4.4528845043471e-06,-2.8127326521889e-06,-0.0010172211416077,0.0010224261458005,-0.0010881544440793,0.0010366634235816,-0.001091463178953,0.0010824154629051,-0.0010408632508187,0.001150053113165,-0.0010101223953397,0.0010295555877166,-0.0010810373007798,0.0010437706914239,-0.0010843585341703,0.001089534493847,-0.0011256258497203,0.0011296179559177,-0.0011280450643767,0.0011271942630051,-0.0011265415257862,0.0011207928132653,-0.0011289663650665,0.0011183745388915,-0.0010853056556061,0.0011213321836279,-0.0010674979643161,0.0010774062211687,-0.0010650841422082,0.0010798342323271,-0.0010828788640091,0.0011237467604974,-0.001047989295007,0.0011429520102297,0.71704436579938,122718,2924,0.0038189519725557,0.0066760102290224,0.0041645700286769,37.194807562811,0.00021275846050249,0.00021275846050249,0.00021275846050249,2899534.4725281,0.014768019379742
38880000,0.99799694658939,0.015092096553059,0.0043223299360195,0.0060543804083633,0.0047153862086763,-0.00092218957495596,0.00091283796133194,-1.9325311960806e-05,-8.1935664657331e-06,-2.8543005928853e-06,-9.704972447339e-07,-0.00036460289117085,0.00032605835032929,-0.0010050004243081,0.0009968422791625,-0.0009983589335823,0.0010244449364315,-0.00038812239452354,0.00033288251314324,-0.00036642261988784,0.00032423010511226,-0.0010068221776843,0.00099498763073037,-0.0010001803809949,0.0010225896219593,-0.0011240427488167,0.0011118018521205,-0.0011184748174024,0.0011234109322682,-0.0011234295743906,0.0011124355379587,-0.0011178616265498,0.0011240447467943,-0.0008790866301275,0.00084219380029595,-0.00086264688014639,0.00083504537215599,-0.00087970476433136,0.00084156946841348,-0.00086326534495118,0.00083442136411638,-0.00038630282151943,0.00033471139566991,5.2036223583206e-07,-1.3120291489116e-06,-4.0339166185242e-06,3.268081671975e-06,-0.0016110490236725,0.001610281096093,-0.0015374596113467,0.0015444632465695,-0.0015509283695102,0.0015495101356837,-0.0015466648747129,0.0015416463633086,-0.001651834194111,0.0016492558602161,-0.0016503831362445,0.0016526704039492,-0.0016519343298325,0.0016481277227265,-0.0016521026532975,0.0016531612349611,-0.0015453290690709,0.001536800263238,-0.001552870074435,0.0015586446694265,-0.0015494498981793,0.0015528936259874,-0.0015328047543442,0.0015326496341871,-0.0015411934557931,0.0015338920274938,6.5504586464859e-06,1.828663406548e-05,-0.00099861997584692,0.00099996431396623,4.4996711046587e-06,-2.8241000879067e-06,-0.0010127266088151,0.0010180816066315,-0.0010857742721939,0.001033709034565,-0.0010890799425868,0.001079998078202,-0.0010368670403726,0.0011474383070676,-0.0010055708792421,0.0010252680829626,-0.0010786001933959,0.0010408732423746,-0.0010819184492394,0.0010871741177538,-0.0011253944040652,0.0011294614388414,-0.0011278329643335,0.001127018300136,-0.0011263672272801,0.0011205478025492,-0.0011288114816016,0.001118110147638,-0.0010840651780421,0.001120282562644,-0.0010659640706993,0.0010760455332204,-0.0010635309341206,0.0010784930245031,-0.0010816189306092,0.0011227164636606,-0.0010440501678068,0.0011402802931007,0.74364572121898,122718,2924,0.0038178531124684,0.0066868682821741,0.0041558339500342,37.19361980028,0.00021274895840224,0.00021274895840224,0.00021274895840224,2846225.2908536,0.01476906769646
