time,ASR_ext,ASR_strain,ASR_strain_xx,ASR_strain_yy,ASR_strain_zz,disp_x_101,disp_x_102,disp_x_103,disp_x_104,disp_x_105,disp_x_106,disp_x_p10_neg,disp_x_p10_pos,disp_x_p11_neg,disp_x_p11_pos,disp_x_p12_neg,disp_x_p12_pos,disp_x_p13_neg,disp_x_p13_pos,disp_x_p14_neg,disp_x_p14_pos,disp_x_p15_neg,disp_x_p15_pos,disp_x_p16_neg,disp_x_p16_pos,disp_x_p1_neg,disp_x_p1_pos,disp_x_p2_neg,disp_x_p2_pos,disp_x_p3_neg,disp_x_p3_pos,disp_x_p4_neg,disp_x_p4_pos,disp_x_p5_neg,disp_x_p5_pos,disp_x_p6_neg,disp_x_p6_pos,disp_x_p7_neg,disp_x_p7_pos,disp_x_p8_neg,disp_x_p8_pos,disp_x_p9_neg,disp_x_p9_pos,disp_y_101,disp_y_102,disp_y_103,disp_y_104,disp_y_105,disp_y_106,disp_y_p10_neg,disp_y_p10_pos,disp_y_p11_neg,disp_y_p11_pos,disp_y_p12_neg,disp_y_p12_pos,disp_y_p1_neg,disp_y_p1_pos,disp_y_p2_neg,disp_y_p2_pos,disp_y_p3_neg,disp_y_p3_pos,disp_y_p4_neg,disp_y_p4_pos,disp_y_p5_neg,disp_y_p5_pos,disp_y_p6_neg,disp_y_p6_pos,disp_y_p7_neg,disp_y_p7_pos,disp_y_p8_neg,disp_y_p8_pos,disp_y_p9_neg,disp_y_p9_pos,disp_z_101,disp_z_102,disp_z_103,disp_z_104,disp_z_105,disp_z_106,disp_z_p10_neg,disp_z_p10_pos,disp_z_p11_neg,disp_z_p11_pos,disp_z_p12_neg,disp_z_p12_pos,disp_z_p13_neg,disp_z_p13_pos,disp_z_p14_neg,disp_z_p14_pos,disp_z_p15_neg,disp_z_p15_pos,disp_z_p16_neg,disp_z_p16_pos,disp_z_p1_neg,disp_z_p1_pos,disp_z_p2_neg,disp_z_p2_pos,disp_z_p3_neg,disp_z_p3_pos,disp_z_p4_neg,disp_z_p4_pos,disp_z_p5_neg,disp_z_p5_pos,disp_z_p6_neg,disp_z_p6_pos,disp_z_p7_neg,disp_z_p7_pos,disp_z_p8_neg,disp_z_p8_pos,disp_z_p9_neg,disp_z_p9_pos,humidity,ndof,nelem,strain_xx,strain_yy,strain_zz,temp,thermal_strain_xx,thermal_strain_yy,thermal_strain_zz,vonmises,vstrain
14391759,0,0,0,0,0,0,0,0,0,0,0,0,0,0,0,0,0,0,0,0,0,0,0,0,0,0,0,0,0,0,0,0,0,0,0,0,0,0,0,0,0,0,0,0,0,0,0,0,0,0,0,0,0,0,0,0,0,0,0,0,0,0,0,0,0,0,0,0,0,0,0,0,0,0,0,0,0,0,0,0,0,0,0,0,0,0,0,0,0,0,0,0,0,0,0,0,0,0,0,0,0,0,0,0,0,0,0,0,0,0,0,0,0,0,0,0,0,0,0,0,0,0,0
14891759,0.063482536567502,0.0011444136534074,0.00038147121780247,0.00038147121780247,0.00038147121780247,-0.00012402823474595,0.00012395846066605,-1.03374002076e-07,-1.0116885376493e-07,-1.8319885286197e-08,-1.8192638966777e-08,-0.00010975586537597,0.0001093173389109,-0.00012124718305973,0.00012120624202634,-0.00012123656576734,0.00012140401353943,-0.00010979927313322,0.00010942770625431,-0.00010975606905625,0.00010931738777477,-0.00012124722009673,0.00012120606731358,-0.00012123674014802,0.000121403975956,-0.00012948164817235,0.00012943198559161,-0.00012947116593936,0.00012948992793378,-0.00012948163160497,0.00012943206462994,-0.00012947108748127,0.00012948994513567,-0.00012096967636497,0.00012078195404847,-0.0001209338546229,0.00012066205705513,-0.00012096965015264,0.00012078185348694,-0.00012093395486896,0.00012066208300903,-0.00010979932219243,0.00010942791027867,2.7916157768778e-11,-6.3881988397634e-11,-5.7974626131585e-09,5.7623702372763e-09,-0.00013197449609703,0.00013197446112276,-0.00012807335650615,0.00012808461531307,-0.00012914383498055,0.00012913997477645,-0.00012912215710221,0.00012911812937562,-0.00013395806632855,0.00013395405994245,-0.000133962119579,0.00013396615407796,-0.00013395753195384,0.00013395342817785,-0.00013396709085008,0.00013397102795545,-0.00012808449288879,0.00012807316396268,-0.00012810507560493,0.00012811626102511,-0.00012914405644454,0.00012914801334022,-0.0001290106103882,0.00012901439967423,-0.00012805449352592,0.0001280432379996,4.5144998715432e-09,1.6806233405934e-07,-0.00012750145502199,0.00012751617416134,1.5769438741405e-08,3.896486346991e-09,-0.00012257350053418,0.0001225644285042,-0.00012462869339397,0.00012433769123303,-0.00012467338834019,0.00012462333622161,-0.00012274260099837,0.00012365339786441,-0.00012256231846786,0.00012257564260868,-0.00012461724479369,0.00012434912429453,-0.00012466195483191,0.00012463478416426,-0.00013079556671168,0.00013078643272721,-0.00013079957154787,0.00013078242127761,-0.00013077946136183,0.00013075084790807,-0.00013078347297692,0.00013074684319835,-0.00012552446897209,0.00012583516357009,-0.00012546314961265,0.00012546914364392,-0.00012545924368433,0.00012547306468065,-0.00012552054806704,0.00012583906952437,-0.0001227538154301,0.0001236422165723,0.72243549451372,122718,2924,0.00051650512435364,0.00054974093269712,0.00053114433586351,30.462880191748,0.00015890304153398,0.00015890304153398,0.00015890304153398,1275671.6150795,0.0015986714612729
15391759,0.11437728007329,0.002065606767055,0.00067647640686833,0.0007027243848725,0.00068640597531415,-0.00018294981327646,0.00018281984297565,-2.8120991276396e-07,-1.6998521505624e-07,-3.7701587412022e-08,-1.2841752022734e-08,-0.00015634614928347,0.00015554034446689,-0.00017954761437906,0.00017947540927864,-0.00017948765968746,0.00017998581326347,-0.00015657898309875,0.00015565685683855,-0.00015637039461822,0.00015551620703228,-0.00017957150921337,0.00017945070140029,-0.00017951180315859,0.00017996135319562,-0.00019544359913563,0.000195302929848,-0.00019538540344815,0.00019548676591196,-0.00019543563330989,0.00019531134653892,-0.00019537733689214,0.00019549508208212,-0.00017814395407246,0.00017763126008685,-0.00017796039115584,0.00017744271890363,-0.00017815200755235,0.00017762288753008,-0.00017796864470057,0.00017743454637765,-0.00015655518392491,0.0001556814399596,7.5216350606053e-09,-1.688453958492e-08,-4.3654643219785e-08,3.4672339563532e-08,-0.00020411749182922,0.00020410846939782,-0.00019682707189806,0.00019690297792278,-0.0001986445516285,0.00019863310767887,-0.00019859492751098,0.000198535470423,-0.00020960896335529,0.00020958190501475,-0.00020960505529336,0.00020963063644524,-0.00020961088798898,0.0002095674529017,-0.00020963142989443,0.00020964063468877,-0.00019690227036882,0.00019680848380396,-0.00019685823297315,0.0001969177383691,-0.00019862958324641,0.00019867049547008,-0.00019831931488077,0.00019831221396467,-0.00019682675231875,0.00019674936632377,5.5176428838047e-08,4.0748263936702e-07,-0.00019144818971895,0.000191477074022,6.3294096523783e-08,-1.559150236421e-08,-0.0001828814582901,0.00018289725632455,-0.00018804610085907,0.00018723727091655,-0.00018814345845118,0.00018799160700269,-0.00018322321098649,0.00018533285461087,-0.00018280505587394,0.00018297418153168,-0.0001879689972712,0.00018731429030602,-0.00018806654364276,0.00018806881480159,-0.00019949013261336,0.00019950757090768,-0.00019951644559356,0.00019948114665279,-0.00019946133842788,0.00019936255795381,-0.00019948773776684,0.00019933621996671,-0.00018861824262861,0.00018936210092694,-0.00018843545493855,0.00018852049288342,-0.00018840936734041,0.00018854682981298,-0.00018859195712636,0.00018938823957765,-0.00018330002786043,0.0001852563440137,0.74328681637659,122718,2924,0.00076173088626314,0.00085010405041904,0.00079743939046612,27.264469515187,0.0001333157561215,0.0001333157561215,0.0001333157561215,1868613.0463614,0.0024121925931629
15891759,0.16036546404558,0.0029283426908055,0.00094546864680021,0.0010133645692375,0.0009695094747678,-0.00023960642631079,0.00023938595663481,-5.2648909902209e-07,-2.5200877018698e-07,-6.9535782463314e-08,-1.2448056202862e-08,-0.00020108695605238,0.00019988590120815,-0.0002377082909944,0.00023758205911789,-0.0002375802072178,0.00023847988285122,-0.00020157725182395,0.00019988308905778,-0.00020114246143827,0.00019983009686618,-0.00023776337233495,0.00023752543336894,-0.0002376355450548,0.00023842351149033,-0.00025839351002398,0.00025812284199103,-0.00025826965342729,0.00025847687350701,-0.00025837512674197,0.00025814210615203,-0.00025825116946384,0.00025849603751232,-0.00023486621560662,0.00023391412800102,-0.00023448211040295,0.00023363958193501,-0.00023488485491508,0.00023389501607194,-0.00023450094484732,0.00023362066493859,-0.00020152221196571,0.00019993936133204,1.6266124867356e-08,-3.9804034672828e-08,-1.0362717217523e-07,8.0991829938367e-08,-0.00027786682951283,0.0002778440954282,-0.0002683867032313,0.00026856374590767,-0.00027099893790166,0.00027096914741661,-0.00027091739849361,0.00027077732395852,-0.000285585823281,0.00028552035201544,-0.00028556665504364,0.00028562462947361,-0.00028559026048991,0.00028548728708495,-0.00028562889177737,0.00028564936426646,-0.00026856326675381,0.00026834115520252,-0.00026844756877583,0.00026858695137998,-0.00027095848930324,0.00027105188768409,-0.00027045267263296,0.00027043578719531,-0.00026842825071895,0.00026824379825194,1.2185882942813e-07,7.1481395804952e-07,-0.00025400998614609,0.00025405198546855,1.3112826842344e-07,-5.4124875578336e-08,-0.00024654970167978,0.00024657861467551,-0.0002520995114325,0.00025057757845308,-0.00025226469417094,0.00025195585472066,-0.00024714241854337,0.00025083345350407,-0.00024636945285512,0.00024676005316217,-0.00025191814164056,0.00025075877087542,-0.00025208372755312,0.00025213744907838,-0.00026573936458369,0.00026579334290787,-0.00026580107376692,0.00026573140146063,-0.00026569344255672,0.00026550501665025,-0.00026575533761681,0.00026544326096392,-0.00025226282865969,0.00025357180116642,-0.00025192274475037,0.0002521050285269,-0.00025186137702782,0.00025216698350052,-0.00025220101493238,0.00025363330923439,-0.0002473235816477,0.00025065292844315,0.77727459755772,122718,2924,0.00099741095646183,0.0011570514438665,0.0010578979568283,25.412305153679,0.00011849844122943,0.00011849844122943,0.00011849844122943,2018757.3277293,0.0032175428613917
16391759,0.20527421486966,0.0037713809621894,0.001201037315281,0.0013256851179299,0.0012446585289785,-0.00029449465889265,0.00029412846161105,-8.6720651124672e-07,-3.8077168069984e-07,-1.219169076448e-07,-4.1114217974074e-08,-0.00023783529610371,0.0002359126817182,-0.00029494946660457,0.00029469688692146,-0.00029472832991824,0.0002960695130476,-0.00023865499116959,0.00023588481387945,-0.00023791373916104,0.000235833591175,-0.00029502747693433,0.00029461680860253,-0.00029480659738557,0.00029598968972448,-0.00032019534426452,0.0003197460460123,-0.00031997628693158,0.00032032147728038,-0.00032016922469679,0.00031977331087831,-0.00031995007029095,0.00032034864608899,-0.00028978194229914,0.00028821072209389,-0.00028911077659906,0.00028786673413969,-0.00028980837452219,0.00028818370195284,-0.00028913739885146,0.00028783990345601,-0.00023857700696135,0.00023596436882925,2.1645584538199e-08,-5.76313044579e-08,-1.8337405583451e-07,1.4867580160371e-07,-0.00035356971557105,0.00035353488303875,-0.00034135259083744,0.00034166979767789,-0.00034470601038183,0.00034463749072732,-0.0003445749945279,0.00034435062999428,-0.00036319197438986,0.00036307314652492,-0.00036314830814784,0.00036325117838019,-0.00036319292493717,0.00036302110821932,-0.00036324550547176,0.00036329538652132,-0.00034168472062702,0.00034129841607051,-0.00034174204207754,0.0003420059941025,-0.00034462587414747,0.00034477881542514,-0.00034388630779133,0.00034388340686633,-0.00034146176332609,0.00034112870721891,2.1899812332807e-07,1.0991414654128e-06,-0.00031594613478455,0.00031599870676962,2.1829288119434e-07,-1.1444832583706e-07,-0.00031109113266694,0.00031114457796232,-0.00031675630285431,0.00031413178964834,-0.00031698565809335,0.00031646169868055,-0.00031208065929121,0.00031806520885377,-0.00031076673046064,0.00031147067886121,-0.00031643045227511,0.00031445739217045,-0.00031666037268018,0.00031678786581607,-0.00033126953429635,0.00033138234671598,-0.00033138038045571,0.00033127120634575,-0.00033121449254162,0.00033091222882063,-0.00033132559855794,0.00033080134840632,-0.00031536898879271,0.00031733407821105,-0.0003147817974753,0.00031510953631022,-0.00031467138966699,0.00031522077520178,-0.00031525794959009,0.00031744468396132,-0.00031240636548913,0.00031774041182032,0.77589297122514,122718,2924,0.0012255680373853,0.001472032001135,0.0013156801717418,24.448059740284,0.00011078447792227,0.00011078447792227,0.00011078447792227,2306406.203487,0.0040213659746469
16891759,0.24982719692208,0.0046303143623633,0.0014535445232676,0.0016521599003911,0.0015246099387046,-0.00034947682851587,0.00034892250900724,-1.2923192134136e-06,-5.4454365684381e-07,-1.7502819364661e-07,-7.9474672224543e-08,-0.00027245732749856,0.00026965048865616,-0.00035402418744153,0.00035356591817673,-0.00035368094549907,0.00035554996709069,-0.0002736887242007,0.0002696468569096,-0.00027254997254694,0.00026955690996626,-0.00035411634639429,0.0003534712665458,-0.00035377332897793,0.00035545553284142,-0.0003821547610147,0.00038148530237114,-0.00038181212554846,0.00038232677083795,-0.00038212377245721,0.00038151755984404,-0.00038178105137656,0.00038235894470444,-0.0003453188387929,0.00034295135379674,-0.00034427517597087,0.00034248016560375,-0.00034535012637741,0.00034291941136932,-0.0003443066446951,0.00034244840142823,-0.00027359649621936,0.0002697408568176,2.4151724330459e-08,-6.9485270156135e-08,-2.9590119215515e-07,2.5211608347856e-07,-0.00043284046302071,0.00043279651203874,-0.00041802054227911,0.00041854504736671,-0.0004219706007978,0.00042183479917038,-0.00042176606257437,0.00042144634940295,-0.00044414064864208,0.00044394564033977,-0.00044405854816764,0.00044422914410567,-0.00044413125746344,0.00044387367298103,-0.00044418593642194,0.00044429395009512,-0.00041860235566193,0.00041799068684727,-0.0004188983135714,0.00041935989381223,-0.0004218299863795,0.00042205958136553,-0.00042076912731011,0.00042081481379316,-0.00041825632207038,0.00041770755771847,3.4751324668624e-07,1.5675143433157e-06,-0.0003792174450031,0.00037927476922749,3.3615024509168e-07,-2.1260891512827e-07,-0.00037874664936738,0.00037881736220257,-0.00038509738205138,0.00038102898736159,-0.00038546147474299,0.00038466269459346,-0.00038015857997681,0.00038899431124616,-0.00037821087362712,0.00037935517944483,-0.00038455995114727,0.00038156611780245,-0.00038492474975019,0.0003852005411486,-0.00039760507454656,0.00039780578317109,-0.00039778790407681,0.00039762262301031,-0.00039754807986357,0.00039713054783026,-0.00039773121507447,0.00039694769509324,-0.00038057317883889,0.00038337292467611,-0.00037966899489953,0.00038018078043414,-0.00037948664421071,0.00038036408136379,-0.00038039009699707,0.00038355549061056,-0.00038069592387699,0.00038845806943021,0.79749073739336,122718,2924,0.001453984225316,0.001801754688213,0.0015789393672543,23.815146392786,0.00010572117114229,0.00010572117114229,0.00010572117114229,2624190.8944858,0.0048464079358975
17391759,0.2899349553532,0.0053547856912529,0.0016598653844893,0.0019357786279382,0.0017591416788254,-0.00039163060561798,0.00039086531098032,-1.7597772732768e-06,-7.221606219996e-07,-2.3782406556377e-07,-1.025525273407e-07,-0.00029183242841668,0.00028818543673408,-0.00039858097860455,0.00039791737047742,-0.00039809328073525,0.00040054832876141,-0.00029357717804265,0.00028815415395909,-0.00029196361230154,0.00028805290066149,-0.00039871148875522,0.000397783409901,-0.00039822404819887,0.00040041461687557,-0.00043243844959644,0.00043150471850584,-0.000431956667538,0.00043264058336531,-0.00043239459106599,0.00043155034260858,-0.00043191270393011,0.00043268610492132,-0.00038539708647975,0.00038213974835406,-0.00038393159144463,0.00038147829060013,-0.00038544139996402,0.00038209455109611,-0.00038397613032935,0.0003814333160409,-0.0002934464683526,0.00028828717485545,3.5325262461554e-08,-9.7333610792062e-08,-3.9990726117818e-07,3.4001255805888e-07,-0.00050001176398984,0.00049995165443553,-0.0004815675836862,0.00048227701421313,-0.00048571152543071,0.00048553350411767,-0.00048543366633972,0.00048499505897856,-0.00051392445646834,0.00051366244163985,-0.00051380980450433,0.00051404145974018,-0.00051391685313152,0.00051356625451427,-0.00051399912506291,0.00051414218863587,-0.00048235866621255,0.00048152999824648,-0.00048292004922926,0.00048354039897413,-0.00048552130380433,0.00048583663065072,-0.00048412476090677,0.00048417951003374,-0.00048189065357466,0.0004811510355488,5.0149434749644e-07,2.0729939044422e-06,-0.00042965056193518,0.00042971770319048,4.4678128220875e-07,-2.9410877215325e-07,-0.00042979619138862,0.00042996324005092,-0.00043773965626004,0.00043214076841129,-0.00043823782620466,0.00043718367923867,-0.00043172726426203,0.00044349615775679,-0.00042907279368938,0.00043068934222196,-0.00043701411286977,0.00043286585327701,-0.00043751322821074,0.00043790971919692,-0.00045246646069646,0.00045276048955636,-0.00045271329884174,0.00045251321320375,-0.00045241356169935,0.00045184330946992,-0.00045266080973159,0.00045159644460646,-0.00043225040492746,0.00043602950175027,-0.00043096343970054,0.00043171444897841,-0.00043071721535828,0.00043196191802964,-0.00043200321127105,0.00043627599557586,-0.00043245276577322,0.00044277217259057,0.74995420174325,122718,2924,0.0016289431421793,0.0020810406359574,0.0017887439690133,22.12293437593,9.2183475007438e-05,9.2183475007438e-05,9.2183475007438e-05,2891097.6920239,0.0055139076280634
17891759,0.32355825839271,0.0059152243742588,0.0018173499700922,0.0021600759074553,0.0019377984967113,-0.00042159764715601,0.0004206924296125,-2.0943186174684e-06,-8.142630412302e-07,-2.7702799749714e-07,-1.3400721015177e-07,-0.00030743338873821,0.00030330998645497,-0.00042997071665828,0.00042913419252914,-0.00042937295327272,0.00043223958961259,-0.00030954701144836,0.00030321777454517,-0.00030757176273797,0.00030317010434486,-0.00043010853295226,0.00042899259188576,-0.00042951104187486,0.00043209825113603,-0.00046897770056498,0.00046784196134881,-0.00046839040055859,0.00046921736487876,-0.00046893126502827,0.00046789026815876,-0.00046834385171569,0.00046926556153626,-0.00041236143752509,0.00040844310205327,-0.000410574819958,0.00040771051707364,-0.00041240824918608,0.00040839532301074,-0.00041062187567023,0.00040766297912733,-0.00030940914243053,0.00030335817832687,3.4208062485312e-08,-1.0570430941119e-07,-4.9440071909261e-07,4.2519148936253e-07,-0.00054993304001712,0.00054986361341091,-0.00052667904321439,0.00052755759996827,-0.00052992882694877,0.00052968841406677,-0.00052956380608392,0.00052904877703227,-0.0005686823510912,0.00056835369942881,-0.00056853400040135,0.00056881882923924,-0.00056866832430939,0.00056824612981032,-0.0005687920994716,0.00056898337608465,-0.00052763856069768,0.00052662221247255,-0.00052829561961975,0.00052908016263635,-0.00052968836338215,0.00053006107034815,-0.00052807949869135,0.0005281776034443,-0.00052710660872165,0.00052618423278851,6.105427012903e-07,2.470374788885e-06,-0.00046547003807794,0.00046551732246915,5.3578523337638e-07,-3.8496658232088e-07,-0.00046278673191164,0.00046297462709033,-0.00047516587075958,0.00046845579435123,-0.00047578906976282,0.00047449044539946,-0.0004648808569288,0.0004785428170576,-0.00046188753454254,0.00046387696641021,-0.00047426415961657,0.00046935685194781,-0.00047488846196069,0.00047539261610978,-0.00049301249851223,0.00049337342880366,-0.00049331928905484,0.00049306618630393,-0.00049293329035247,0.00049223855327167,-0.000493240547323,0.00049193177816967,-0.00046674379650713,0.00047129610967771,-0.00046526895861038,0.00046617612786885,-0.00046496288096688,0.00046648360730248,-0.00046643661040834,0.0004716024731154,-0.00046578253293479,0.00047764297396932,0.69743113584407,122718,2924,0.0017533243112017,0.0022885547188523,0.0019376710577557,19.639121369232,7.231297095386e-05,7.231297095386e-05,7.231297095386e-05,3228814.1866232,0.0059975131804545
18391759,0.35245083720248,0.0063989700920168,0.001952625792553,0.0023553590378173,0.0020909852616464,-0.00044738447630145,0.00044636878044898,-2.3637639817231e-06,-8.7258132907052e-07,-3.0832592301918e-07,-1.735851495582e-07,-0.00032272639997099,0.00031825316060747,-0.00045797421563811,0.00045696179563447,-0.00045728371154969,0.00046044491088032,-0.00032513320368713,0.00031808301489047,-0.00032285664025681,0.00031812138826383,-0.00045810400480968,0.00045682836917431,-0.000457413732597,0.00046031170331338,-0.00050000346267123,0.00049870108168793,-0.00049932579267203,0.00050028236590803,-0.00049995961623781,0.0004987466335074,-0.00049928184896935,0.00050032782576304,-0.00043621946863962,0.0004317624374647,-0.00043416134803979,0.0004309942205905,-0.00043626356434142,0.00043171742296499,-0.00043420565858294,0.00043094941566494,-0.00032500340606138,0.00031821524638636,2.913088370119e-08,-1.0247281874476e-07,-5.9466133898835e-07,5.2351586814408e-07,-0.00059292921103767,0.00059285787291145,-0.00056525352265277,0.00056632186314932,-0.0005675013654206,0.00056718462531096,-0.00056706735776354,0.00056649248038362,-0.00061663166095395,0.00061623218031196,-0.00061644299896772,0.00061678928290116,-0.00061661246309561,0.00061612504548155,-0.00061676962897385,0.00061702796199877,-0.00056641379469937,0.00056520380690983,-0.00056712293675865,0.00056810282043764,-0.00056720261121973,0.00056763132752655,-0.00056545761759264,0.00056562821522963,-0.00056582422043647,0.00056470263282401,6.9768748124252e-07,2.808879116077e-06,-0.00049606576731707,0.00049608177624744,6.2723787620422e-07,-4.9217834483985e-07,-0.00049216442919499,0.00049231165258386,-0.0005086827444464,0.00050100482170682,-0.00050942548728299,0.00050787169524722,-0.00049427395620646,0.0005095299832193,-0.00049107065287772,0.00049340856437227,-0.00050758645710415,0.00050210040578978,-0.0005083302986891,0.00050896839292099,-0.00052754899437988,0.00052797412070092,-0.0005279220198326,0.00052760070226657,-0.00052742962060176,0.0005266421269969,-0.00052780309233265,0.00052626915650697,-0.00049593681425317,0.00050112825666698,-0.00049437389648193,0.00049538789573718,-0.00049400158957685,0.00049576157081471,-0.00049556343571117,0.0005015008504608,-0.00049537018868304,0.00050843555452284,0.70636195046421,122718,2924,0.0018603630545276,0.0024672592373183,0.0020648324999089,17.515533989035,5.5324271912277e-05,5.5324271912277e-05,5.5324271912277e-05,3505888.655969,0.0064129935360455
18891759,0.3803784492917,0.0068819013516581,0.0020869474035241,0.0025510057757755,0.0022439481723585,-0.00047551622844013,0.00047432559241349,-2.7392345544104e-06,-1.008817339586e-06,-3.5881468080286e-07,-2.2558378652205e-07,-0.00033489176633722,0.00032968329160217,-0.00048893807734547,0.00048769206832253,-0.00048812672369752,0.0004917238716063,-0.00033768792515431,0.00032955671754296,-0.00033502050553875,0.00032955304084016,-0.0004890664004154,0.00048756016378617,-0.00048825525832168,0.00049159216166344,-0.00053425280189986,0.00053272876853006,-0.00053345819165609,0.00053455861839599,-0.00053420938386011,0.00053277382520737,-0.00053341468246213,0.00053460358990834,-0.00046329580852965,0.00045811282031537,-0.0004608905708346,0.00045723383961973,-0.00046333941299817,0.00045806831530167,-0.00046093438152921,0.00045718953416152,-0.00033755959561357,0.00032968739646182,2.7704472011324e-08,-1.0232877732627e-07,-7.0522556276679e-07,6.3276153551417e-07,-0.00064090027334177,0.00064082763415431,-0.00060957463652888,0.00061085640717548,-0.00061184062200582,0.00061144772851466,-0.00061133620876822,0.00061068834922889,-0.0006679484801211,0.00066747392813598,-0.00066771774504528,0.00066813548039039,-0.00066792820192934,0.00066736677733635,-0.000668108785255,0.00066843962842254,-0.00061097618696827,0.00060955014805238,-0.00061185665077636,0.00061305100382832,-0.00061148144946599,0.00061198051589419,-0.00060948984444324,0.00060973397206798,-0.00061029150999418,0.00060895281507995,8.1791713314724e-07,3.2105475969872e-06,-0.00052977376639198,0.00052978209816761,7.3385077817996e-07,-6.0554650075093e-07,-0.00052726381748984,0.00052741223536143,-0.00054606350611063,0.00053715414317708,-0.00054691756350255,0.00054508721037082,-0.0005296647087503,0.00054730745894445,-0.00052595466112301,0.00052872451816459,-0.00054475183906096,0.00053846508287463,-0.00054560701024184,0.00054639927743897,-0.00056485508571713,0.00056536572560927,-0.00056530144260979,0.00056491899883807,-0.0005647227539506,0.00056383618671877,-0.00056516955248659,0.0005633899030171,-0.00053009940773415,0.00053603240853166,-0.00052830123890991,0.0005294781797646,-0.00052785561281247,0.00052992516208389,-0.00052965272209364,0.00053647831891094,-0.00053097631581155,0.00054599766307484,0.73210602001933,122718,2924,0.0019770189295518,0.0026666020097908,0.0022049684747734,16.908316456674,5.0466531653393e-05,5.0466531653393e-05,5.0466531653393e-05,3613955.0119425,0.0068721699203423
19391759,0.40982837226556,0.0074092729169494,0.0022317202670367,0.0027666324480261,0.0024109202018865,-0.00050801207365983,0.00050659296283091,-3.2137602442617e-06,-1.2087426338635e-06,-4.3659886489943e-07,-2.6222710633747e-07,-0.00034827899872093,0.00034211217060471,-0.00052517637411892,0.0005236821958619,-0.00052421783080273,0.00052841570708807,-0.00035159501346076,0.00034205741091311,-0.00034844767150358,0.00034194158681578,-0.0005253445078689,0.00052350962610029,-0.00052438618875852,0.000528243339835,-0.00057348272226706,0.00057166862997735,-0.00057254700646026,0.00057379723534902,-0.00057342599663396,0.00057172751622525,-0.00057249018032841,0.00057385602805091,-0.0004950107643813,0.00048892500961484,-0.0004921855803938,0.00048787773835503,-0.00049506787859081,0.00048886680101773,-0.00049224292196526,0.00048781974984898,-0.00035142677119606,0.00034222844938406,4.0097269297667e-08,-1.3037948622293e-07,-8.2943107338817e-07,7.4187550001348e-07,-0.00069637556258889,0.00069628778854505,-0.00066168680856908,0.0006631956006502,-0.00066427169708837,0.00066382527987557,-0.00066370728662773,0.00066292635919998,-0.0007261630236034,0.00072560921020713,-0.00072588835825121,0.00072638244744775,-0.00072614675115099,0.00072547903899837,-0.0007263624973419,0.00072674266084616,-0.00066337073540652,0.00066168763411373,-0.00066452455165012,0.00066591880700937,-0.0006638502089498,0.00066445127801026,-0.00066153785837715,0.00066180445519749,-0.00066254524627961,0.00066097658792754,9.6823941045434e-07,3.6854126771181e-06,-0.00056868392673479,0.00056869381806145,8.4939185744771e-07,-7.2362614987055e-07,-0.00056885322814423,0.0005690492393491,-0.00058962094956725,0.0005792122687934,-0.00059061842855171,0.00058849025699741,-0.00057172903404929,0.00059241019647404,-0.00056731576500329,0.00057059049594281,-0.00058808056065346,0.00058075182150343,-0.00058907939670289,0.00059003117477425,-0.00060733620973979,0.00060794461295579,-0.00060786037494393,0.00060741994247441,-0.00060720549178045,0.00060619812368536,-0.0006077302110979,0.0006056740075039,-0.00057065612510206,0.00057748428526946,-0.00056850404296458,0.00056989752547094,-0.0005679807348437,0.00057042252055436,-0.00057013149984846,0.00057800794722549,-0.00057326947355923,0.00059087196483924,0.75731812613498,122718,2924,0.0021117066419336,0.0028970481108773,0.0023667309321371,17.474277774734,5.4994222197871e-05,5.4994222197871e-05,5.4994222197871e-05,3685295.9140483,0.0074028365234155
19891759,0.44217646069961,0.0079654991215996,0.0023821867912866,0.0029980833025234,0.0025852290277896,-0.00054271426965394,0.00054103547515857,-3.753226982271e-06,-1.4347030340906e-06,-5.2022472957454e-07,-2.9782684352736e-07,-0.00036189782247943,0.00035462656926586,-0.00056309208693841,0.00056134547214719,-0.00056196175131805,0.0005668810520286,-0.00036581888559987,0.00035472599356868,-0.00036211304898195,0.00035440900756012,-0.00056330663018191,0.0005611254224025,-0.00056217656705687,0.00056666124949647,-0.00061603548794897,0.00061388125388442,-0.00061493911515701,0.00061635559640145,-0.00061596319976981,0.00061395630979765,-0.00061486670041773,0.00061643053381762,-0.00052761519108333,0.00052049291917036,-0.0005243114313544,0.00051926521244602,-0.00052768804493979,0.00052041870377216,-0.00052438456703448,0.0005191912716836,-0.00036560417328227,0.00035494410298028,5.3447111118105e-08,-1.6411795585768e-07,-9.5883399024562e-07,8.5157193896407e-07,-0.00075689025263987,0.00075678271562166,-0.00071778767324129,0.00071952676056488,-0.0007205447450724,0.00072004464529767,-0.00071988645519208,0.0007189592912153,-0.00079038580294863,0.00078974839977533,-0.00079006724921575,0.00079063730328369,-0.00079037634282918,0.00078959356347079,-0.00079064214492274,0.00079106678962565,-0.00071973936176997,0.00071778672117851,-0.00072119592083376,0.00072278888944647,-0.00072006220531388,0.0007207689889046,-0.00071736789042104,0.00071764766355033,-0.00071877830843025,0.00071697166844895,1.1410145108965e-06,4.2269749192221e-06,-0.00061006870754723,0.00061008194678549,9.6991530275057e-07,-8.42659170525e-07,-0.00061089129998354,0.00061117254007325,-0.00063466205626338,0.0006225964062821,-0.00063581564726789,0.0006333713470842,-0.00061430878566424,0.00063831830721639,-0.00060911995430506,0.00061294853920772,-0.00063288715787162,0.00062437027843981,-0.00063404240794111,0.00063514687791105,-0.00065340494018646,0.00065411566539753,-0.00065400889878209,0.000653511050289,-0.00065327706112211,0.00065211365196093,-0.00065388171594366,0.00065150973109859,-0.00061325291526285,0.00062112801185881,-0.00061068455370126,0.00061233513484717,-0.00061008164744421,0.00061294014915158,-0.00061264835634538,0.00062173135269031,-0.0006160838093789,0.00063654604715568,0.72797889241192,122718,2924,0.0022554921185008,0.0031483556351229,0.0025387561447276,18.684644990657,6.4677159925256e-05,6.4677159925256e-05,6.4677159925256e-05,3793422.9691275,0.0079743321457403
20391759,0.47419396257975,0.0085387131217563,0.0025364193492986,0.0032381450552382,0.0027641487172195,-0.00057631325577286,0.00057439779948753,-4.2502499446534e-06,-1.6165760784343e-06,-5.8890358515913e-07,-3.3560771287944e-07,-0.00037908976254354,0.00037103228342851,-0.00060175535741237,0.00059973907712516,-0.00060046127462853,0.00060598289880416,-0.00038357182473999,0.00037111033227124,-0.00037933458080111,0.00037078462787483,-0.00060199962629329,0.0005994885380453,-0.00060070577514671,0.00060573256196371,-0.00065599873530533,0.00065352232069031,-0.00065475049107968,0.00065633123548396,-0.00065591634345788,0.00065360782245608,-0.00065466798838954,0.00065641663545711,-0.00055963368381904,0.00055153008798796,-0.00055587434024448,0.00055011620991965,-0.0005597166564244,0.00055144562025739,-0.00055595756197919,0.00055003198351365,-0.00038332744179964,0.00037135846945638,5.9295518228488e-08,-1.8824041142032e-07,-1.102606225881e-06,9.7757793435976e-07,-0.00081565774078455,0.00081553240166493,-0.00077284290061621,0.00077483861911558,-0.0007743587756197,0.00077377992853652,-0.00077358980882401,0.00077252515693433,-0.00085333778220679,0.00085260296977118,-0.00085296469478754,0.00085361708628003,-0.00085332884055402,0.00085242851266797,-0.00085364811277359,0.00085413494860683,-0.00077509663717284,0.00077285197901634,-0.00077687337401978,0.0007787028069906,-0.00077380182328515,0.0007746096211823,-0.00077079834970721,0.00077112041519933,-0.0007740109083414,0.0007719323875232,1.2983666736039e-06,4.7574076345908e-06,-0.00065001710774668,0.00065000931066028,1.094372088853e-06,-9.8828816372787e-07,-0.00065290820167956,0.00065321480674522,-0.00067993145535662,0.00066620471210362,-0.0006812723072421,0.00067847356930901,-0.00065663993594081,0.00068369405390966,-0.00065087278765665,0.00065525571472226,-0.00067789199754154,0.00066824289497328,-0.00067923479330897,0.00068051368719622,-0.00069726780485828,0.00069807693067945,-0.00069796171608356,0.00069738226574402,-0.00069711904288347,0.00069580842327349,-0.00069781377292108,0.00069511457235158,-0.00065465965429583,0.0006636065577826,-0.00065176884608376,0.0006536374396408,-0.00065107612363295,0.00065433263757653,-0.00065396497801989,0.00066429977629177,-0.00065867971861397,0.0006816575896268,0.75819560001714,122718,2924,0.0023947176730929,0.0033923488837472,0.002704733973329,18.6069523842,6.4055619073597e-05,6.4055619073597e-05,6.4055619073597e-05,3952707.0613341,0.0085280683934606
20891759,0.50326433670759,0.0090398045416098,0.0026695395100079,0.0034511127643452,0.0029191522672567,-0.00060190413035512,0.00059969258783151,-4.8469669385592e-06,-1.8789533249251e-06,-6.8243386180494e-07,-3.6318458791463e-07,-0.00038269133977065,0.00037336516495203,-0.0006304322062913,0.00062815584079124,-0.00062894506338679,0.00063525518541289,-0.0003878599664938,0.00037368887205202,-0.00038300007028092,0.00037305303940156,-0.00063074021040045,0.00062784012656127,-0.00062925335058717,0.000634939719056,-0.00068955331439511,0.00068668316505539,-0.00068813039998374,0.00068985886160091,-0.00068944953428227,0.0006867908628231,-0.00068802648182201,0.00068996642993192,-0.00058297706863481,0.00057372806985225,-0.00057869936948155,0.00057210757107775,-0.00058308165825948,0.00057362164145345,-0.00057880427086079,0.00057200144596778,-0.00038755176427603,0.00037400158554049,7.788707064775e-08,-2.3427931573018e-07,-1.2352065086727e-06,1.0836602740194e-06,-0.00086748979863798,0.00086733785699242,-0.00082074557777774,0.0008229702794054,-0.00082252146923498,0.00082189932374031,-0.0008216456779349,0.00082041067771635,-0.00090826889613314,0.00090744971002933,-0.00090785267181213,0.00090857998122597,-0.00090826599433988,0.00090723810570688,-0.00090863306506546,0.00090915162382419,-0.00082327272991071,0.00082074627476701,-0.00082538766523327,0.00082740274006668,-0.00082190771584989,0.00082283131701539,-0.00081845485269078,0.00081876569270469,-0.00082203939935283,0.00081972239009778,1.492203250907e-06,5.3237702474421e-06,-0.0006817578670976,0.00068176841572708,1.2233345847967e-06,-1.0985866629131e-06,-0.0006855346688567,0.00068597160247209,-0.00071470864587294,0.00069925219602244,-0.00071618917831506,0.00071308097268589,-0.00068994577641773,0.00072058212146973,-0.00068326583860012,0.00068824709132709,-0.00071243494964065,0.0007015243400865,-0.00071391785111762,0.00071535546432003,-0.00073367495963699,0.00073459656677504,-0.00073444853882737,0.00073382202512575,-0.00073355085675034,0.00073206738289539,-0.00073432545299334,0.0007312938500291,-0.00068845629556125,0.00069853021403207,-0.00068504559546043,0.00068720950209453,-0.00068427345638319,0.00068798469012121,-0.00068768173396274,0.00069930294846271,-0.00069221994815849,0.00071831206654421,0.73179653105729,122718,2924,0.0025005305518238,0.0036074631940498,0.0028366672502714,17.403167282908,5.4425338263268e-05,5.4425338263268e-05,5.4425338263268e-05,4020298.4484987,0.008984912625
21391759,0.52801059609444,0.0094628660785559,0.002781522760959,0.0036326144841427,0.0030487288334542,-0.00062183478400369,0.0006194170077863,-5.2717674792782e-06,-2.0265036765524e-06,-7.3638008757249e-07,-3.969476497967e-07,-0.00038964089836656,0.00037966306434683,-0.00065384450750335,0.00065133900013765,-0.0006522131771339,0.00065900648930184,-0.00039529183969179,0.00037999217533268,-0.00038996870853165,0.00037933167745973,-0.00065417173689225,0.00065100338719809,-0.00065254076135338,0.00065867118993518,-0.00071494588241662,0.00071178190877472,-0.00071339428262562,0.00071524060033655,-0.00071483547749831,0.00071189650860894,-0.00071328370319494,0.00071535503629882,-0.00060076335270745,0.00059066749770324,-0.00059609975667114,0.00058891109161543,-0.00060087445804763,0.00059055435765386,-0.00059621124808941,0.00058879832839148,-0.0003949646833159,0.00038032428818177,7.9404448405357e-08,-2.5197213021693e-07,-1.3432270222996e-06,1.175872352251e-06,-0.00090818368108602,0.00090801591078031,-0.00085784125588713,0.00086025278208067,-0.00085837734289426,0.00085769100962319,-0.00085738366469895,0.00085604698389505,-0.00095299572570889,0.00095210056583055,-0.00095254085195208,0.00095332586518306,-0.00095298607593541,0.00095186917297522,-0.00095340577908991,0.00095396899262403,-0.00086058115917572,0.00085783638225311,-0.00086291380313045,0.00086510271460084,-0.00085771140283269,0.00085870430418708,-0.00085398467265926,0.00085432733700282,-0.00085926022574231,0.00085673785287968,1.6298156154603e-06,5.7724537468468e-06,-0.00070625972616114,0.00070625984985671,1.3226729749345e-06,-1.2000725094273e-06,-0.00071018721384329,0.00071068359448665,-0.00074252638530593,0.00072577616662918,-0.00074415090645217,0.00074077640845759,-0.00071487280660203,0.00074789684748844,-0.00070772250408642,0.00071315578917985,-0.00074005607019862,0.00072824460808923,-0.00074168325875325,0.00074324748840766,-0.00076186247293934,0.00076286354323702,-0.00076270297578338,0.00076202200136191,-0.00076172370543747,0.00076010041816549,-0.00076256534853929,0.00075926000507099,-0.00071372433271828,0.00072473167601226,-0.00071002779008154,0.00071239250149998,-0.00070918894809591,0.00071323473775183,-0.00071288276603013,0.00072557115209562,-0.00071734357260978,0.00074543081711059,0.72687224327938,122718,2924,0.0025829786171149,0.0037763292041848,0.0029384480421946,15.325474131865,3.7803793054918e-05,3.7803793054918e-05,3.7803793054918e-05,4152074.4151149,0.0093412550910153
21891759,0.55014845497743,0.0098356917798987,0.0028797029482371,0.0037936723747505,0.0031623164569111,-0.0006397317210015,0.00063709761858734,-5.709384274308e-06,-2.2006953711987e-06,-8.0205072187019e-07,-4.1987579264273e-07,-0.00039343606011914,0.00038265556858251,-0.00067451138302097,0.0006718010615539,-0.00067273370268762,0.00068007201767416,-0.00039959845773208,0.00038309221659927,-0.00039380509516805,0.00038228232809387,-0.00067487993679136,0.00067142323666317,-0.00067310252499772,0.00067969441457089,-0.00073844595825735,0.00073497737155856,-0.00073676467102662,0.00073871608853351,-0.00073832164951448,0.00073510635437993,-0.00073664022531799,0.00073884494619105,-0.0006166245039507,0.00060567295982557,-0.00061157491588055,0.00060377478857926,-0.00061674965932347,0.00060554565050493,-0.00061170038007349,0.00060364777878725,-0.00039922991942323,0.00038346603714067,8.9508632220889e-08,-2.835945399985e-07,-1.4641072875654e-06,1.275878374785e-06,-0.00094592560151912,0.00094573690668371,-0.00089213533753325,0.0008947564485225,-0.00089218455341443,0.00089144420571449,-0.00089109271325011,0.00088962005927422,-0.00099410870131547,0.00099313325381961,-0.0009936078878966,0.00099445962982727,-0.00099409930037912,0.00099287426847208,-0.00099455311755624,0.00099515521215767,-0.00089511519407008,0.00089211925457706,-0.00089761550906438,0.00089998601448713,-0.00089146160992421,0.00089254761675112,-0.00088743475280144,0.00088778858326319,-0.00089369645716331,0.00089095087908893,1.767984218845e-06,6.2025771000561e-06,-0.00072830877025847,0.00072830417817819,1.4329338901535e-06,-1.3109339823598e-06,-0.00073249120930141,0.00073302871402545,-0.00076734031332502,0.00074929137981342,-0.00076908787761476,0.00076542670491251,-0.00073752426884635,0.00077305021673895,-0.00072981024857786,0.00073571803856317,-0.00076465333084872,0.00075197624956887,-0.00076640386932814,0.00076811451186011,-0.0007875168852037,0.0007886033293196,-0.00078843099264238,0.00078768806333372,-0.00078737937288869,0.00078562504067414,-0.00078829475690855,0.00078471103637312,-0.00073678645271909,0.0007486651643102,-0.00073275347114124,0.00073531199177965,-0.00073184113815772,0.00073622812610764,-0.0007358710634627,0.00074957820063382,-0.00074021200950698,0.00077036779513509,0.71778069553963,122718,2924,0.0026569506533115,0.0039329032366545,0.0030300428044864,13.951223099556,2.680978479645e-05,2.680978479645e-05,2.680978479645e-05,4230755.7287956,0.0096664721423925
22391759,0.57328068732663,0.010229677862377,0.0029831432622109,0.0039645587728694,0.0032819758272971,-0.00066322117379097,0.00066035011353637,-6.1748055448273e-06,-2.3919698669971e-06,-8.6803120718723e-07,-4.5022792771142e-07,-0.00040267974950905,0.00039104978175728,-0.00070133099128114,0.00069838339657466,-0.00069939790548512,0.00070728682442279,-0.00040937534055395,0.0003916040282039,-0.00040308290476573,0.00039064197786152,-0.00070173384754819,0.00069797045309564,-0.00069980100095265,0.00070687406552971,-0.00076756340865211,0.0007637673584666,-0.00076574608520044,0.00076780139648485,-0.00076742745560669,0.00076390838418767,-0.00076561000579554,0.00076794230802307,-0.00063810953118628,0.00062624009572289,-0.00063265516881408,0.0006241724583972,-0.00063824633739221,0.0006261009816641,-0.00063279226893085,0.00062403362786337,-0.00040897263430737,0.00039201237683738,9.6610401477477e-08,-3.1098545342982e-07,-1.5855967362229e-06,1.3776290311282e-06,-0.00099025695001667,0.00099004847881979,-0.00093305141705502,0.00093588312123613,-0.00093237645807764,0.00093157531010533,-0.00093116827901448,0.00092956720000738,-0.0010419574082782,0.0010408995965375,-0.0010414114696138,0.0010423296303267,-0.0010419439067313,0.0010406133331015,-0.0010424386898109,0.0010430840167724,-0.00093627686099525,0.00093303100560988,-0.00093898486093432,0.00094154276600917,-0.00093159722531049,0.00093277116588453,-0.00092724499676066,0.0009276191588892,-0.00093475518234465,0.00093178284511745,1.913525019755e-06,6.6649866250917e-06,-0.00075595997673076,0.00075595235905345,1.5448935669154e-06,-1.4226460972825e-06,-0.00076085416901636,0.00076144498755237,-0.00079828228462378,0.00077885814243961,-0.00080016676950101,0.00079621361014957,-0.00076624788840123,0.00080443496815389,-0.00075795471298326,0.00076435374973633,-0.00079537620548825,0.00078176179796975,-0.00079726400005249,0.00079912052761093,-0.00081879010513114,0.00081996373884273,-0.00081977869357831,0.00081897387628769,-0.00081865116985719,0.00081676023140373,-0.00081964118355203,0.00081577177500776,-0.00076572060511822,0.00077855222984109,-0.00076133658490767,0.00076410193837866,-0.00076034994572632,0.00076509280707755,-0.00076473054577024,0.00077953963151815,-0.00076915493069768,0.00080153393242345,0.72672675861106,122718,2924,0.0027541167621875,0.0041167952335151,0.0031449036965169,14.80103372556,3.360826980448e-05,3.360826980448e-05,3.360826980448e-05,4295512.2679407,0.010066310808207
22891759,0.59679971269224,0.010607728756034,0.003082235830317,0.004130004474666,0.0033954884510511,-0.00068450093279919,0.00068137204621375,-6.6905683341253e-06,-2.6143896414186e-06,-9.4959359311339e-07,-4.7522829151545e-07,-0.00040737988907975,0.00039468606658774,-0.00072485511210792,0.00072168561293801,-0.0007227507216017,0.00073131438629923,-0.00041468059832559,0.00039546883445417,-0.00040783773687538,0.00039422307735713,-0.00072531263168665,0.00072121679890364,-0.00072320850155251,0.00073084576893691,-0.0007954813281643,0.00079132648964408,-0.00079351442413108,0.00079568640553969,-0.00079532700658811,0.00079148657219391,-0.00079335996070128,0.00079584636209656,-0.00065684084064304,0.00064397120795883,-0.00065094385146591,0.00064174498175618,-0.00065699618206644,0.00064381328882703,-0.00065109951938152,0.00064158737884505,-0.00041422323940457,0.00039593241976945,1.1082842190305e-07,-3.5198462598133e-07,-1.7084936741412e-06,1.4745637755786e-06,-0.0010334640237183,0.0010332295263011,-0.00097194439617279,0.00097498404770278,-0.00097134714459893,0.00097050033472104,-0.0009700268420855,0.00096827161981311,-0.0010889926377689,0.0010878541966555,-0.0010884038400525,0.0010893880242086,-0.0010889800400465,0.0010875319422609,-0.0010895149874397,0.0010901894328224,-0.00097540457867021,0.00097189906056302,-0.00097828526276706,0.00098101408046162,-0.00097051572054673,0.00097179049530366,-0.00096578509289168,0.00096615163156276,-0.00097377490389505,0.0009705798989244,2.0771635322723e-06,7.1575460475392e-06,-0.00078115493500652,0.00078115786993414,1.6618950469836e-06,-1.5260781401161e-06,-0.00078544282229078,0.00078612460375946,-0.0008259287780101,0.00080508620977887,-0.00082793529022176,0.00082369264518185,-0.00079133737064362,0.0008323973800372,-0.00078232830318435,0.00078924953264103,-0.00082280686261445,0.00080820539467471,-0.00082481707975516,0.000826815476806,-0.0008483869616613,0.00084965564574174,-0.00084944895281948,0.00084859221768822,-0.00084825786694519,0.00084621491855365,-0.00084932146443178,0.00084515307324579,-0.00079179681847591,0.00080561648506251,-0.00078699361166092,0.00079000127610062,-0.0007859338115361,0.00079106583628376,-0.00079073316025008,0.00080667713200444,-0.00079446040758241,0.00082928112710758,0.68736650440794,122718,2924,0.0028420572673344,0.0042959692387738,0.0032495799025305,15.341191349325,3.7929530794598e-05,3.7929530794598e-05,3.7929530794598e-05,4340604.8641238,0.010441937098194
23391759,0.62018388489441,0.010993466972651,0.0031834886807802,0.004298818694364,0.0035111595975066,-0.00070647104779851,0.00070314225285276,-7.0941329045197e-06,-2.7473583843986e-06,-9.9960952759371e-07,-5.0740853704847e-07,-0.00041932715445035,0.00040612316273139,-0.00075070615675548,0.00074730171628633,-0.00074845866437331,0.00075744569153838,-0.00042710114357551,0.00040686206525745,-0.00041980172615737,0.00040564304648439,-0.00075118073281341,0.00074681532623865,-0.00074893344927924,0.00075695943747104,-0.00082227338571987,0.0008178142526356,-0.00082018440039119,0.00082245332502417,-0.00082211315360523,0.00081798043112827,-0.00082002404622566,0.00082261940015932,-0.00067641623779215,0.00066272432958609,-0.00067015329456894,0.00066036196945569,-0.00067657737756383,0.00066256053598085,-0.0006703147213719,0.00066019845156633,-0.00042662697369864,0.00040734270278915,1.1000491491565e-07,-3.6963782024428e-07,-1.8316625691836e-06,1.5796095629025e-06,-0.0010751702059701,0.0010749175823496,-0.0010096093199068,0.0010128601607861,-0.0010073771486239,0.0010064521929359,-0.0010059261293306,0.0010040599741097,-0.0011356897180614,0.0011344630089262,-0.0011350516466577,0.0011360996107661,-0.0011356674874187,0.0011341197641653,-0.0011362523314489,0.0011369791894215,-0.0010133069634509,0.0010095541430685,-0.0010162977403059,0.0010192263808591,-0.0010064848635449,0.001007833525111,-0.0010015207348489,0.0010019283966353,-0.0010116047675569,0.001008173787088,2.203200179029e-06,7.6002525557828e-06,-0.00080666776488966,0.0008066497506639,1.7708248095277e-06,-1.6458059906493e-06,-0.00081126764869931,0.00081195905103057,-0.00085531125521941,0.00083322933263694,-0.00085747502007393,0.00085293163255872,-0.00081726963241643,0.00086047330215178,-0.0008079296828428,0.00081530825567382,-0.00085196534127271,0.00083657218794125,-0.00085413307732811,0.00085627839080597,-0.00087742757555105,0.00087877334708072,-0.00087856573437464,0.00087763371343472,-0.00087726387310595,0.00087509111467407,-0.00087840374555374,0.00087395316725341,-0.00081762864209901,0.00083238849537394,-0.00081260516582645,0.00081578122186546,-0.00081146935934225,0.00081692212138969,-0.00081648869592168,0.00083352519403969,-0.00082061680788341,0.00085713348247357,0.70578152076657,122718,2924,0.002932963102838,0.0044689095704827,0.0033554983575292,15.63410071393,4.0272805711437e-05,4.0272805711437e-05,4.0272805711437e-05,4450411.0877534,0.010815644983625
23891759,0.64492634834078,0.011424583266721,0.0032961294748694,0.0044872878025329,0.0036411659893185,-0.00073190999593645,0.00072823139455497,-7.7650835066904e-06,-3.0741126179007e-06,-1.1106467938051e-06,-5.3028772782971e-07,-0.00042395527836021,0.00040926783029503,-0.00078013196141421,0.00077642934723165,-0.00077766471014959,0.00078751086151059,-0.0004325200073033,0.0004103619574402,-0.00042451532242529,0.00040870163270606,-0.00078069176179031,0.00077585588975265,-0.00077822479434311,0.00078693760030266,-0.00085497873763811,0.00085005678187474,-0.00085269993511094,0.00085509207860074,-0.00085478990679439,0.00085025262193028,-0.00085251094175791,0.00085528777809478,-0.0007001866901954,0.0006852024367386,-0.00069336590861207,0.00068256062971767,-0.00070037672265115,0.00068500931139628,-0.00069355631612913,0.00068236786799995,-0.00043196050000913,0.00041092882638949,1.3472734470885e-07,-4.3121660929206e-07,-1.9766610929018e-06,1.6889756908319e-06,-0.0011263674877524,0.0011260791256451,-0.001057556655067,0.0010610500319446,-0.0010556692058409,0.0010547076966565,-0.0010541011751135,0.0010520287976455,-0.0011894518209771,0.0011881336749606,-0.0011887666531864,0.0011898929876633,-0.0011894350480905,0.0011877382358299,-0.0011900582527894,0.0011908058161114,-0.001061570540613,0.0010575042099063,-0.0010649220281979,0.0010680353711891,-0.0010547215492403,0.0010562031772268,-0.0010492421187571,0.0010496131106134,-0.0010596931665087,0.0010560064536404,2.4174955929992e-06,8.2016576872243e-06,-0.00083654896317921,0.00083656748902023,1.9111561375696e-06,-1.7607453104876e-06,-0.00084347799917221,0.00084432780316155,-0.00088934937269814,0.00086543316526148,-0.00089166199902626,0.00088679566537729,-0.00085026040580966,0.00089738513454286,-0.0008398911831708,0.00084792733810867,-0.0008857535743572,0.00086902555607374,-0.00088807070666858,0.00089039247335894,-0.00091148582452249,0.00091295786011201,-0.00091270896178973,0.0009117329828623,-0.00091136078005838,0.00090901989927977,-0.00091258589003746,0.00090779696043806,-0.00085059519916222,0.00086658987104188,-0.00084495955997677,0.00084846159855564,-0.00084373911923388,0.00084968788832476,-0.00084936999908893,0.00086781132900833,-0.0008538576812808,0.00089379626171585,0.74569511155112,122718,2924,0.0030379979704852,0.0046811236082768,0.0034796729746075,16.931083999281,5.0648671994252e-05,5.0648671994252e-05,5.0648671994252e-05,4437960.0252012,0.011261957914696
24391759,0.67023253908307,0.011855795211449,0.0034085756550256,0.004677601117944,0.0037696184384796,-0.00075581054203994,0.00075173248368581,-8.53171547587e-06,-3.4565706856835e-06,-1.2381527124531e-06,-5.5561502296877e-07,-0.00042373935795124,0.00040723843083665,-0.00080701133186221,0.00080301224589202,-0.00080429489311356,0.00081517895766487,-0.00043320574620373,0.0004088427679318,-0.00042439836863369,0.00040657272793764,-0.00080766991392029,0.0008023380174729,-0.00080495384726519,0.00081450500214134,-0.00088727174359004,0.00088183105738517,-0.00088477802491069,0.00088731367321194,-0.00088704973470527,0.00088206127261567,-0.00088455580432449,0.00088754370447408,-0.00072210311308441,0.0007056554273657,-0.00071465129981132,0.00070271644045661,-0.00072232664674227,0.00070542833904762,-0.00071487531027686,0.00070248981858314,-0.0004325474218883,0.00040950931141258,1.6454775884559e-07,-5.0129045077448e-07,-2.1295845958209e-06,1.8029979933561e-06,-0.0011780456409466,0.0011777182491012,-0.001105434951544,0.0011091844689346,-0.0011046864085181,0.0011036941330834,-0.0011029841721966,0.0011006846827451,-0.0012434901452846,0.0012420776973515,-0.0012427561126792,0.0012439663530696,-0.0012434768750391,0.0012416188988136,-0.0012441315929209,0.0012448961850977,-0.0011097606567037,0.0011053606938766,-0.0011135149306442,0.0011168174495101,-0.0011036834295512,0.0011053121787694,-0.001097577251684,0.0010978990571958,-0.0011077026576345,0.001103749212241,2.6641137513231e-06,8.8660426954112e-06,-0.0008644992660637,0.00086457307453408,2.0669245428181e-06,-1.8729937392168e-06,-0.00087237486419509,0.00087343305691237,-0.00092047861825007,0.0008945469766676,-0.00092291769956647,0.00091770996168758,-0.00088017553248553,0.0009317181345694,-0.00086852688113522,0.00087729543169383,-0.00091662045544509,0.00089840127714151,-0.00091906469036286,0.00092156930502452,-0.00094448449148964,0.00094609844439064,-0.00094579684451712,0.0009447840445959,-0.00094442194448722,0.00094188097187458,-0.00094573657967331,0.00094056881159716,-0.00088176135415289,0.00089909421509851,-0.00087537389392398,0.00087925838579048,-0.00087406461128959,0.00088057434599774,-0.00088044659162197,0.000900404607139,-0.00088403546102438,0.00092786793825103,0.7290288909259,122718,2924,0.0031365467944855,0.0048952662986687,0.0035958583791281,17.854570393695,5.8036563149561e-05,5.8036563149561e-05,5.8036563149561e-05,4405982.0051857,0.011695783199175
24891759,0.69515300579734,0.012256613615828,0.0035135769564558,0.004855895755593,0.0038871409037795,-0.00077766149343567,0.00077329196454443,-9.1075586942936e-06,-3.675967673977e-06,-1.3164250598315e-06,-5.9486386162952e-07,-0.00043072899642248,0.00041331014078581,-0.00083218846107183,0.0008279187784507,-0.00082927230409076,0.00084083930175444,-0.00044087240706113,0.00041498956982955,-0.00043142479715938,0.00041260697211605,-0.00083288451669271,0.0008272062508086,-0.00082996857385346,0.00084012687682187,-0.00091565109213384,0.00090979585418403,-0.00091299005896322,0.00091564750080895,-0.00091541625895365,0.0009100393098576,-0.00091275508437267,0.00091589084854334,-0.00074104111794175,0.00072344645842644,-0.00073309161535353,0.00072031307366651,-0.00074127742026139,0.00072320655876119,-0.00073332825351629,0.00072007349913002,-0.00044017702771444,0.00041569333252246,1.6873204245048e-07,-5.3427082992e-07,-2.294082376131e-06,1.9393718844874e-06,-0.0012238554054182,0.0012234998542791,-0.001146430806581,0.0011504596408634,-0.0011449118853675,0.0011438269824349,-0.0011430370349906,0.0011405722632345,-0.0012941754729345,0.0012926476886889,-0.001293374007491,0.0012946690463612,-0.0012941487749925,0.0012921502842971,-0.0012948347463794,0.0012956589426566,-0.0011510538844747,0.0011463185704058,-0.0011549323805214,0.0011584891305845,-0.0011438334733262,0.001145569899253,-0.001137318040341,0.0011376749110378,-0.0011489008011975,0.0011446370253943,2.8440639117185e-06,9.4441463090623e-06,-0.00088931956901145,0.00088939403206416,2.22251880642e-06,-2.0187783093218e-06,-0.00089629814547408,0.00089739684063595,-0.0009487061684425,0.0009211398467167,-0.00095129916771764,0.00094570040102247,-0.00090448453732778,0.00095905934233162,-0.00089215545968826,0.00090155531911529,-0.00094455257131865,0.00092528902780901,-0.00094715123289768,0.00094985511604286,-0.00097401010982537,0.00097573792540116,-0.00097542277801812,0.00097432308994214,-0.00097394082048437,0.0009712271034461,-0.00097535598307061,0.00096981471225844,-0.00090753945381296,0.00092605333178278,-0.00090071469670625,0.00090484502210462,-0.00089930527242286,0.00090626169714322,-0.00090612402371943,0.00092746390025315,-0.00090864040340293,0.00095491430388208,0.68841299944789,122718,2924,0.0032267717333042,0.0050850691706409,0.0036989174560744,18.325730400196,6.1805843201571e-05,6.1805843201571e-05,6.1805843201571e-05,4462443.6350223,0.012083447712346
25391759,0.72116010224511,0.012704533811027,0.0036311428671899,0.0050539918560002,0.0040193990878374,-0.00080467002852117,0.00079999592805777,-9.6928339543044e-06,-3.8972443646975e-06,-1.3997044325098e-06,-6.1981971743588e-07,-0.00044480519957532,0.00042661197111409,-0.00086474055081231,0.0008601832721697,-0.00086161739336398,0.00087381973578853,-0.00045566531086667,0.00042825505964099,-0.00044555731642348,0.00042585194681034,-0.00086549284072358,0.00085941297975761,-0.00086236998204564,0.00087304962089863,-0.0009483265448281,0.00094202290401225,-0.00094549570365718,0.00094824670173253,-0.000948072759676,0.00094228606788116,-0.00094524172908617,0.000948509716271,-0.00076570855860891,0.00074693431062471,-0.00075725167648317,0.00074355235042334,-0.00076596389540686,0.00074667499469797,-0.00075750745198581,0.00074329346078685,-0.00045491376758968,0.00042901585186359,1.7799004459384e-07,-5.8156191850659e-07,-2.4450008124385e-06,2.0532260704662e-06,-0.0012757506585616,0.0012753579897361,-0.0011943846766902,0.0011986548890473,-0.001191047522682,0.0011898918734692,-0.0011890093043655,0.0011863628428461,-0.0013509462753712,0.0013493121781804,-0.0013500903100583,0.0013514558473443,-0.0013509094168736,0.0013487670039338,-0.001351653770481,0.001352510841118,-0.0011993020832829,0.0011942515550068,-0.0012034242084558,0.0012071844247659,-0.0011899058571429,0.0011917479883618,-0.0011830403902918,0.0011833920608548,-0.0011970325064517,0.0011924913602216,3.0303796430786e-06,1.0057686455151e-05,-0.00091958955530459,0.00091966891212654,2.3621036586712e-06,-2.1451385454341e-06,-0.00092864651139348,0.00092983654165485,-0.0009842998976109,0.00095506278017833,-0.00098708225378765,0.00098113578949565,-0.0009371504229787,0.00099479587756417,-0.00092424467407167,0.00093425557173594,-0.00097988598984558,0.00095947183355264,-0.00098267445849409,0.00098555080959743,-0.0010081198092349,0.001009954898856,-0.0010096210904406,0.001008451348053,-0.0010080288391829,0.0010051378703551,-0.0010095328007742,0.0010036369420345,-0.00093975812194401,0.00095961468890788,-0.0009325246612416,0.00093692544783202,-0.00093102700049409,0.00093843093390993,-0.00093825397883802,0.000961113581719,-0.00094156656723974,0.00099039144603288,0.73709758568922,122718,2924,0.0033383775115529,0.0053000406160054,0.0038245996032942,19.829896835382,7.3839174683055e-05,7.3839174683055e-05,7.3839174683055e-05,4532509.6066122,0.012541284787767
25891759,0.7469897525552,0.013149953117846,0.0037474417878296,0.0052521881725978,0.0041503231574189,-0.00082817934021343,0.00082299621759935,-1.0670572125237e-05,-4.4137305164787e-06,-1.569761472094e-06,-6.4131090800187e-07,-0.00043895962156179,0.00041822361848189,-0.00089109637752473,0.00088619122420631,-0.00088765329940758,0.00090124452173748,-0.00045099599187885,0.00042071996203652,-0.00043985595411933,0.00041731888683989,-0.00089199248127431,0.00088527449178424,-0.00088854984004864,0.00090032808369145,-0.00098163381819183,0.00097468974063834,-0.00097853038067548,0.00098147540174325,-0.00098133178405297,0.00097500282591864,-0.00097822808066195,0.00098178826647733,-0.0007873220017368,0.00076670001840046,-0.0007780710830912,0.00076293739192158,-0.00078762609653711,0.00076639132657995,-0.00077837577539392,0.00076262928871075,-0.00045010046457023,0.00042162571921678,2.2429463137233e-07,-6.8072735881546e-07,-2.6215579717653e-06,2.1787754563753e-06,-0.0013309037874474,0.0013304599305026,-0.0012457015836281,0.0012502655160169,-0.0012447767833183,0.0012436110912269,-0.0012425868773205,0.0012396442867672,-0.0014075639100994,0.001405826895891,-0.001406654252769,0.0014081186530685,-0.0014075385414036,0.0014051959188016,-0.0014083026958159,0.0014091613127318,-0.0012509924928923,0.0012455466300441,-0.0012556390461061,0.001259595557904,-0.0012435807958081,0.0012456141613411,-0.0012358667879392,0.001236123669968,-0.0012484790674117,0.0012436399180337,3.3510933892282e-06,1.0860431468689e-05,-0.00094631905475717,0.00094649352008058,2.552707344015e-06,-2.2581898071924e-06,-0.00095669797274773,0.00095820917259579,-0.0010143536061333,0.0009826600438388,-0.0010172584953763,0.0010109347124078,-0.00096667447081991,0.0010299602804912,-0.00095200040756875,0.00096292594021725,-0.0010096425265275,0.00098736573457619,-0.0010125543466807,0.0010156471526033,-0.0010407383659245,0.0010427579794992,-0.0010423407111101,0.0010411529478421,-0.0010407527952056,0.0010376169547232,-0.001042358229225,0.0010360149418947,-0.00097097607848549,0.00099245100412907,-0.00096271398918061,0.00096762334362697,-0.00096111574841346,0.00096923047024445,-0.00096937041816404,0.00099405057214685,-0.0009713881909374,0.0010252600053319,0.73853822489451,122718,2924,0.0034350825025287,0.0055283956924639,0.0039357774359031,20.751278118985,8.1210224951877e-05,8.1210224951877e-05,8.1210224951877e-05,4444324.0042301,0.012983123162355
26391759,0.77051661971772,0.013571662621416,0.0038584297538061,0.0054396063807841,0.0042736264868261,-0.00084872725101903,0.0008431371876983,-1.1452140979284e-05,-4.7600561508046e-06,-1.673255803406e-06,-6.8606407876966e-07,-0.00043999392430517,0.00041772774365474,-0.00091617656481184,0.00091091087796501,-0.00091246404527493,0.00092698775729151,-0.00045295372733867,0.00042053988696711,-0.00044094570482654,0.000416766956296,-0.00091712906977571,0.0009099367494795,-0.0009134167894039,0.00092601370243019,-0.0010092833369461,0.0010018163586091,-0.0010059565431161,0.001009067490661,-0.0010089619240726,0.001002149320527,-0.0010056349518451,0.0010094003253602,-0.00080622889386717,0.00078407233253366,-0.00079632054874502,0.00077996250267196,-0.0008065522102051,0.00078374439281292,-0.00079664429069526,0.00077963497895251,-0.00045200242819779,0.0004215014033454,2.3604515140248e-07,-7.2501036895072e-07,-2.8120986551447e-06,2.3376393893886e-06,-0.0013787100717913,0.0013782344756595,-0.0012903481130086,0.0012952417629139,-0.0012893176702066,0.001288058058473,-0.001286921326591,0.0012837751550894,-0.0014579218473777,0.0014560563763941,-0.0014569356611154,0.0014585039076661,-0.0014578816184145,0.0014553723477762,-0.0014586517233374,0.0014595759743853,-0.0012960193806811,0.0012901806828375,-0.00130102239232,0.0013052708164981,-0.0012880428348778,0.0012902147932374,-0.0012796973742242,0.0012799832542308,-0.0012933437265365,0.001288149450885,3.6058743557198e-06,1.1576290337419e-05,-0.00096917051045437,0.00096939162507813,2.7483239297234e-06,-2.4127676324271e-06,-0.0009809833223161,0.0009826385722722,-0.001041649044445,0.0010077993816958,-0.0010447025618151,0.0010379447264002,-0.00099179141752941,0.0010594469198234,-0.00097594321960445,0.0009876996337954,-0.0010365946151739,0.0010128477064555,-0.0010396557662164,0.0010430004649171,-0.0010681716651879,0.001070356145709,-0.0010698905161659,0.0010686343924855,-0.0010682299725376,0.0010648857707684,-0.0010699522238461,0.0010631673360474,-0.00099756997645938,0.0010205271983935,-0.00098856555753982,0.00099384420086326,-0.00098685099248962,0.00099556840821492,-0.00099584724903678,0.0010222430815484,-0.00099684932797813,0.0010544040426897,0.76614364853957,122718,2924,0.0035196699122228,0.0057263136807147,0.0040307410360415,20.418259777774,7.8546078222192e-05,7.8546078222192e-05,7.8546078222192e-05,4437421.4735934,0.013365580994838
26891759,0.7933984354123,0.013971448090757,0.0039639025381241,0.0056181974487678,0.0043893481038652,-0.00086955931283715,0.00086351658243758,-1.2338019665383e-05,-5.1854863303183e-06,-1.8294985314416e-06,-6.9562825677954e-07,-0.0004370851286771,0.00041278295071946,-0.00093998264783697,0.00093442232037336,-0.00093596797181661,0.00095174577821293,-0.00045116439349111,0.00041617832049002,-0.00043817972318218,0.00041167886553198,-0.00094107726889097,0.00093330338055626,-0.00093706298549542,0.00095062704598836,-0.001038375958199,0.0010303133495157,-0.0010347970879587,0.0010380779547409,-0.0010380070226171,0.0010306955487317,-0.0010344278868461,0.0010384599491293,-0.00082521082868601,0.00080137110505596,-0.00081456569888613,0.00079689922813598,-0.00082558229607863,0.00080099436504486,-0.00081493778004229,0.00079652309329968,-0.0004500705406603,0.0004172834232366,2.8025263887131e-07,-8.2454018617048e-07,-2.9763771831685e-06,2.4485165350298e-06,-0.0014278804513244,0.0014273512742465,-0.0013359632101471,0.0013411211805935,-0.0013362344208002,0.0013349696503272,-0.0013336944205336,0.0013302602651146,-0.0015088858991651,0.001506923281745,-0.0015078489953837,0.0015095039961825,-0.0015088595057729,0.0015061574119332,-0.0015096467704977,0.0015105620758564,-0.0013419674134624,0.0013357580267023,-0.0013474181538474,0.0013518347424947,-0.0013349115764746,0.0013372616685562,-0.001325831751881,0.0013260130095924,-0.0013390811806998,0.0013336122774476,3.9055900134857e-06,1.2351681934341e-05,-0.0009915091069466,0.0009918146721725,2.926498200019e-06,-2.5114730364591e-06,-0.0010033485329305,0.0010053112917623,-0.0010672950062431,0.0010312111728778,-0.0010704710426394,0.0010633690391335,-0.0010154184894693,0.0010880613971865,-0.00099803895678073,0.0010106436360125,-0.0010619697107972,0.0010365299173157,-0.0010651541048267,0.0010686958790082,-0.001095978307961,0.0010983349948016,-0.0010977893497832,0.0010965207238887,-0.0010961138568664,0.0010925172856276,-0.0010979286407128,0.001090706663067,-0.0010237274405099,0.0010482599139449,-0.0010138126432151,0.0010195687298724,-0.0010120063562399,0.0010213855472415,-0.0010219122091534,0.0010500676012975,-0.001020747468162,0.0010827488845632,0.74659954565569,122718,2924,0.0036053553960194,0.0059297822246214,0.0041236555022888,21.226456274303,8.5011650194423e-05,8.5011650194423e-05,8.5011650194423e-05,4376486.9715099,0.013752857950793
27391759,0.81566288664689,0.0143555882545,0.0040661278071019,0.0057897430645431,0.0044997173828554,-0.00089046366653198,0.00088405796928091,-1.3052283206571e-05,-5.464699530902e-06,-1.919533981101e-06,-7.388428611921e-07,-0.0004424562073075,0.00041697212329749,-0.00096488463318394,0.0009589996622645,-0.00096061237738156,0.00097724186145689,-0.00045740830278897,0.00042052363954461,-0.00044359468014597,0.0004158235938412,-0.00096602411923918,0.00095783495603271,-0.00096175207668507,0.00097607716262723,-0.0010657067394873,0.0010571441405369,-0.0010619209655433,0.0010653413026292,-0.0010653223398623,0.0010575422437299,-0.001061536380277,0.0010657392911967,-0.00084375854721723,0.00081850003268781,-0.00083250184725397,0.00081373771058816,-0.00084414529510924,0.00081810799082861,-0.00083288905360823,0.00081334611718037,-0.00045627029348942,0.00042167293395313,2.8529914372379e-07,-8.6363402638973e-07,-3.1601091489896e-06,2.5990061229197e-06,-0.0014740493127555,0.0014734868535978,-0.0013781728511728,0.0013836401421096,-0.0013780545690853,0.0013766876777963,-0.0013752905986801,0.0013716680560733,-0.0015586059584215,0.0015565143644416,-0.001557493240553,0.001559241510205,-0.001558564682102,0.0015557034770197,-0.0015593597569828,0.0015603381723399,-0.0013845131349697,0.0013779281992729,-0.0013901328383067,0.0013948289069821,-0.0013766570428334,0.0013791274008639,-0.0013670110775557,0.0013672264123423,-0.0013815057495767,0.0013756910366692,4.1418802507521e-06,1.3057466165231e-05,-0.0010133413087513,0.0010136826740588,3.1177807925196e-06,-2.6553410981162e-06,-0.001025362998173,0.0010274465906776,-0.001093299380374,0.0010552909879886,-0.0010966285388975,0.0010891066194642,-0.0010380513294382,0.0011144520181143,-0.0010197257344471,0.0010331083344642,-0.0010876455026661,0.0010609375900054,-0.0010909836746644,0.0010947619321756,-0.0011224224689273,0.0011249317124952,-0.0011243450415159,0.0011230057649985,-0.0011225692850975,0.0011187566619109,-0.0011244958763708,0.0011168346270697,-0.0010480666120282,0.0010740704703639,-0.001037528683103,0.0010436239156636,-0.00103561107654,0.0010455527424609,-0.0010461393838102,0.0010759894678302,-0.0010437095555631,0.0011088117090873,0.73661848585562,122718,2924,0.0036914909007299,0.0061208345615095,0.0042143536889865,22.213100276204,9.2904802209629e-05,9.2904802209629e-05,9.2904802209629e-05,4372727.0668359,0.014125889644895
27891759,0.83668492008844,0.014727852024588,0.0041654881689237,0.0059556725787763,0.0046066912768884,-0.00090972797122752,0.00090293138725964,-1.382928903198e-05,-5.7966692200393e-06,-2.0355846844754e-06,-7.6073222327871e-07,-0.00044425267777655,0.00041728174687765,-0.00098797951916938,0.00098179193024122,-0.00098342879134598,0.0010010796530002,-0.00046019261317557,0.00042115798732987,-0.00044548199969286,0.00041604180015158,-0.0009892100646713,0.00098053448336853,-0.00098465948191132,0.00099982212760925,-0.0010916432266977,0.0010825405486193,-0.0010876328348517,0.0010911961429343,-0.0010912281549318,0.0010829703375651,-0.0010872175990843,0.0010916258498721,-0.00086107211757237,0.00083429979941032,-0.00084915509216728,0.0008292227203747,-0.00086148976136974,0.00083387659460569,-0.00084957316318034,0.00082879993138516,-0.00045896367164525,0.00042239864592519,3.0844095692108e-07,-9.3188072213396e-07,-3.3355660821062e-06,2.7306996096094e-06,-0.0015188786199515,0.0015182722978558,-0.0014194919911107,0.0014252472619368,-0.0014197299296325,0.0014183056640441,-0.0014167749678231,0.0014129155197236,-0.0016060459597621,0.001603839255219,-0.0016048674797362,0.0016067052123263,-0.0016060045403655,0.0016029670730611,-0.0016068074933712,0.0016078141944213,-0.0014261676503962,0.0014192075589037,-0.0014320373407472,0.0014369601162952,-0.0014182706447495,0.0014208880397216,-0.0014079974653605,0.0014081803894827,-0.0014230031394063,0.0014168744402672,4.4059198034346e-06,1.3786812229985e-05,-0.0010332130721862,0.0010336142893,3.305508733146e-06,-2.7760426309185e-06,-0.0010461611459049,0.0010484496703329,-0.0011173368904823,0.0010773186947628,-0.0011208038647204,0.0011129023527653,-0.0010596976158573,0.0011402792087507,-0.0010402227276418,0.0010544142644585,-0.0011113808667527,0.0010832668793566,-0.0011148575056339,0.0011188598558541,-0.0011468807474204,0.0011495538121637,-0.0011489059706941,0.0011475250067725,-0.0011470629886628,0.001143021336484,-0.0011490925214501,0.0011409967227005,-0.0010711080083514,0.0010986401586345,-0.0010598406541534,0.0010663352026245,-0.0010578206920366,0.0010683671319025,-0.0010690777327539,0.0011006615447189,-0.001065658500116,0.0011343376051282,0.75594140970166,122718,2924,0.0037707627512347,0.0063062748689512,0.0042969679112207,22.881252804789,9.8250022438309e-05,9.8250022438309e-05,9.8250022438309e-05,4343793.1017518,0.014478202697109
28391759,0.85619777220855,0.015086091791509,0.0042614373811118,0.0061150187206372,0.0047096356897602,-0.00092735716887409,0.00092008490378742,-1.4762490294119e-05,-6.2533291978423e-06,-2.1555456389052e-06,-8.2005640425464e-07,-0.00043913273785044,0.00040984828754557,-0.0010086520294621,0.0010020538051274,-0.0010037777283681,0.0010226976379706,-0.00045617681590818,0.00041451400364796,-0.00044041959016096,0.00040855239136007,-0.001009940227372,0.0010007371440894,-0.0010050669308034,0.0010213817272543,-0.001116913922066,0.0011072151764084,-0.0011126378884932,0.0011163952384165,-0.0011164789168042,0.0011076657664166,-0.0011122022812887,0.001116845321268,-0.00087746510665417,0.00084889362387964,-0.00086477426593156,0.00084343058501388,-0.00087790205536218,0.00084845015554181,-0.00086521253425767,0.00084298842561534,-0.00045489166832926,0.00041581197231076,3.2530398172095e-07,-9.7242690538916e-07,-3.3963353818153e-06,2.7684413384916e-06,-0.0015632497590404,0.0015626203610442,-0.0014611792480891,0.0014670269809124,-0.0014631348718048,0.0014617100323347,-0.0014599371620216,0.0014559649203059,-0.0016511642912088,0.0016489204735242,-0.0016499905959563,0.0016518595307902,-0.0016511126755618,0.001647998331883,-0.0016519709882351,0.0016529691079232,-0.0014679936589541,0.0014608952069651,-0.0014744857337659,0.0014794621883207,-0.0014616909895171,0.0014643739553567,-0.001450502355076,0.0014506386999286,-0.0014646371040856,0.0014584087479969,4.7425466053938e-06,1.4590297814121e-05,-0.0010507282984928,0.0010512597560294,3.4206454421859e-06,-2.7630082272394e-06,-0.0010641635672109,0.0010670120883198,-0.0011383148416042,0.0010962137635779,-0.0011418876508951,0.0011338583959723,-0.0010792631868574,0.0011649362258822,-0.0010581292892142,0.0010730741107724,-0.0011322600010051,0.0011022599718167,-0.0011358432223081,0.0011399146183241,-0.0011695939499497,0.0011724256549898,-0.0011716534842244,0.0011703622719562,-0.0011698675242742,0.0011655324934799,-0.0011719317339025,0.0011634736558194,-0.0010929257109149,0.001122161415093,-0.0010806745569651,0.0010877731840708,-0.001078621303084,0.0010898391746516,-0.0010908612993971,0.0011242159945841,-0.001085321630893,0.0011588989558276,0.78325232082283,122718,2924,0.0038430948338633,0.0064898070580027,0.0043699571302536,23.414586264796,0.00010251669011837,0.00010251669011837,0.00010251669011837,4260346.4776849,0.014811899481427
28891759,0.87415074446404,0.015411045325467,0.0043493109281109,0.0062593592290198,0.0048023751683362,-0.00094292397122035,0.00093520768279271,-1.5681010164784e-05,-6.68838277069e-06,-2.3446835648389e-06,-7.9063022122556e-07,-0.00043214919432614,0.00040071415869617,-0.0010264388332868,0.0010196136632829,-0.0010212397909617,0.0010416558108177,-0.00045046279189476,0.00040602370519669,-0.00043364986933666,0.00039920259547598,-0.0010279398991001,0.0010180812262704,-0.0010227412772383,0.001040123527216,-0.0011400734649073,0.0011297621438778,-0.0011355298155005,0.001139467048201,-0.0011395677292691,0.0011302856444956,-0.0011350237652298,0.0011399903379391,-0.00089177156126652,0.00086149359493361,-0.00087830567707066,0.00085565875475238,-0.00089228088673722,0.00086097768749516,-0.0008788157385699,0.0008551435799573,-0.00044896291254033,0.00040753644412128,3.963879790286e-07,-1.1168120639504e-06,-3.652229736053e-06,2.9538214591877e-06,-0.0016042595123166,0.0016035593310932,-0.0014992458532894,0.0015055278530956,-0.0015033538188916,0.0015019221069761,-0.0015000767880087,0.0014956730279363,-0.001692759503316,0.0016903708007447,-0.0016914800731782,0.0016934962328136,-0.0016927532089167,0.0016893514899,-0.0016935465745588,0.0016945493899519,-0.001506576690644,0.0014989035475315,-0.001513320623619,0.0015185875468176,-0.0015018141372498,0.0015047834129318,-0.0014898340663717,0.0014898321905098,-0.0015029793245896,0.0014963199274705,5.0573450117186e-06,1.5360724133315e-05,-0.0010652577903327,0.0010658695482762,3.6784312379692e-06,-2.9466187757503e-06,-0.0010778986290133,0.0010809231559247,-0.0011559029315557,0.0011113510812682,-0.0011595706566028,0.0011510296160324,-0.0010942762231796,0.0011853194034525,-0.00107143080682,0.0010874202886525,-0.0011494151240567,0.001117830131538,-0.0011530938923949,0.0011575192611981,-0.0011895578918088,0.0011926165698004,-0.0011917640536142,0.0011904061969689,-0.0011899266521899,0.0011853593134195,-0.0011921378048993,0.0011831537833626,-0.0011114571440693,0.0011421673250834,-0.0010982187243196,0.0011057636855446,-0.0010960186686516,0.0011079773581444,-0.0011092452379918,0.0011443688467216,-0.0011007694772525,0.0011788483310973,0.77096717277105,122718,2924,0.0039069333125739,0.0066592873690855,0.0044304556437792,23.939498016349,0.00010671598413079,0.00010671598413079,0.00010671598413079,4162737.5826311,0.015110143819188
29391759,0.8907768691455,0.015686988553464,0.0044248923963417,0.0063820261431458,0.0048800700139764,-0.00095668489838844,0.00094864683799489,-1.6359059788133e-05,-6.9333519702156e-06,-2.4285562329269e-06,-8.3982988372631e-07,-0.00043239253797906,0.00039975532937897,-0.0010426017806309,0.0010354671822275,-0.0010371473956203,0.0010584590975491,-0.00045156386129464,0.00040529417254864,-0.00043392523303477,0.00039821143351355,-0.0010441360372447,0.0010339011125566,-0.0010386818444419,0.0010568929332088,-0.0011596466281676,0.001148882020164,-0.0011549022423052,0.0011590036587832,-0.0011591293582222,0.0011494173400404,-0.0011543847534948,0.0011595388723761,-0.00090325407329654,0.00087164534709322,-0.00088919811074936,0.00086558650820986,-0.00090377470533832,0.00087111820665087,-0.00088971930712475,0.00086505992262412,-0.00045003166315358,0.00040683898291046,3.9894474110674e-07,-1.146276273767e-06,-3.8185097103106e-06,3.0938212449656e-06,-0.0016389702306381,0.0016382437523061,-0.0015300334365284,0.0015366003224539,-0.0015348390614186,0.0015333098728171,-0.0015313452709175,0.001526781522338,-0.0017303510681495,0.0017278457322592,-0.0017289999387569,0.0017311029512843,-0.001730339457035,0.0017267988722646,-0.0017311185054398,0.0017321859070808,-0.0015376520335082,0.0015296416572047,-0.0015444019709554,0.001549932040894,-0.0015332372596462,0.0015363126849933,-0.0015206531458774,0.0015206950107626,-0.0015339547790829,0.0015269797770336,5.2958743347647e-06,1.6025035567039e-05,-0.0010775447194664,0.0010782034012269,3.8651759839124e-06,-3.067245798059e-06,-0.0010888021461098,0.0010919793773417,-0.0011714056839524,0.0011251265405778,-0.0011751924660662,0.0011662821698361,-0.0011058534112545,0.00120037533444,-0.0010820335469071,0.0010987787077958,-0.0011646165012856,0.0011319063290127,-0.0011684148795881,0.0011730730576915,-0.0012064847860443,0.0012097032631156,-0.0012087932193357,0.0012073905080248,-0.0012068676721757,0.0012020902095501,-0.0012091813359197,0.0011997825256034,-0.001125573201069,0.0011576038442569,-0.0011117359537656,0.0011196320406991,-0.0011094337836739,0.001121948431089,-0.001123258579865,0.0011599074622545,-0.0011126487522822,0.0011936034350289,0.70574332875771,122718,2924,0.0039634836979952,0.0068027871661773,0.0044815684358444,24.733816541989,0.00011307053233592,0.00011307053233592,0.00011307053233592,4112522.9637465,0.015365156516077
29891759,0.90593154148916,0.015945141228106,0.0044960539080882,0.0064960297744019,0.0049530575456162,-0.00097002454203387,0.00096181397467569,-1.6736679815624e-05,-6.9713466426947e-06,-2.4665786358263e-06,-8.5968081627505e-07,-0.00044364806954282,0.00041116630199009,-0.0010603043238699,0.0010529745306793,-0.0010546820096046,0.0010763018754845,-0.00046336484286096,0.00041626634166268,-0.00044519781687024,0.00040960481447533,-0.0010618559419739,0.0010513901265424,-0.0010562338451494,0.0010747173946196,-0.0011759432483782,0.0011648558337487,-0.0011710819778946,0.0011752440317965,-0.0011754201062884,0.0011653974541421,-0.0011705585952855,0.0011757855298574,-0.00091396809682994,0.00088155609780375,-0.00089955286195436,0.0008753952190051,-0.00091449454168757,0.00088102293333079,-0.00090007992530533,0.00087486265472309,-0.00046181564754452,0.00041782881417343,3.8848871090396e-07,-1.1732494713695e-06,-3.9321136375584e-06,3.1707074040355e-06,-0.0016687266653515,0.0016679634855723,-0.0015557924178303,0.0015625150296973,-0.0015590795961344,0.0015574654720955,-0.0015553901509082,0.001550709336126,-0.0017650095173559,0.0017624097455078,-0.0017636129652436,0.0017657486994623,-0.001764986774035,0.0017613409104014,-0.001765803922674,0.0017668931888699,-0.0015635655953638,0.0015553263709271,-0.0015701084406266,0.0015757830489889,-0.0015574372367955,0.001560554599569,-0.0015446992661734,0.0015447510039569,-0.0015598568085947,0.0015526640734916,5.4323241504505e-06,1.6544963154716e-05,-0.0010902928212574,0.001090957958423,3.983329391635e-06,-3.1409173450291e-06,-0.0011037073122633,0.0011069474673359,-0.0011890035024769,0.0011417934983694,-0.0011929415861651,0.0011837797882267,-0.0011206057299873,0.0012164257672219,-0.0010967521835192,0.0011139347096687,-0.0011820265364346,0.0011487605732011,-0.0011859765688724,0.0011907582972096,-0.0012214898322393,0.0012247878828742,-0.0012238622184486,0.0012224112494234,-0.0012217907636687,0.0012168438007936,-0.0012241684771789,0.0012144723293879,-0.001138904490294,0.0011721551769856,-0.0011249285987639,0.0011330264031145,-0.0011225628339591,0.0011354067657019,-0.0011365259619988,0.0011745224542737,-0.0011275885868677,0.0012094669754091,0.72403000858046,122718,2924,0.004018526352906,0.0069257878771427,0.0045344914086183,25.429796090572,0.00011863836872457,0.00011863836872457,0.00011863836872457,4144576.9151776,0.015599698004928
30391759,0.91957503417289,0.016162481080296,0.0045560818921663,0.0065922867778246,0.005014112410305,-0.00097953490823467,0.00097093521479609,-1.7558081407399e-05,-7.3734975731566e-06,-2.5856062793148e-06,-9.2418059496321e-07,-0.00043324436484067,0.00039839147788369,-0.0010701133033873,0.0010624221247842,-0.0010642006983198,0.0010870866941593,-0.00045395207793454,0.00040447914083779,-0.00043484596347776,0.00039677965986717,-0.0010717171404599,0.0010607846495934,-0.0010658054244005,0.0010854497770535,-0.0011923151721171,0.0011807267877512,-0.0011872152715502,0.0011916194502313,-0.0011917740749235,0.0011812870693635,-0.0011866735890229,0.0011921792751738,-0.00092180468140151,0.00088784149081869,-0.00090670158392373,0.00088147110790462,-0.00092234859952225,0.00088729015916947,-0.00090724682185827,0.00088092108290299,-0.00045235201562661,0.00040609295761695,4.0728095454841e-07,-1.2063142936042e-06,-3.9833184391179e-06,3.2080424528358e-06,-0.0016984849923927,0.0016977079205468,-0.0015821195403627,0.0015889321357754,-0.0015887114335203,0.001587104236197,-0.0015848455283811,0.0015800701827554,-0.0017956051970464,0.0017929791222046,-0.0017942086413807,0.0017963792178356,-0.0017955885911518,0.0017918803534532,-0.0017964339453938,0.001797521956283,-0.0015899911105768,0.0015816342371007,-0.0015968567632097,0.0016025863941573,-0.001587085601388,0.0015902691868864,-0.0015735052021938,0.00157352176927,-0.0015861307220572,0.0015788552242997,5.7376347951902e-06,1.7203180362019e-05,-0.0010975855820953,0.001098364570624,4.0900704350602e-06,-3.1257899075774e-06,-0.0011089670498954,0.0011127150135314,-0.0011978538098049,0.0011489227929295,-0.0012018481849138,0.0011925845187309,-0.00112734954282,0.0012275918961398,-0.0011019253548566,0.0011197897856733,-0.0011907881019838,0.001155978049116,-0.001194794947662,0.0011996516861942,-0.0012340425348893,0.0012374919015576,-0.0012364456937227,0.0012350842680733,-0.0012344286125066,0.0012292237435552,-0.0012368373920266,0.0012268215531622,-0.0011485044379397,0.0011830221700788,-0.0011336851492159,0.0011423290948442,-0.0011312894430472,0.0011447400226493,-0.001146095287936,0.0011854192966052,-0.0011344201614463,0.001220546837807,0.677089152708,122718,2924,0.004057311757928,0.0070487753860677,0.0045650427107359,26.075399252572,0.00012380319402058,0.00012380319402058,0.00012380319402058,4027560.7129822,0.015795081053342
30891759,0.93196482792605,0.016373869528761,0.0046149153454261,0.0066848759929029,0.0050740781904322,-0.00099060056679597,0.00098182312969238,-1.7951435128408e-05,-7.4548505047963e-06,-2.6650336503715e-06,-9.1059021159875e-07,-0.0004410575720757,0.00040610544106388,-0.0010848287171159,0.001077011064154,-0.0010787485746983,0.0011020964334068,-0.00046238566677753,0.00041191589331788,-0.00044275043456764,0.00040440052588937,-0.0010865234866968,0.0010752812645891,-0.0010804436099398,0.0011003665709159,-0.0012062186730966,0.0011942968485881,-0.0012009980432625,0.0012054675022505,-0.0012056475779873,0.0011948880955366,-0.0012004266760337,0.0012060586102044,-0.00093086309153883,0.00089610926562336,-0.00091539595151652,0.00088963516507859,-0.00093143802725064,0.00089552717585699,-0.0009159715762679,0.00088905374892947,-0.00046069343920002,0.00041362190248397,4.2488246768618e-07,-1.2803009722269e-06,-4.1767004178762e-06,3.3466189606071e-06,-0.0017241609759882,0.0017233290214812,-0.0016043672870004,0.001611481465827,-0.0016104213644055,0.0016087379385725,-0.0016064544521958,0.0016014223969558,-0.0018250987305346,0.0018223385998661,-0.0018236108545905,0.0018258665997366,-0.001825098075079,0.0018211960757588,-0.0018259183161492,0.0018270317606564,-0.0016125628797903,0.0016037952824461,-0.0016191385469389,0.0016251087210524,-0.0016087093736159,0.001612037251197,-0.0015949877281626,0.0015949681928166,-0.0016086546777603,0.0016010293940153,5.8699004706516e-06,1.7673577351579e-05,-0.001107529127597,0.0011083083866367,4.2676918864705e-06,-3.2796863436075e-06,-0.0011211818770068,0.0011248462751738,-0.0012121917993518,0.001162147677174,-0.0012163071172069,0.0012066428975977,-0.0011394523051821,0.0012413805777607,-0.0011138140925981,0.001132248209592,-0.0012048006578211,0.0011695282416672,-0.0012089286733161,0.0012140355810369,-0.0012460385990361,0.0012496020911465,-0.0012485519069325,0.0012470843385372,-0.0012463677177984,0.0012410362564548,-0.0012488867050459,0.0012385239957339,-0.0011594480732863,0.0011949968014462,-0.0011444255414139,0.0011532139598035,-0.0011419194187546,0.0011557356489751,-0.0011569283264738,0.0011975044884428,-0.0011468495972656,0.0012340089539863,0.72443257986383,122718,2924,0.0041029053378473,0.0071548278921688,0.004606319204159,27.063956561108,0.00013171165248886,0.00013171165248886,0.00013171165248886,4024848.5255173,0.015991071557553
31391759,0.94324530423388,0.016568774226232,0.0046691641651888,0.0067701450585577,0.0051294650024857,-0.0010003223924982,0.00099106885525227,-1.8951071453838e-05,-8.0199021455444e-06,-2.8546532550436e-06,-9.4160282091028e-07,-0.00042519471226898,0.00038691576090295,-0.0010939775185966,0.0010858131505005,-0.0010875591819548,0.0011126714710185,-0.00044778062293154,0.00039421676082215,-0.00042704196733159,0.00038505710092183,-0.0010958263505451,0.0010839277762198,-0.0010894083889321,0.001110786111731,-0.0012233985444765,0.0012108854162978,-0.001217890037192,0.0012226495084627,-0.0012227758079983,0.0012115298076698,-0.0012172669541457,0.0012232936958914,-0.00094017965617612,0.00090360140468509,-0.00092389673467169,0.00089681290587789,-0.00094080681586209,0.00090296669353087,-0.00092452475315586,0.00089617904888832,-0.00044593421004015,0.00039607676874712,4.8621774317335e-07,-1.3744346044763e-06,-4.3069248895656e-06,3.4454852842226e-06,-0.0017540833010185,0.0017532198240632,-0.0016324070804724,0.0016397662341288,-0.0016433040091858,0.0016416651915307,-0.0016392594944125,0.0016339660685732,-0.001853157905647,0.0018503422152612,-0.0018516302588249,0.0018539834362123,-0.0018531977815229,0.0018491358263351,-0.0018539731575411,0.0018550795966747,-0.0016409042381511,0.0016318291665383,-0.0016479652238018,0.0016540764734914,-0.0016415723674906,0.0016450971131744,-0.0016267913889174,0.0016266628491943,-0.0016367404773195,0.0016289114951688,6.2303796846856e-06,1.835306735838e-05,-0.0011138592319372,0.0011147742512294,4.4421907977771e-06,-3.3362827231248e-06,-0.0011247686770961,0.0011289186567778,-0.0012192271531714,0.0011668862093944,-0.0012233590059907,0.0012134534379009,-0.0011450454992847,0.0012529237695405,-0.001117175297931,0.0011365468996682,-0.0012116100043337,0.0011744925558106,-0.0012157550852742,0.0012210723604141,-0.0012581451470085,0.0012619262639221,-0.0012607353638458,0.0012593312022548,-0.0012586378435747,0.0012530583875219,-0.0012612340877703,0.0012504691507759,-0.0011696118898954,0.001206348184162,-0.0011534277288592,0.0011628131208899,-0.0011508449988472,0.001165412149377,-0.001167014811598,0.0012089324331455,-0.001152669388826,0.0012453269369586,0.73350948566095,122718,2924,0.0041424189272993,0.0072784055875673,0.0046329381615956,28.357433869528,0.00014205947095622,0.00014205947095622,0.00014205947095622,3851977.4338406,0.016183883464297
31891759,0.95315600787245,0.016741144304713,0.0047178457040148,0.0068448491797893,0.005178449420909,-0.0010087682527572,0.0009992035890552,-1.9612509852828e-05,-8.2982784606508e-06,-2.9368579852493e-06,-1.0089811908842e-06,-0.00042076785684138,0.00038088739710924,-0.0011039037717131,0.0010953996741868,-0.001097240934549,0.0011232991366577,-0.00044416002212995,0.00038874089036192,-0.00042262822873624,0.00037901691744584,-0.001105766195093,0.0010935002534532,-0.0010991043131535,0.0011214002807232,-0.0012364665290651,0.001223551947454,-0.0012307614757914,0.0012357246289654,-0.0012358387128723,0.0012242016709236,-0.0012301330023456,0.0012363738450022,-0.00094786322223508,0.00091000917904925,-0.00093101215969259,0.00090301108688458,-0.00094849478275535,0.00090936948779337,-0.00093164522038629,0.00090237289243418,-0.00044230129920321,0.00039061355707963,4.8962010022453e-07,-1.3836868730392e-06,-4.3358164735599e-06,3.4686321408293e-06,-0.001777889843736,0.0017770206348095,-0.0016542907093355,0.0016616991363408,-0.0016667594314455,0.0016651095003044,-0.0016625346262908,0.0016572056786758,-0.0018774763776688,0.0018746415689816,-0.0018759545881734,0.0018783253188579,-0.0018775155326722,0.0018734246881329,-0.0018783208311561,0.001879435031014,-0.0016628413752069,0.0016537055786439,-0.0016702261473767,0.0016763779361543,-0.0016650504265793,0.0016685989899705,-0.0016495899202795,0.0016494608531449,-0.0016585678050068,0.0016506867679932,6.4862530308503e-06,1.8923163182473e-05,-0.0011191035414579,0.0011201164809993,4.5208618267814e-06,-3.3125104557829e-06,-0.0011282685569881,0.0011328653657863,-0.0012266724901891,0.0011729336069199,-0.0012308677492533,0.0012209093073636,-0.0011496956454872,0.0012610444655501,-0.0011206242854421,0.0011405451850092,-0.0012190025051653,0.001180592338572,-0.0012232113484668,0.0012285809274287,-0.0012674152714598,0.0012713209853882,-0.0012700240520066,0.0012687072435236,-0.0012679630553897,0.0012621621321387,-0.0012705780559265,0.0012595543988039,-0.0011773106807592,0.0012151641689337,-0.0011604592525644,0.0011703103384032,-0.0011578586881324,0.0011729276048264,-0.0011746952974467,0.0012177661595388,-0.0011573712606138,0.0012533969512196,0.73628229482354,122718,2924,0.0041769245507671,0.0073767583768632,0.00465494706153,29.266044169208,0.00014932835335367,0.00014932835335367,0.00014932835335367,3755886.8823886,0.016341292748348
32391759,0.9613941811404,0.016890548949797,0.0047603664376169,0.0069090685665159,0.0052211139456644,-0.0010144936757387,0.0010046775631906,-2.01771765491e-05,-8.5132767938079e-06,-3.0532897773043e-06,-1.0022065754305e-06,-0.00041608254035119,0.00037503205043091,-0.0011112038945788,0.0011025288267068,-0.001104325314954,0.0011313085034463,-0.00044029772501501,0.000383196584539,-0.00041806349227714,0.00037303962286674,-0.0011131866776588,0.0011005079495455,-0.0011063083143121,0.0011292874463506,-0.0012460074577154,0.0012327189887148,-0.001240128996021,0.0012452454857819,-0.0012453396726725,0.0012334096757942,-0.0012394609338684,0.0012459360508719,-0.0009529841524044,0.00091407274071316,-0.00093563225117824,0.0009069017251511,-0.0009536567728688,0.00091339240669964,-0.00093630561203366,0.00090622213363675,-0.00043831741838111,0.00038519019704384,5.2832682739182e-07,-1.4664270332144e-06,-4.5422893953606e-06,3.6326748381223e-06,-0.0017968860126659,0.0017959742421639,-0.0016715623573044,0.0016793324895206,-0.001685432110528,0.0016837353264904,-0.0016811494770748,0.001675534225018,-0.0018969468605057,0.0018939878525349,-0.0018953263442454,0.0018978171947237,-0.001897021333034,0.0018927260976192,-0.0018977508358787,0.0018989049224365,-0.0016805087317405,0.0016709267371468,-0.0016878339691069,0.001694266434935,-0.0016836358872106,0.0016873834817087,-0.0016677015464383,0.0016675321770712,-0.0016761066897129,0.0016678603521905,6.6931337960329e-06,1.9401497799561e-05,-0.0011219820200654,0.0011230376198453,4.7279491603744e-06,-3.4752218395852e-06,-0.0011303508548089,0.0011349814472547,-0.0012319572628244,0.0011766527678464,-0.0012362094307677,0.0012258458821884,-0.0011524185643093,0.0012669513524385,-0.0011223419080787,0.0011430266123719,-0.0012239241025893,0.0011846746547533,-0.0012281901223306,0.0012338808815934,-0.0012735337842164,0.0012776191367853,-0.0012762653283582,0.0012748824905494,-0.0012741261444177,0.0012681946149555,-0.0012768640417873,0.0012654640962178,-0.0011824897050515,0.0012211860605998,-0.0011650661591591,0.0011751843476931,-0.0011623423436031,0.0011779252900288,-0.0011797507731363,0.0012239113843176,-0.0011604593389285,0.0012589390095704,0.7666502330739,122718,2924,0.0042002471938999,0.0074551442579608,0.0046670248876353,29.297808269867,0.00014958246615893,0.00014958246615893,0.00014958246615893,3679297.766043,0.016456962914616
32891759,0.96817595411477,0.017003352980119,0.0047927385971141,0.0069575923967999,0.0052530219862046,-0.0010179515866238,0.0010078451152878,-2.0820332817431e-05,-8.812145681928e-06,-3.136639663557e-06,-1.0637953891164e-06,-0.00040500479457731,0.00036197204082436,-0.0011145178256462,0.0011055267208842,-0.0011074060085231,0.0011354543005534,-0.00043000103300053,0.00037099576419723,-0.00040700566964926,0.00035996105302645,-0.0011165211205225,0.0011034852773108,-0.00110940996004,0.0011334130892044,-0.0012539801231645,0.0012403317883197,-0.0012479064689043,0.0012532515824065,-0.0012533049504128,0.0012410300425336,-0.0012472307649675,0.0012539494666426,-0.00095607981121612,0.00091596139468932,-0.0009381720414712,0.00090862025526841,-0.00095675922979296,0.00091527382521776,-0.00093885273794884,0.00090793396666049,-0.00042800142818252,0.00037300861291866,5.4020398210713e-07,-1.4744194138907e-06,-4.5620957649935e-06,3.6563129018008e-06,-0.0018127592667758,0.0018118513306593,-0.0016861448699358,0.0016939677939032,-0.0017024581913687,0.0017007701740948,-0.0016980449329018,0.0016923997966166,-0.0019120397973702,0.0019090766548644,-0.0019104260647995,0.001912943338056,-0.0019121226829067,0.0019078085851228,-0.0019128622600566,0.0019140280206848,-0.0016951522578592,0.0016855250861627,-0.0017028259304804,0.0017092976727997,-0.0017006861027516,0.0017044714829133,-0.0016840034050261,0.0016838332378315,-0.0016906208114385,0.0016823427472483,6.9503024332601e-06,1.9875205571357e-05,-0.0011219964283825,0.0011231484192536,4.8006768721686e-06,-3.4485000212306e-06,-0.0011271550166376,0.001132249525853,-0.0012325381418991,0.0011758661738932,-0.0012368121389047,0.0012264245052529,-0.0011505763160102,0.00126872697105,-0.0011191030754493,0.0011403378988797,-0.0012244607505571,0.0011839320047974,-0.0012287488575283,0.0012345036539611,-0.0012776802265059,0.0012818988313522,-0.0012804273071587,0.0012791464918825,-0.0012783664547643,0.0012722303811153,-0.0012811200694031,0.0012694843432351,-0.0011846940406622,0.0012242163322259,-0.0011665455056633,0.001177131658984,-0.0011638066996776,0.0011798879097601,-0.0011819397129411,0.0012269565363623,-0.0011586605997804,0.0012606720242421,0.70183472790501,122718,2924,0.0042140982949715,0.0075206969330079,0.0046673471875047,29.18277470809,0.00014866219766472,0.00014866219766472,0.00014866219766472,3571760.3952958,0.016538036335718
33391759,0.97381255748733,0.017103768276427,0.004821782278056,0.0070002702422256,0.0052817157561458,-0.0010219583779256,0.0010118615821577,-2.0820046173633e-05,-8.6404273804093e-06,-3.1264015119049e-06,-1.0690744114151e-06,-0.00041642310786104,0.00037468569666121,-0.0011223190471268,0.0011132872559755,-0.0011151663830227,0.0011428693234581,-0.00044152275551662,0.00038279848923225,-0.00041840891281803,0.00037268846842462,-0.0011243074768227,0.0011112603161655,-0.0011171550715838,0.001140842229216,-0.001257761609259,0.0012440285945862,-0.0012516797539217,0.0012569942093689,-0.0012570916278739,0.0012447216335972,-0.001251009456513,0.0012576870947832,-0.00095844506614852,0.00091823801530969,-0.00094048858017444,0.00091094618000169,-0.00095911951308397,0.00091755571906147,-0.00094116386985073,0.00091026471953177,-0.00043953769014934,0.00038479702924194,5.1757417517558e-07,-1.4812866444784e-06,-4.6687582974627e-06,3.7339803301344e-06,-0.0018224025075166,0.0018214656139429,-0.0016933346179026,0.0017013044360723,-0.0017076955436289,0.0017059011084826,-0.0017031638233182,0.001697443227653,-0.0019257579376151,0.0019226997455055,-0.0019240862807352,0.0019266299754945,-0.00192583222321,0.0019214344991028,-0.0019265771864911,0.0019277807833784,-0.0017024539335088,0.0016926221578409,-0.0017096080204805,0.0017162371526945,-0.0017058678082358,0.0017096692757939,-0.0016894466622056,0.0016893235930076,-0.0016980094537029,0.0016895162414458,6.9528974355758e-06,2.0095852150829e-05,-0.0011253980553275,0.0011265145436002,4.8923761021893e-06,-3.5406390885325e-06,-0.0011343928864925,0.0011392902712265,-0.0012402789855407,0.0011835184187008,-0.0012446520035049,0.0012340326176382,-0.0011569499333703,0.0012742182975648,-0.0011261601567245,0.0011475603448039,-0.0012320209066703,0.0011917647261361,-0.0012364081081329,0.0012422923278973,-0.0012806861168574,0.0012849327582251,-0.0012834942858152,0.0012821195265433,-0.0012812498393609,0.0012750765445722,-0.0012840644778698,0.0012722695480569,-0.0011879107505069,0.0012280252956769,-0.0011700089870336,0.0011805488647052,-0.0011672089271977,0.0011833664441111,-0.0011850952062077,0.0012308268690391,-0.0011652153874937,0.0012659820088824,0.75084859050748,122718,2924,0.0042307202024571,0.0075605029414161,0.0046813852113825,29.274766828118,0.00014939813462494,0.00014939813462494,0.00014939813462494,3608638.9673583,0.016609648347555
33891759,0.97863807751829,0.017189136576011,0.0048463864649694,0.0070366589108481,0.0053060912001934,-0.0010261579701939,0.0010157325235126,-2.1542391597835e-05,-9.0803687685971e-06,-3.2800252918966e-06,-1.0741946785957e-06,-0.00040147754731956,0.00035690405222337,-0.0011248373737996,0.0011155856701013,-0.0011174441762838,0.0011466319682494,-0.0004275105370912,0.00036641780080352,-0.00040360863660772,0.00035476205932206,-0.0011269704680328,0.0011134130617449,-0.0011195774948595,0.0011444591503846,-0.0012668064562687,0.0012526680545919,-0.0012605118034801,0.0012660667796516,-0.0012660881531699,0.0012534106718679,-0.0012597931875659,0.0012668092494162,-0.00096299258278953,0.00092151008096116,-0.00094444452272428,0.00091401220405074,-0.00096371612138352,0.00092077848784336,-0.00094516892133547,0.00091328147820086,-0.00042538018985992,0.00036856114764971,5.8033793258043e-07,-1.5650471859359e-06,-4.7607532637842e-06,3.8061461546692e-06,-0.0018377831858849,0.0018368263116783,-0.0017083241321802,0.0017164837751613,-0.00172673654481,0.0017250115497738,-0.0017222263653662,0.0017162866015827,-0.0019383702066143,0.001935286542951,-0.001936668100025,0.0019392955369016,-0.0019384925635482,0.0019339713997054,-0.0019391815230464,0.0019403708572371,-0.0017176946156468,0.0017076334807165,-0.0017252640078674,0.0017319852262479,-0.0017248948703221,0.0017288746515779,-0.0017076369203229,0.0017074036398426,-0.0017130281442053,0.0017044032140505,7.2218549155017e-06,2.0500605379505e-05,-0.0011262038795453,0.0011274190569808,5.0166304400603e-06,-3.5816538749826e-06,-0.0011314662551242,0.0011367416246075,-0.0012401526758351,0.0011816973007718,-0.0012445038801637,0.0012337353629867,-0.0011557070704905,0.0012776015776214,-0.0011230712477661,0.0011451738427436,-0.0012317328863976,0.0011901054201162,-0.0012360985040533,0.0012421570534425,-0.001285735099661,0.0012901538438942,-0.0012885982147529,0.0012872853487906,-0.0012864542495302,0.001280112234364,-0.0012893240536909,0.0012772501816855,-0.0011913203001161,0.001232018553206,-0.001172515908008,0.0011834989157903,-0.0011696609245834,0.0011863718213758,-0.0011884494382975,0.0012348750100645,-0.0011641350302574,0.001269203461285,0.74591026364842,122718,2924,0.0042475783082037,0.0076239645001938,0.0046850057564001,30.027104668405,0.00015541683734724,0.00015541683734724,0.00015541683734724,3475096.8035802,0.016695030546922
34391759,0.98284867490584,0.017261849248928,0.0048675711536622,0.0070674582516527,0.0053268198436131,-0.001031450221801,0.0010209026857361,-2.1813041816747e-05,-9.1473091501552e-06,-3.3119530289475e-06,-1.1068970488741e-06,-0.00040351217432153,0.00035854924016074,-0.0011312782868166,0.0011218708660969,-0.0011237723961823,0.0011532951301865,-0.00042991170318067,0.00036809555448567,-0.00040564211340366,0.00035640881445188,-0.0011334102730895,0.0011196990258289,-0.0011259048621644,0.0011511233266835,-0.0012737723483511,0.0012594601310854,-0.0012673935243844,0.0012730358345763,-0.0012730542910964,0.0012602026470049,-0.0012666750115581,0.0012737780640752,-0.00096777134780735,0.00092574765596178,-0.00094897570640336,0.00091816737607383,-0.00096849440127771,0.00092501624564205,-0.00094969991778287,0.00091743712892145,-0.00042778284642457,0.00037023769479103,5.7621122889293e-07,-1.5674775623786e-06,-4.7771398370488e-06,3.8161153784239e-06,-0.0018494810614846,0.0018485177814107,-0.00171898344043,0.0017271618680213,-0.0017375771233036,0.0017358349892517,-0.0017329701373752,0.0017270166708769,-0.0019508499687725,0.0019477503204524,-0.0019491490746719,0.0019517790395992,-0.0019509743365925,0.0019464379981815,-0.001951684018101,0.0019528766811462,-0.0017283622107881,0.0017182695268969,-0.001735982287462,0.0017427233309034,-0.0017357470553738,0.0017397273700681,-0.0017182419598463,0.001718012686489,-0.0017236691420018,0.0017150115903784,7.3342643092839e-06,2.0789864239541e-05,-0.0011290886882886,0.0011303412499359,5.0555210884076e-06,-3.5705882827946e-06,-0.0011334113479226,0.001138875830769,-0.0012445897269849,0.0011855615345314,-0.0012489862944803,0.0012381899617501,-0.0011580136895499,0.0012811677130951,-0.0011249905410783,0.0011473341853347,-0.0012361431553594,0.001193996258297,-0.0012405542591687,0.0012466383600585,-0.0012904523690997,0.0012949263989716,-0.0012933249040281,0.0012920484818509,-0.0012911712574531,0.0012847216729371,-0.0012940505310879,0.0012818502454039,-0.001195152729527,0.0012364213678771,-0.0011761123394725,0.0011873001093323,-0.0011732482922534,0.0011901822211274,-0.0011922726616043,0.0012392868808286,-0.0011664677406289,0.0012727437799359,0.72645274309906,122718,2924,0.0042693232399352,0.0076722680980817,0.0046970753715675,31.389517056829,0.00016631613645463,0.00016631613645463,0.00016631613645463,3426423.1853928,0.01677852859578
34891759,0.9865699613293,0.017328191211602,0.0048869650455255,0.0070954027516706,0.0053458234144064,-0.0010379309555134,0.0010273115943883,-2.1968872037008e-05,-9.1604257287337e-06,-3.3308271962685e-06,-1.126836754711e-06,-0.00040982994652417,0.00036486968393521,-0.0011392865723947,0.0011297821224364,-0.0011317082017723,0.0011613487122332,-0.0004364621594419,0.00037429272952803,-0.00041195838818061,0.00036273016670094,-0.0011414176276689,0.001127611361461,-0.0011338393762311,0.0011591776249168,-0.0012811231134391,0.0012666882124266,-0.0012746968048985,0.0012803787706893,-0.0012804053125838,0.0012674303482782,-0.0012739787396985,0.0012811208137631,-0.00097350092664831,0.00093114804825957,-0.00095456070463386,0.00092353078997273,-0.00097422376850448,0.00093041720423128,-0.00095528432189111,0.00092280072379033,-0.00043433433934174,0.00037643349455319,5.6972937459633e-07,-1.5723797383874e-06,-4.8691103426591e-06,3.8968999480808e-06,-0.0018609276635797,0.0018599532129726,-0.0017291086364188,0.0017374449801465,-0.0017476400798334,0.001745827561338,-0.0017429495565038,0.0017369288919478,-0.0019637195619178,0.0019605514196102,-0.0019619691319433,0.001964644444666,-0.0019638441891261,0.0019592404320028,-0.0019645315165913,0.0019657705873405,-0.0017386285668211,0.0017283557019855,-0.0017460248241687,0.0017529247355748,-0.0017457663312334,0.0017497909426633,-0.0017281791648135,0.0017279974345412,-0.0017339412366237,0.0017251024938839,7.3880069388152e-06,2.100928515457e-05,-0.0011340015094345,0.0011352541116636,5.1491683414786e-06,-3.6492893274132e-06,-0.0011392148265463,0.0011446059562448,-0.0012515409212089,0.001192041734794,-0.0012559880146079,0.0012449894904154,-0.001163703461623,0.0012874965086324,-0.0011306241195641,0.0011532346017366,-0.0012429250007831,0.00120064567406,-0.0012473867064664,0.0012536071695198,-0.0012961937615208,0.0013007264257968,-0.0012991235358097,0.0012977913170319,-0.001296878827208,0.0012903846497214,-0.0012998153505667,0.0012874560349222,-0.0012005562041288,0.0012422634574404,-0.0011814526047353,0.001192686496562,-0.0011785310866276,0.0011956261769419,-0.0011976185974254,0.0012451864559758,-0.0011723276537126,0.001278902529253,0.74954793382103,122718,2924,0.0042960743259949,0.0077195428473651,0.004717470504683,33.42852173798,0.00018262817390384,0.00018262817390384,0.00018262817390384,3400352.6770696,0.016874536266598
35391759,0.98981575523024,0.017382799948061,0.0049029794912478,0.0071184286392529,0.0053613918175605,-0.0010445787577501,0.0010337718333513,-2.2372283017439e-05,-9.3919724210588e-06,-3.3883962674314e-06,-1.1687386847478e-06,-0.00040703591790708,0.00036052803288319,-0.0011453175170778,0.0011356086292714,-0.0011375991646655,0.0011679806108,-0.00043414054626033,0.00037072683125594,-0.00040917875884237,0.00035837513040266,-0.0011474634513878,0.0011334231424082,-0.0011397455049515,0.0011657950634099,-0.0012903449218471,0.0012756938219363,-0.0012838009482978,0.0012896322772859,-0.0012896217759527,0.0012764413688721,-0.0012830773737018,0.0012903795707378,-0.00098011978463938,0.00093702484374499,-0.00096085165315403,0.00092928361625204,-0.00098084756532733,0.00093628881424856,-0.00096158055688835,0.00092854871515228,-0.00043199872239019,0.00037288140933272,5.8085089509034e-07,-1.5758274622421e-06,-4.8742671150818e-06,3.909571162858e-06,-0.0018739474314398,0.0018729804971722,-0.0017416853304969,0.0017500513175247,-0.0017621235896508,0.0017603270417514,-0.0017573726580067,0.0017513396044381,-0.0019756790459502,0.0019725172784977,-0.0019739352704343,0.0019766298686877,-0.0019758119973413,0.0019712037918271,-0.0019764992225316,0.0019777467414115,-0.0017512448820127,0.0017409573190631,-0.0017588995645845,0.0017658192448891,-0.0017602694806784,0.0017643219467536,-0.0017421687170263,0.0017419865233618,-0.0017464646618521,0.0017376210545907,7.5419168472523e-06,2.1285659121619e-05,-0.0011379719817569,0.0011392880048678,5.1908657839918e-06,-3.6270107961421e-06,-0.00114071355879,0.0011463955569036,-0.0012552990245793,0.0011949309812229,-0.0012597515505115,0.0012487487448553,-0.0011661454224688,0.0012924234704502,-0.0011321049673164,0.0011550419760783,-0.0012466646187193,0.0012035532925192,-0.0012511318690149,0.0012573848721218,-0.0013027585351545,0.0013073697266682,-0.0013056949138174,0.001304427896145,-0.0013035107678444,0.0012968985760656,-0.0013064540093673,0.0012939633479519,-0.0012058015369395,0.0012479584052786,-0.0011862356013714,0.0011977479216692,-0.0011833077979697,0.0012006940456212,-0.0012028574081322,0.0012508875911468,-0.0011747876827344,0.0012838119652492,0.70668891960699,122718,2924,0.004323326282484,0.007773328699106,0.0047341142654263,35.837080581911,0.00020189664465529,0.00020189664465529,0.00020189664465529,3315941.0941054,0.016973894052635
35891759,0.9924539269152,0.017428518122832,0.0049164598701565,0.0071375654562633,0.0053744927964124,-0.0010493356725341,0.0010385675885922,-2.2298525720209e-05,-9.2554295266201e-06,-3.3808427127979e-06,-1.1585359201732e-06,-0.00041812929964195,0.00037266663893029,-0.0011523553151926,0.0011426783432756,-0.0011446386077457,0.0011746889932622,-0.0004452256453415,0.00038219422604085,-0.00042027549032704,0.00037050980395779,-0.0011545039576375,0.0011404893359395,-0.0011467877107414,0.0011724999917038,-0.0012944948342565,0.0012798280297546,-0.0012879711444615,0.0012937545406687,-0.0012937711341814,0.0012805764805461,-0.001287246993884,0.0012945027161762,-0.00098373303334488,0.00094072397171882,-0.00096450384527555,0.00093303085992718,-0.00098446167347649,0.00093998690245009,-0.00096523364634702,0.00093229495164955,-0.00044308052970522,0.00038435278259449,5.6960399816229e-07,-1.5897812201461e-06,-4.8977864503887e-06,3.9084289919445e-06,-0.0018807899018509,0.0018797983173712,-0.0017469234191897,0.0017552877393784,-0.0017660236463147,0.0017641970397101,-0.0017612201562048,0.0017551515546856,-0.001985279647363,0.0019820863562282,-0.0019835265986239,0.0019862048038633,-0.0019854121574563,0.0019807716238699,-0.0019861320944529,0.0019873624181541,-0.0017564567060853,0.0017461217201854,-0.0017637953082342,0.001770711579714,-0.0017641613337236,0.0017681988160701,-0.0017463310045089,0.0017461283407134,-0.0017517475650087,0.0017428582747761,7.5168250859559e-06,2.140030013138e-05,-0.0011423599416736,0.0011436585142032,5.2053752610584e-06,-3.6352199393563e-06,-0.0011479506552343,0.0011535472569613,-0.0012623811212467,0.0012022258837688,-0.0012668971174475,0.0012558443380637,-0.001172761733966,0.0012979978053529,-0.0011393206236405,0.001162215703677,-0.0012537245635091,0.0012108702577227,-0.001258255303514,0.0012645025684555,-0.0013064754048731,0.0013110682544518,-0.0013094194209918,0.0013081189317029,-0.001307130766015,0.0013005018564183,-0.0013100815803303,0.0012975590739194,-0.0012097598614595,0.0012522816488106,-0.0011904464344283,0.0012019122595894,-0.0011875111704816,0.0012048658729999,-0.001206808348386,0.001255218410549,-0.0011814256203551,0.0012893644390083,0.72723603925678,122718,2924,0.0043431124114101,0.007801570223159,0.0047522721072067,37.445759605687,0.0002147660768455,0.0002147660768455,0.0002147660768455,3334800.5897015,0.01704118733783
36391759,0.99441786656417,0.017462288514647,0.004926402193534,0.0071517147843789,0.0053841715367344,-0.0010503548853947,0.0010394304966063,-2.2651562656324e-05,-9.4626530677758e-06,-3.4313381873004e-06,-1.1903289791682e-06,-0.00041031633078351,0.00036341967767556,-0.0011525329247902,0.0011426864583597,-0.0011446957024789,0.0011754242614317,-0.00043782128622896,0.00037368880985916,-0.0004124798487313,0.00036124626184,-0.0011546994974981,0.0011404797885692,-0.0011468628720467,0.001173217712233,-0.0012977449671042,0.0012828961451105,-0.0012911152873279,0.0012970403008049,-0.0012970149154922,0.0012836509737216,-0.0012903847061462,0.0012977947796496,-0.0009849040041394,0.00094125426921958,-0.00096538138942554,0.00093347825317513,-0.00098563868748581,0.0009405110841853,-0.00096611739783339,0.0009327363993781,-0.00043565902272356,0.00037586414270738,5.8251821936549e-07,-1.594552931581e-06,-4.9104050622759e-06,3.9290360238243e-06,-0.0018868616546814,0.0018858780520215,-0.0017528281669321,0.0017612387950044,-0.0017738808779064,0.0017720687224988,-0.0017690441102513,0.0017629554456275,-0.0019900557645237,0.0019868654838206,-0.0019883022058983,0.0019910060325331,-0.0019901961898117,0.001985545780094,-0.0019909028002367,0.0019921458455381,-0.001762420543315,0.0017520551321339,-0.0017699845005471,0.0017769351426517,-0.0017720278065133,0.0017761017909971,-0.0017537489410211,0.0017535482964606,-0.0017576232941898,0.0017487154794822,7.6556496606463e-06,2.1591581520532e-05,-0.0011414963781677,0.0011428496327395,5.2474713579998e-06,-3.6272185095937e-06,-0.0011450462020204,0.0011508902444502,-0.001260992192792,0.0012000734365843,-0.0012654944787993,0.0012544287142631,-0.0011707162706303,0.0012981392043439,-0.0011363832186443,0.001159591536213,-0.0012523024981018,0.0012087508542239,-0.0012568196447945,0.0012631200739204,-0.0013076958261249,0.0013123681970977,-0.0013106512387721,0.0013094073393551,-0.0013084267435623,0.0013017039366919,-0.0013113890739933,0.001298749731134,-0.0012100341340247,0.0012528380867333,-0.0011902867013081,0.0012019984903981,-0.0011873401909669,0.0012049635164136,-0.0012070711346604,0.0012557859955669,-0.0011794133042908,0.0012894732295716,0.72169184665483,122718,2924,0.0043470695269705,0.0078266410611465,0.0047488433485967,37.533459227851,0.00021546767382281,0.00021546767382281,0.00021546767382281,3271353.2484205,0.017067245170241
36891759,0.99582903470893,0.017485472964655,0.0049332656222133,0.0071614131077925,0.0053907942346488,-0.0010493472961949,0.0010383793667059,-2.2768195356841e-05,-9.476844970931e-06,-3.4507478984243e-06,-1.1954167656935e-06,-0.00040813365393382,0.00036112653357553,-0.0011520010608396,0.001142103145239,-0.0011441120062041,0.0011749927770367,-0.00043581805037577,0.00037137399830063,-0.00041031125354637,0.00035893901013486,-0.0011541815666966,0.0011398822463799,-0.0011462931431693,0.0011727720316265,-0.0012974271626355,0.0012824985760665,-0.0012907575172925,0.0012967262921532,-0.0012966925121875,0.0012832582125536,-0.0012900223186619,0.0012974855611496,-0.0009836140346166,0.00093973547981977,-0.00096397323003849,0.00093195790660455,-0.00098435341829279,0.00093898750525732,-0.00096471397907803,0.00093121130388909,-0.00043364174915437,0.00037356348546067,5.8538459170858e-07,-1.6056759172276e-06,-4.9293599598742e-06,3.9399788365852e-06,-0.0018885426085759,0.0018875509850337,-0.0017539194581638,0.0017623560642507,-0.0017751683806161,0.0017733518459058,-0.0017703079998683,0.0017641873765852,-0.0019921854875591,0.0019889818524161,-0.0019904257907711,0.0019931363105382,-0.0019923316323286,0.0019876586585537,-0.0019930415906374,0.0019942821137902,-0.0017635347714546,0.0017531274298902,-0.0017710685874176,0.0017780358720412,-0.0017733132267419,0.0017774027345835,-0.0017549668241613,0.0017547541404528,-0.0017587269464511,0.0017497865192665,7.7091886131435e-06,2.1700244478228e-05,-0.0011395505795146,0.0011409181761742,5.2727241613002e-06,-3.632253639645e-06,-0.0011430032835786,0.001148919512538,-0.0012597790246417,0.0011986229145109,-0.0012642942102412,0.0012532020599086,-0.0011687944445409,0.0012966804558572,-0.001134310938493,0.0011576503258614,-0.001251059752536,0.0012073298730431,-0.001255589843559,0.0012619230004802,-0.0013064068678998,0.0013111122728754,-0.0013093723910474,0.0013081413025507,-0.0013071384130892,0.0013003692362701,-0.0013101108697242,0.0012974049322615,-0.0012084372746892,0.0012514549092742,-0.0011885914418084,0.0012003963410368,-0.0011856349054417,0.0012033714651194,-0.0012054642031108,0.0012544128643444,-0.001177520942149,0.0012879850704457,0.68857595567275,122718,2924,0.0043428138056217,0.0078335535223208,0.0047408164140454,36.818338581245,0.00020974670864996,0.00020974670864996,0.00020974670864996,3256032.2190661,0.01706178567308
37391759,0.99692022796906,0.01750387772045,0.004938716594314,0.0071690883012025,0.0053960728249335,-0.001051410064388,0.00104049160652,-2.2656966750913e-05,-9.3614725583366e-06,-3.4378182508264e-06,-1.189348192177e-06,-0.00041584067387942,0.00036970085855814,-0.0011556033791272,0.0011457453692042,-0.0011477395408082,0.0011782727675414,-0.00044342879782714,0.00037944013373771,-0.00041801193048684,0.00036751861938273,-0.0011577776262637,0.0011435308081184,-0.0011499139408529,0.0011760578956639,-0.0012986372771012,0.0012837284743307,-0.0012920009315614,0.0012979135624546,-0.0012979049399594,0.0012844856733327,-0.0012912683014266,0.0012986706473785,-0.00098487113554917,0.00094116522535906,-0.00096531357403529,0.00093345243048544,-0.00098560854125575,0.00094041966969227,-0.00096605183228083,0.00093270772739048,-0.00044125823740546,0.0003816237221199,5.7441206929593e-07,-1.6101067974272e-06,-5.0012504042984e-06,3.9967126256602e-06,-0.001890947012088,0.001889940251793,-0.0017551487940938,0.0017636944903067,-0.0017754688795741,0.0017735878056471,-0.0017705837617482,0.0017644113461589,-0.0019966396730234,0.0019933764682943,-0.0019948351320405,0.0019975701217249,-0.0019967820232485,0.0019920546616188,-0.0019974764301457,0.0019987466005709,-0.001764852222704,0.0017543056164267,-0.0017720092314739,0.0017790900319885,-0.0017735663840308,0.0017776766878593,-0.0017554835904915,0.0017553044775003,-0.0017601107291042,0.0017510265872416,7.6566691986937e-06,2.1717099092047e-05,-0.001141905033303,0.0011432337371659,5.3241470512908e-06,-3.7082853724195e-06,-0.0011480155609214,0.0011536902672425,-0.0012640026984358,0.001203011629558,-0.0012685561640833,0.0012572983734492,-0.0011731279433287,0.0013000277768849,-0.0011391967765281,0.0011625478101343,-0.001255157882191,0.0012118441274472,-0.0012597262005202,0.0012661448141682,-0.0013077407166218,0.0013124406520189,-0.0013107484792201,0.0013094275809593,-0.0013083948757732,0.001301656017462,-0.0013114094908881,0.0012986495323395,-0.0012102583063953,0.0012533816903504,-0.0011906671489081,0.0012023351387358,-0.0011876679824989,0.0012053528267114,-0.0012072427416564,0.0012563823516246,-0.0011819808721019,0.001291205631439,0.70704502100925,122718,2924,0.004351441296795,0.0078434784751021,0.0047504908564666,37.6273636042,0.0002162189088336,0.0002162189088336,0.0002162189088336,3281058.1941058,0.017090479389588
37891759,0.99772902055146,0.017516935465795,0.004942581048663,0.0071745488377225,0.0053998055794097,-0.0010517363635867,0.00104070140162,-2.2914913919745e-05,-9.5358158162607e-06,-3.476957393118e-06,-1.2137221657835e-06,-0.00040910764180463,0.00036177296179286,-0.0011549043320824,0.001144924589711,-0.0011469583958815,0.0011780235562056,-0.00043697666833138,0.0003721577933892,-0.0004112925656088,0.00035957774171599,-0.0011570927325902,0.0011426961482772,-0.0011491470661156,0.0011757949049131,-0.0013005632144081,0.0012855286303917,-0.0012938511803249,0.0012998707876343,-0.0012998258479547,0.0012862908663021,-0.0012931134501709,0.0013006328407267,-0.00098546208298769,0.00094129598108816,-0.00096569835293181,0.00093351800420713,-0.00098620425112618,0.00094054559169835,-0.00096644152881971,0.00093276862575502,-0.00043479261889347,0.00037435456585672,5.8601880009386e-07,-1.6125201866354e-06,-5.0025884913362e-06,4.0070611117777e-06,-0.0018942812812688,0.0018932835233719,-0.0017586103208735,0.0017671810263397,-0.0017805718990447,0.0017787099221224,-0.0017756779761548,0.0017694972978369,-0.0019986409715734,0.0019953877039441,-0.0019968397370547,0.0019995928470336,-0.001998789209654,0.0019940614885809,-0.0019994699294493,0.0020007479143824,-0.001768351556244,0.0017577978574905,-0.0017757224748499,0.001782818823295,-0.0017786794195643,0.0017828165158505,-0.0017602483691184,0.0017600687130891,-0.0017635369219485,0.0017544551235065,7.7549398426954e-06,2.1826064666314e-05,-0.0011409381024184,0.0011423082319406,5.3471717532823e-06,-3.6977082170446e-06,-0.001145177216009,0.0011510409211718,-0.0012621700113452,0.0012006304218455,-0.0012667039924016,0.001255451279345,-0.0011709903430885,0.0012995694993935,-0.0011363465255422,0.0011599102134675,-0.0012533132067603,0.0012094748573687,-0.0012578621265907,0.0012643097160395,-0.0013082903572375,0.0013130447954109,-0.0013113022952027,0.0013100274203467,-0.0013090112398919,0.0013022108164146,-0.0013120301303016,0.0012992001238805,-0.0012100882263009,0.0012533437080893,-0.0011901589229976,0.0012020034409203,-0.0011871556952415,0.001205025316076,-0.0012070684062608,0.0012563483489179,-0.0011798553016151,0.0012907357764914,0.67665412781576,122718,2924,0.0043525929840725,0.0078572493706482,0.0047465941657714,37.709293808346,0.00021687435046677,0.00021687435046677,0.00021687435046677,3232091.7870757,0.017101712185335
38391759,0.99831311860819,0.017526850002798,0.0049455203137854,0.0071786725169522,0.0054026571720605,-0.0010507613445045,0.001039785889615,-2.2796731453957e-05,-9.4123906386865e-06,-3.4643419872808e-06,-1.1989806401564e-06,-0.00041357387318789,0.00036713584820261,-0.0011553282284299,0.0011454081240305,-0.0011474102786265,0.0011781417767161,-0.00044134606880378,0.0003769865539672,-0.00041576161426111,0.00036493722649395,-0.0011575189152425,0.0011431769216999,-0.001149601174647,0.0011759103172342,-0.0012987021533679,0.0012836966695168,-0.0012920225900161,0.0012979905188401,-0.0012979643237719,0.0012844595663167,-0.0012912844320049,0.0012987532664765,-0.00098384629806607,0.00093987075185938,-0.00096416302289434,0.00093216563322694,-0.00098458924764765,0.00093911955289348,-0.00096490690548958,0.00093141536632506,-0.00043915911619079,0.00037918663263253,5.7856209154542e-07,-1.6224327892127e-06,-5.0159096112334e-06,4.0033687056256e-06,-0.0018932752907511,0.0018922605273786,-0.0017566875470952,0.001765251628569,-0.0017776218261586,0.0017757416934665,-0.0017727188716279,0.0017665150384415,-0.0019994449367962,0.001996172097253,-0.0019976361562327,0.002000375936603,-0.0019995917093197,0.0019948436922688,-0.0020002900296345,0.0020015539647908,-0.0017664082892798,0.0017558273405255,-0.0017735432430653,0.0017806314280126,-0.0017757190996924,0.0017798445290678,-0.0017575595194348,0.0017573631905635,-0.0017616536718853,0.0017525461705731,7.7127369589574e-06,2.1822544093277e-05,-0.0011404437204711,0.0011417921351908,5.3467984919053e-06,-3.7075215790167e-06,-0.0011470375197222,0.0011527987995945,-0.0012632684570907,0.0012020389952636,-0.0012678322270606,0.0012565539867554,-0.0011723152601587,0.0012997838769517,-0.0011381976808975,0.0011616775364751,-0.0012544023436371,0.0012108927385134,-0.0012589810142729,0.0012654217132124,-0.0013067480439868,0.0013114776370423,-0.0013097631283611,0.0013084572365901,-0.0013074015003338,0.0013006126195178,-0.0013104234644291,0.0012975988324992,-0.001209090257665,0.0012524414072591,-0.0011893955826257,0.0012011639043916,-0.0011863892094057,0.001204188878896,-0.0012060674163645,0.0012554492838974,-0.0011811893731518,0.0012909406950627,0.71144338471575,122718,2924,0.0043486421220496,0.0078530724880173,0.0047444862520864,37.199128422783,0.00021279302738226,0.00021279302738226,0.00021279302738226,3263368.2741966,0.017091286910734
38880000,0.99873935975216,0.017534231021952,0.0049477013791312,0.0071817463391452,0.0054047833036751,-0.0010508054081758,0.001039678157378,-2.3133423289585e-05,-9.6590566644775e-06,-3.5417600772956e-06,-1.1979259596809e-06,-0.00040344594463203,0.00035535862352586,-0.0011536025638582,0.0011435897364394,-0.0011455826381397,0.0011771241826662,-0.00043163191508308,0.00036608824269056,-0.00040571039584473,0.00035308367314906,-0.0011558697191119,0.0011412817779126,-0.0011478499477516,0.0011748158985283,-0.0013008422212856,0.0012856683280832,-0.0012940636874674,0.0013001576302208,-0.0013000788082558,0.0012864573876016,-0.001293299968843,0.0013009465653547,-0.00098456209289807,0.00094001448303995,-0.00096461280053456,0.00093220241282969,-0.00098533102363178,0.00093923726958606,-0.00096538262797313,0.00093142610601725,-0.00042936820436384,0.00036836461982176,6.1563418972483e-07,-1.662920381955e-06,-5.0503477838553e-06,4.0348530071044e-06,-0.0018965086987933,0.0018954908945547,-0.0017605447721041,0.001769196260794,-0.0017837080347314,0.001781879419111,-0.0017788620158933,0.0017725569133342,-0.0020003032644661,0.0019970315461701,-0.0019984831453553,0.0020012677086291,-0.0020004767235607,0.0019956777907216,-0.0020011322247687,0.0020023888868536,-0.0017703948196378,0.0017597205470597,-0.0017778376815852,0.0017849615685963,-0.0017818011452713,0.0017860216901945,-0.0017631926742576,0.0017629387065432,-0.0017655091470147,0.0017563599837408,7.8367863028197e-06,2.1932267369332e-05,-0.0011388292188016,0.0011402250416146,5.3946018693781e-06,-3.7258648882795e-06,-0.0011422521825145,0.0011482038067448,-0.0012599825198534,0.0011979408144374,-0.0012645109180388,0.0012531848188886,-0.0011684972254571,0.0012983709012196,-0.0011333468962388,0.001157147647785,-0.0012510516128611,0.0012068594780557,-0.0012555949954402,0.0012621175136018,-0.0013072218889021,0.0013120340845267,-0.0013102589164162,0.0013089915304307,-0.0013079818332453,0.0013011314900038,-0.0013110258631512,0.0012980956642104,-0.0012086478180513,0.0012520589385443,-0.0011884655299509,0.0012004377485999,-0.001185437124027,0.0012034849279705,-0.0012056027537133,0.0012550887995184,-0.0011774367537447,0.0012894626251599,0.72623818303098,122718,2924,0.0043485686347165,0.0078663905761434,0.004737923127786,37.19370150434,0.00021274961203472,0.00021274961203472,0.00021274961203472,3196524.173487,0.017098109303972
