time,ASR_ext,ASR_strain,ASR_strain_xx,ASR_strain_yy,ASR_strain_zz,disp_x_101,disp_x_102,disp_x_103,disp_x_104,disp_x_105,disp_x_106,disp_x_p1_neg,disp_x_p1_pos,disp_x_p2_neg,disp_x_p2_pos,disp_x_p3_neg,disp_x_p3_pos,disp_x_p4_neg,disp_x_p4_pos,disp_x_p5_neg,disp_x_p5_pos,disp_x_p6_neg,disp_x_p6_pos,disp_y_101,disp_y_102,disp_y_103,disp_y_104,disp_y_105,disp_y_106,disp_y_p1_neg,disp_y_p1_pos,disp_y_p2_neg,disp_y_p2_pos,disp_y_p3_neg,disp_y_p3_pos,disp_y_p4_neg,disp_y_p4_pos,disp_y_p5_neg,disp_y_p5_pos,disp_y_p6_neg,disp_y_p6_pos,disp_y_p7_neg,disp_y_p7_pos,disp_y_p8_neg,disp_y_p8_pos,disp_z_101,disp_z_102,disp_z_103,disp_z_104,disp_z_105,disp_z_106,disp_z_p1_neg,disp_z_p1_pos,disp_z_p2_neg,disp_z_p2_pos,disp_z_p3_neg,disp_z_p3_pos,disp_z_p4_neg,disp_z_p4_pos,disp_z_p5_neg,disp_z_p5_pos,disp_z_p6_neg,disp_z_p6_pos,humidity,ndof,nelem,strain_xx,strain_yy,strain_zz,temp,thermal_strain_xx,thermal_strain_yy,thermal_strain_zz,vonmises,vstrain
2419200,0,0,0,0,0,0,0,0,0,0,0,0,0,0,0,0,0,0,0,0,0,0,0,0,0,0,0,0,0,0,0,0,0,0,0,0,0,0,0,0,0,0,0,0,0,0,0,0,0,0,0,0,0,0,0,0,0,0,0,0,0,0,0,0,0,0,0,0,0,0,0,0,0,0,0
3419200,0.15985851959806,0.0026637872420334,0.00088792908067778,0.00088792908067778,0.00088792908067778,-0.00023395880677414,0.00023395879877439,-2.7017164717693e-12,-2.701783249141e-12,-2.48016775096e-12,-2.7975276845084e-12,-0.00024198992370529,0.00024198991758436,-0.00024198992413855,0.00024198991801757,-0.0002419899245485,0.00024198991825002,-0.00024198992497863,0.00024198991868011,-0.00023972374383597,0.00023972373770824,-0.00023972374401806,0.0002397237378902,-2.2124570061433e-12,-1.9998943352075e-12,-2.5208260316256e-12,-1.8208738470287e-12,-0.0002404657146983,0.00024046570820068,-0.00024813342836373,0.00024813342303786,-0.00024813342855283,0.00024813342371119,-0.00024813342922008,0.00024813342407725,-0.00024813342940919,0.00024813342475057,-0.00024496328628446,0.00024496328082932,-0.00024496328579127,0.00024496328170007,-0.00024017329793062,0.00024017329318817,-0.00024017329791659,0.00024017329362652,-1.228798240469e-12,-1.2287314189809e-12,-0.00025302169262067,0.00025302168889564,-8.6286656281292e-13,-1.5793681410933e-12,-0.00025979803070504,0.00025979802812091,-0.00025979803180293,0.00025979802873574,-0.00025979803174769,0.0002597980291636,-0.00025979803282549,0.00025979802975835,-0.00025000133330877,0.00025000133032425,-0.0002500013329459,0.00025000132996125,0.75746877217741,125301,3014,0.00097435633408666,0.0010014385377307,0.0010536973616353,31.882660335404,0.00017026128268324,0.00017026128268324,0.00017026128268324,1953674.1734937,0.003034089221615
4419200,0.35025220839431,0.0056258734751997,0.0017857453041272,0.0018516942612733,0.0019884339097992,-0.00043086015099552,0.00043086013729456,-5.1987353880848e-12,-5.1988124886706e-12,-4.7539425350247e-12,-5.0535127804181e-12,-0.00045972317749778,0.00045972316549866,-0.00045972317914154,0.00045972316714237,-0.00045972317976996,0.00045972316763363,-0.0004597231814015,0.00045972316926511,-0.00045862810405035,0.00045862809287577,-0.00045862810512306,0.00045862809394832,-4.4661159622637e-12,-4.5158278147806e-12,-5.8334101584434e-12,-3.7021587659062e-12,-0.0004570173139477,0.00045701730136994,-0.00048694960811861,0.00048694959627988,-0.00048694960913847,0.00048694959877003,-0.00048694961084449,0.00048694959903802,-0.00048694961186435,0.00048694960152817,-0.00048049850704856,0.00048049849497589,-0.00048049850593669,0.00048049849802584,-0.00045455157019871,0.00045455156117742,-0.00045455157084081,0.0004545515618024,-3.4589188471094e-12,-3.4588407906704e-12,-0.00051463038883013,0.00051463037974251,-2.3028476054687e-12,-4.5108329545025e-12,-0.00054719172013695,0.00054719171312219,-0.00054719172413517,0.00054719171562618,-0.00054719172367728,0.00054719171666257,-0.00054719172760358,0.00054719171909465,-0.00049931082089523,0.00049931081284914,-0.00049931081919765,0.0004993108111514,0.73992840791513,125301,3014,0.0017937031025081,0.0019024473915342,0.0021419510263649,33.607449932253,0.00018405959945802,0.00018405959945802,0.00018405959945802,3438510.9476284,0.005855208066794
5419200,0.54976233062956,0.0085503172257494,0.0026274018515783,0.0027799827372163,0.0031429326369548,-0.00061225637134244,0.00061225637069779,5.3558875577821e-13,5.3558202068985e-13,2.885339207809e-13,6.2676666153225e-13,-0.00067689847657604,0.00067689847640389,-0.0006768984773847,0.00067689847721255,-0.0006768984774329,0.00067689847744957,-0.0006768984782346,0.00067689847825126,-0.00067102900781934,0.00067102900875482,-0.00067102900800605,0.00067102900894152,-7.3466994058624e-14,-6.4933138763653e-13,-7.7121271640553e-13,4.7315896394781e-13,-0.00066099048889919,0.00066099048671391,-0.00072807454129367,0.00072807453938574,-0.00072807454172029,0.00072807454064903,-0.000728074542537,0.00072807454019584,-0.00072807454296364,0.00072807454145912,-0.00071200074407149,0.00071200074234114,-0.00071200074272728,0.00071200074343592,-0.00065606422826579,0.00065606422769601,-0.00065606422843527,0.00065606422676022,-1.5622793616732e-12,-1.5622675973267e-12,-0.00078434079243148,0.00078434078817639,-7.5726871890162e-13,-2.0890403577216e-12,-0.00086148203022242,0.00086148202707384,-0.00086148203150901,0.0008614820274463,-0.00086148203093949,0.00086148202779091,-0.000861482032187,0.00086148202812428,-0.00075352810429094,0.00075352810035643,-0.00075352810510436,0.0007535281011698,0.72499638738019,125301,3014,0.0025480751242281,0.0027504484483904,0.0032625813683853,36.279054088824,0.0002054324327106,0.0002054324327106,0.0002054324327106,4171706.9142187,0.0085979812680732
6419200,0.70597455593338,0.010380619427808,0.0031501428293442,0.0033505116950543,0.0038799649034098,-0.00071133553675565,0.00071133553643464,1.749106565995e-13,1.7485833466849e-13,5.9647854269584e-14,5.6094658405514e-13,-0.00081474158668111,0.00081474158661114,-0.00081474158723011,0.00081474158716011,-0.00081474158707565,0.00081474158730694,-0.00081474158762546,0.00081474158785672,-0.00078749378539312,0.00078749378603477,-0.00078749378557686,0.00078749378621841,-1.4716998590538e-14,-6.0337953408118e-13,-6.239632366051e-13,-1.3426839503323e-14,-0.00077238556142702,0.00077238555985716,-0.00087944798640755,0.00087944798523796,-0.00087944798681979,0.00087944798605585,-0.00087944798718088,0.0008794479855804,-0.00087944798759313,0.00087944798639827,-0.00083868706068402,0.00083868705943666,-0.00083868706009391,0.00083868706005293,-0.00076249088795338,0.00076249088770626,-0.00076249088828859,0.00076249088691142,-9.0209426516883e-13,-9.0203653163844e-13,-0.00094461269310366,0.00094461269058649,-5.0588364854297e-13,-1.169429568847e-12,-0.0010687908890508,0.0010687908873585,-0.0010687908898392,0.0010687908876876,-0.0010687908894726,0.0010687908877803,-0.0010687908902605,0.0010687908881089,-0.0008992053668475,0.00089920536461881,-0.0008992053668126,0.00089920536458378,0.59839168540088,125301,3014,0.0029600156224525,0.0032133568210983,0.0039278578273145,36.740630765487,0.0002091250461239,0.0002091250461239,0.0002091250461239,4324922.8217755,0.010152671613004
7419200,0.83162073786069,0.011660628219071,0.0035276786758518,0.003752354381281,0.0043805951619387,-0.00078093837775147,0.00078093837662788,-1.8687840863995e-14,-1.8660282882343e-14,-1.9477215278561e-13,3.5512296006087e-13,-0.00091608192435589,0.0009160819238559,-0.00091608192487415,0.00091608192437419,-0.00091608192476841,0.00091608192460895,-0.00091608192528777,0.00091608192512833,-0.00086822826899378,0.00086822826914685,-0.00086822826913149,0.00086822826928461,-2.1723202222991e-13,-8.1960359402574e-13,-6.1136319873349e-13,-3.558437518624e-13,-0.00084772665763707,0.00084772665539182,-0.00098739621699275,0.00098739621558661,-0.00098739621747671,0.00098739621624276,-0.00098739621783541,0.0009873962159982,-0.0009873962183194,0.00098739621665434,-0.00092427295165974,0.00092427295036353,-0.00092427295133703,0.00092427295055102,-0.00083506351477915,0.00083506351395953,-0.00083506351530311,0.00083506351333089,-8.5037716862005e-13,-8.5039831503286e-13,-0.0010501626908328,0.0010501626882759,-6.286641035667e-13,-9.3140703144865e-13,-0.0012127245728366,0.0012127245711547,-0.0012127245734732,0.0012127245715742,-0.0012127245732597,0.0012127245715778,-0.0012127245739014,0.0012127245720023,-0.00099574237292995,0.00099574237087568,-0.00099574237287465,0.00099574237082041,0.52694121020036,125301,3014,0.0032493537481433,0.0035263705580663,0.0043657297012455,40.779745466383,0.00024143796373107,0.00024143796373107,0.00024143796373107,4276958.7988226,0.011204134311306
8419200,0.90749727794323,0.01235239468166,0.0037377406646569,0.0039714671602531,0.0046431868567501,-0.00080751293903755,0.00080751294027018,7.6244179616178e-13,7.6245447224513e-13,5.1593785609971e-13,1.1401644187596e-12,-0.00096580718065699,0.00096580718201704,-0.00096580718100476,0.00096580718236484,-0.00096580718082913,0.00096580718257117,-0.0009658071811789,0.00096580718292095,-0.00090006909019443,0.00090006909215436,-0.0009000690903334,0.00090006909229336,4.6569009655707e-13,-1.6582938071743e-13,3.6850921564201e-13,7.5929005846083e-14,-0.0008751048963222,0.00087510489620193,-0.0010380123037912,0.0010380123042826,-0.0010380123042815,0.0010380123045743,-0.001038012304397,0.0010380123044288,-0.0010380123048874,0.0010380123047205,-0.00095697307512681,0.00095697307596873,-0.00095697307532015,0.00095697307560162,-0.00086305553306607,0.00086305553366196,-0.00086305553374528,0.00086305553312185,-2.7652669935797e-13,-2.765339932528e-13,-0.0010908168874347,0.0010908168865561,-3.3257619296677e-13,-7.9924499537872e-14,-0.0012783020438518,0.0012783020433568,-0.001278302044014,0.0012783020436749,-0.0012783020439648,0.0012783020434698,-0.0012783020441387,0.0012783020437996,-0.0010350171010512,0.0010350171004684,-0.0010350171009978,0.0010350171004149,0.47156008474719,125301,3014,0.003359878992928,0.0036401599948717,0.004534308262128,41.436352883139,0.00024669082306511,0.00024669082306511,0.00024669082306511,4042358.9381184,0.011601630945907
9419200,0.9495169341131,0.012684437295061,0.0038412213624333,0.0040775960897502,0.004765619842877,-0.00081393365704178,0.00081393365924626,1.0901231680737e-12,1.0901408440043e-12,8.0704330126348e-13,1.4648044865225e-12,-0.0009870891148421,0.00098708911700312,-0.00098708911509233,0.00098708911725339,-0.00098708911490106,0.00098708911746244,-0.00098708911515347,0.00098708911771486,-0.0009081990022002,0.00090819900491686,-0.00090819900235053,0.00090819900506722,7.6751684921638e-13,1.2315078010761e-13,8.9656232938626e-13,1.826010284539e-13,-0.00088030507243063,0.00088030507324307,-0.0010579860361985,0.001057986037616,-0.001057986036725,0.0010579860376616,-0.0010579860366989,0.0010579860376449,-0.0010579860372255,0.0010579860376905,-0.00096421311938861,0.00096421312135915,-0.00096421311999079,0.00096421312057667,-0.00086963408229507,0.00086963408345632,-0.00086963408306771,0.00086963408298046,2.9430365628414e-14,2.9418218940664e-14,-0.0010997052359285,0.0010997052359194,-2.3683350019326e-13,4.3926719833568e-13,-0.0013021224632869,0.0013021224633885,-0.0013021224631561,0.0013021224636968,-0.0013021224632454,0.0013021224633471,-0.001302122463129,0.0013021224636697,-0.001045195872576,0.0010451958728144,-0.0010451958725222,0.0010451958727606,0.40621133923259,125301,3014,0.0033866381823538,0.0036618296631466,0.0045711496118484,41.144138656008,0.00024435310924806,0.00024435310924806,0.00024435310924806,3801970.1866346,0.011687984898522
10419200,0.97053352921095,0.012865139593293,0.0038986761341873,0.0041358695598166,0.0048305938992888,-0.00081127064411075,0.00081127064853551,1.8332841708976e-12,1.8333284048404e-12,1.4952573944424e-12,2.2039010105722e-12,-0.00099198700332989,0.00099198700728922,-0.00099198700339162,0.00099198700735101,-0.00099198700314034,0.00099198700752368,-0.00099198700320507,0.00099198700758845,-0.00090680243660885,0.0009068024410321,-0.00090680243678435,0.00090680244120768,1.436708503728e-12,7.7894152372408e-13,1.8693064022446e-12,6.010860116605e-13,-0.00087674858183082,0.00087674858471158,-0.0010618997505168,0.00106189975382,-0.0010618997510359,0.0010618997534827,-0.0010618997507615,0.0010618997535734,-0.0010618997512807,0.0010618997532361,-0.00096213722365429,0.00096213722773922,-0.00096213722480589,0.00096213722642348,-0.00086758499726633,0.00086758499979168,-0.00086758499814778,0.00086758499938837,6.026908823249e-13,6.0265267760967e-13,-0.0010972230209583,0.0010972230226327,5.6065963693883e-14,1.2924055178986e-12,-0.0013069862739014,0.0013069862752034,-0.0013069862732826,0.0013069862753994,-0.0013069862735389,0.0013069862748409,-0.00130698627294,0.0013069862750567,-0.0010443931316412,0.0010443931333572,-0.0010443931315947,0.0010443931333107,0.43665130715676,125301,3014,0.0033756274864714,0.0036471067945884,0.0045608418664552,38.086342961393,0.00021989074369114,0.00021989074369114,0.00021989074369114,3684501.6416511,0.011651578508422
11419200,0.982679773138,0.012962160553557,0.0039297625903546,0.0041672568879615,0.004865141075241,-0.00080985693297381,0.00080985693560652,1.237119736253e-12,1.2371759110075e-12,9.2405465311759e-13,1.6099114212523e-12,-0.00099885416221296,0.00099885416470616,-0.00099885416240434,0.0009988541648976,-0.0009988541622185,0.00099885416512921,-0.00099885416241112,0.00099885416532187,-0.00090530310011341,0.00090530310318128,-0.00090530310027346,0.00090530310334142,9.1983699123586e-13,2.5386479607533e-13,1.4466641946482e-12,-5.0063487397445e-14,-0.00087365955616582,0.00087365955743516,-0.0010670608686441,0.0010670608706924,-0.0010670608693594,0.0010670608704114,-0.0010670608691105,0.0010670608706727,-0.0010670608698258,0.0010670608703917,-0.00095929793957494,0.0009592979426725,-0.0009592979409361,0.00095929794111396,-0.00086607819643841,0.00086607819770479,-0.00086607819729923,0.00086607819727279,2.4497451619669e-13,2.4492298835906e-13,-0.001092723557648,0.0010927235582291,-4.0264108194427e-13,1.0495708480958e-12,-0.0013100025209462,0.0013100025212809,-0.0013100025204778,0.0013100025217669,-0.0013100025208306,0.0013100025211652,-0.0013100025203769,0.0013100025216659,-0.0010423932705912,0.0010423932715673,-0.0010423932705425,0.0010423932715188,0.40445605707229,125301,3014,0.0033698056626372,0.0036343317989564,0.0045421783961267,37.625922124146,0.00021620737699317,0.00021620737699317,0.00021620737699317,3501432.4093573,0.011613953585544
12419200,0.98964669382457,0.01302506695942,0.0039501269954057,0.0041877112095874,0.0048872287544266,-0.00080847808512051,0.00080847808807893,1.3424993993296e-12,1.3425569563948e-12,1.0233392376887e-12,1.710489054557e-12,-0.001000553441824,0.0010005534445831,-0.0010005534419822,0.0010005534447414,-0.0010005534417939,0.0010005534449697,-0.0010005534419534,0.0010005534451293,-0.00090433047745721,0.00090433048077001,-0.00090433047762447,0.00090433048093737,1.0138963019136e-12,3.5361435173605e-13,1.6250954569309e-12,-2.2788923586546e-14,-0.00087158059961762,0.00087158060120168,-0.0010680412495926,0.0010680412519474,-0.0010680412503231,0.0010680412515807,-0.0010680412500198,0.0010680412518904,-0.0010680412507504,0.0010680412515237,-0.00095774680226011,0.000957746805745,-0.00095774680377215,0.0009577468040414,-0.00086490046238045,0.00086490046382189,-0.00086490046325828,0.00086490046341676,3.4205919738514e-13,3.4200687545413e-13,-0.0010901083346954,0.0010901083355655,-3.8060394634011e-13,1.2229821975569e-12,-0.0013103658300741,0.0013103658305976,-0.0013103658295067,0.0013103658310855,-0.001310365829909,0.0013103658304324,-0.001310365829357,0.0013103658309358,-0.0010408974500621,0.0010408974513101,-0.0010408974500108,0.0010408974512589,0.45322610794666,125301,3014,0.0033640958496487,0.0036257175643729,0.0045313299172153,36.800418768517,0.00020960335014813,0.00020960335014813,0.00020960335014813,3437739.0899243,0.011588513393704
13419200,0.99353746779418,0.013057247868533,0.0039605785827122,0.0041981876072802,0.0048984816785409,-0.00080252070824454,0.00080252071214723,1.6573200170699e-12,1.6574106025379e-12,1.3201611405716e-12,2.0152675526067e-12,-0.00099975608523556,0.0009997560887121,-0.00099975608531605,0.00099975608879267,-0.00099975608511141,0.00099975608900624,-0.00099975608519336,0.00099975608908826,-0.00089812534198545,0.00089812534602644,-0.00089812534216198,0.00089812534620313,1.2990966714417e-12,6.3992738080484e-13,2.046346366957e-12,1.5735965393787e-13,-0.00086439376814114,0.00086439377062312,-0.0010660668948349,0.0010660668979564,-0.0010660668955662,0.0010660668974279,-0.0010660668951616,0.0010660668977955,-0.0010660668958929,0.001066066897267,-0.00095051798141644,0.00095051798582861,-0.00095051798316551,0.00095051798389081,-0.00085878229201183,0.00085878229404239,-0.00085878229292908,0.0008587822936747,5.8088937187549e-13,5.8080558031761e-13,-0.001081220357306,0.0010812203589063,-2.6216282934081e-13,1.5838541584603e-12,-0.0013062338346758,0.0013062338356729,-0.0013062338339094,0.0013062338361241,-0.001306233834386,0.0013062338353831,-0.0013062338336365,0.0013062338358511,-0.0010337827647186,0.0010337827665992,-0.0010337827646799,0.0010337827665607,0.4150894025916,125301,3014,0.0033393855342675,0.0035959126051596,0.0044944697627543,34.785275958925,0.0001934822076714,0.0001934822076714,0.0001934822076714,3320508.9609281,0.011496131113062
14419200,0.99578445006623,0.013074453838332,0.0039661981335604,0.0042038028377418,0.0049044528670301,-0.00079733185322803,0.00079733185725127,1.6930860715003e-12,1.6931707453842e-12,1.3516613841431e-12,2.052524208559e-12,-0.00099506299144148,0.00099506299503289,-0.00099506299150618,0.00099506299509765,-0.0009950629912989,0.00099506299531121,-0.00099506299136483,0.00099506299537721,-0.00089324954233557,0.00089324954646211,-0.00089324954252003,0.00089324954664674,1.3319249211031e-12,6.7240616433559e-13,2.1837269012341e-12,8.9018201769425e-14,-0.00085905939869868,0.0008590594012958,-0.0010611951403679,0.0010611951436687,-0.001061195141149,0.0010611951430546,-0.0010611951406768,0.0010611951434888,-0.001061195141458,0.0010611951428747,-0.00094551873334929,0.00094551873804339,-0.00094551873530508,0.00094551873590873,-0.00085374722489815,0.00085374722693997,-0.00085374722582867,0.00085374722658437,6.295038279137e-13,6.2942491855962e-13,-0.0010758680500368,0.0010758680517726,-3.1433601489757e-13,1.7358330744323e-12,-0.0013014451334632,0.0013014451345228,-0.0013014451326062,0.0013014451350189,-0.0013014451331505,0.00130144513421,-0.0013014451323108,0.0013014451347235,-0.0010286613341198,0.0010286613361755,-0.0010286613340715,0.0010286613361274,0.38312450045663,125301,3014,0.0033178380463904,0.003573766505968,0.0044722666725719,32.633969293234,0.00017627175434587,0.00017627175434587,0.00017627175434587,3313948.5204281,0.011429480169456
15419200,0.99695394398126,0.013086459663901,0.003970121038601,0.0042077253291002,0.0049086132962002,-0.0007854437700329,0.00078544377659633,2.5364703949235e-12,2.5365486866494e-12,2.1460131907701e-12,2.8880176995123e-12,-0.00098370227318651,0.00098370227880185,-0.00098370227304429,0.00098370227865969,-0.00098370227276674,0.00098370227881875,-0.00098370227262699,0.00098370227867906,-0.00088178963815975,0.00088178964422582,-0.00088178963837649,0.00088178964444268,2.0870671805525e-12,1.4240323681122e-12,3.1544610479024e-12,6.8919247022951e-13,-0.00084732281978312,0.00084732282473926,-0.0010499464809324,0.0010499464862567,-0.001049946481631,0.0010499464853038,-0.0010499464809452,0.0010499464857653,-0.0010499464816438,0.0010499464848124,-0.00093419599530496,0.00093419600214862,-0.00093419599764079,0.00093419599967225,-0.0008422121239264,0.0008422121275967,-0.00084221212494613,0.00084221212731198,1.2404089887098e-12,1.2403338439466e-12,-0.0010647135407624,0.0010647135443405,1.0468528723045e-13,2.5340817178959e-12,-0.0012907740454,0.0012907740478124,-0.001290774044088,0.0012907740481094,-0.0012907740447342,0.0012907740471466,-0.0012907740434454,0.0012907740474668,-0.0010176066814232,0.0010176066849978,-0.0010176066813828,0.0010176066849575,0.51103778709309,125301,3014,0.003268472722466,0.0035250402031641,0.0044259916704357,27.044461048685,0.00013155568838948,0.00013155568838948,0.00013155568838948,3330984.2635562,0.011283480564101
16419200,0.99770545083652,0.013093461589363,0.0039724073980395,0.0042100113350761,0.0049110428562476,-0.00077676434601211,0.00077676435042615,1.8242554467189e-12,1.8243417087895e-12,1.4684504780812e-12,2.1809135657641e-12,-0.00098147084461109,0.00098147084844952,-0.00098147084464324,0.00098147084848175,-0.00098147084443422,0.00098147084870048,-0.00098147084446706,0.00098147084873339,-0.00087248705501955,0.00087248705946119,-0.00087248705520707,0.00087248705964887,1.4631175555634e-12,7.896623984146e-13,2.5535947890644e-12,-1.4952779013986e-14,-0.000836983209967,0.00083698321295924,-0.0010462255488458,0.001046225552564,-0.0010462255497458,0.0010462255517574,-0.0010462255491292,0.001046225552349,-0.0010462255500293,0.0010462255515424,-0.00092348013638201,0.00092348014185067,-0.00092348013879701,0.00092348013924558,-0.00083314643214519,0.00083314643434423,-0.00083314643311485,0.00083314643399854,7.5601158083574e-13,7.5593787720498e-13,-0.0010515358143054,0.001051535816428,-4.1806464017692e-13,2.1012403967835e-12,-0.0012836402333086,0.0012836402344723,-0.0012836402322538,0.0012836402350817,-0.0012836402329544,0.001283640234118,-0.0012836402319164,0.0012836402347443,-0.0010067395093901,0.0010067395119004,-0.0010067395093549,0.0010067395118654,0.46538451425637,125301,3014,0.003232462472003,0.0034821528728301,0.0043713419502579,24.406322703274,0.00011045058162619,0.00011045058162619,0.00011045058162619,3176840.807152,0.011148501741522
17419200,0.99821024214533,0.013098805450468,0.0039741638311134,0.00421176192938,0.0049128796899742,-0.0007705791189763,0.00077057912324515,1.768980958846e-12,1.7690747500984e-12,1.4182081011866e-12,2.1255144787564e-12,-0.00097444553325113,0.00097444553701326,-0.00097444553328709,0.0009744455370493,-0.00097444553308344,0.00097444553726957,-0.00097444553311989,0.00097444553730609,-0.00086675931066986,0.0008667593149849,-0.0008667593108651,0.00086675931518032,1.4093972701102e-12,7.4502942000969e-13,2.5378678821025e-12,-1.0224761592183e-13,-0.00083090469994477,0.00083090470280114,-0.0010392294228157,0.001039229426482,-0.0010392294237417,0.001039229425655,-0.0010392294231052,0.0010392294262786,-0.0010392294240312,0.0010392294254516,-0.00091784508672443,0.0009178450921497,-0.00091784508921725,0.00091784508948166,-0.00082723512550209,0.00082723512755711,-0.00082723512646759,0.00082723512722584,7.3548353148297e-13,7.353949459539e-13,-0.0010458028407431,0.001045802842795,-4.7323544004097e-13,2.1163564644098e-12,-0.0012771809032092,0.0012771809043299,-0.0012771809021386,0.0012771809049699,-0.0012771809028644,0.001277180903985,-0.001277180901811,0.0012771809046423,-0.0010009230406442,0.0010009230431262,-0.0010009230405923,0.0010009230430745,0.52521873377382,125301,3014,0.0032067657621972,0.0034569047509989,0.0043475530647219,21.969289879817,9.0954319038532e-05,9.0954319038532e-05,9.0954319038532e-05,3196607.4501654,0.011072923915847
18419200,0.99852385911858,0.013101991922163,0.0039752105746801,0.0042128052876436,0.0049139760598392,-0.000758911645089,0.00075891165088484,2.2743843132381e-12,2.2744633108248e-12,1.896894021778e-12,2.6200069458804e-12,-0.00096612656611832,0.00096612657104814,-0.0009661265660295,0.00096612657095938,-0.00096612656579337,0.00096612657115162,-0.00096612656570576,0.00096612657106407,-0.00085493415151102,0.0008549341569967,-0.00085493415172505,0.00085493415721087,1.8662190341736e-12,1.2026675460967e-12,3.110318180444e-12,2.8104323187733e-13,-0.00081844489688328,0.00081844490117947,-0.0010301841048914,0.0010301841097298,-0.0010301841057563,0.0010301841087101,-0.0010301841050125,0.0010301841093518,-0.0010301841058774,0.001030184108332,-0.00090534381574057,0.00090534382244996,-0.00090534381842765,0.00090534381960816,-0.00081548660019098,0.00081548660325372,-0.00081548660121121,0.00081548660297212,1.1038349844813e-12,1.10375786919e-12,-0.0010320462660079,0.001032046269199,-2.0295397636592e-13,2.5808302015265e-12,-0.0012665916152641,0.0012665916171878,-0.0012665916139386,0.0012665916177043,-0.0012665916147177,0.0012665916166413,-0.001266591613412,0.0012665916171775,-0.00098834747225555,0.00098834747565662,-0.00098834747221562,0.00098834747561683,0.50516361584657,125301,3014,0.0031583239040772,0.0034051882674103,0.0042904897937693,17.466071131896,5.492856905517e-05,5.492856905517e-05,5.492856905517e-05,3127062.8931163,0.010914010176701
19419200,0.99878374193248,0.01310542472606,0.0039763411266908,0.0042139313433465,0.0049151522560223,-0.00075810727063219,0.0007581072730921,1.1682171352978e-12,1.1683008974448e-12,8.5193895914371e-13,1.5267951074575e-12,-0.00096512960645013,0.0009651296087895,-0.00096512960662841,0.00096512960896786,-0.0009651296064805,0.00096512960923059,-0.00096512960665805,0.0009651296094082,-0.00085422928926582,0.00085422929219828,-0.0008542292894461,0.00085422929237871,8.7306861794689e-13,2.1524628650605e-13,1.9850927014497e-12,-6.5783279112532e-13,-0.00081747428312574,0.00081747428431531,-0.0010289758463612,0.0010289758487001,-0.0010289758474259,0.0010289758480197,-0.0010289758468619,0.0010289758487216,-0.0010289758479266,0.0010289758480412,-0.00090450214482149,0.00090450214898997,-0.00090450214731007,0.00090450214630809,-0.00081472312168235,0.00081472312249418,-0.00081472312259942,0.00081472312213569,3.2920856055151e-13,3.2913053352342e-13,-0.0010307974606475,0.0010307974614556,-8.7246639086829e-13,1.7107062096878e-12,-0.0012651658273657,0.001265165827509,-0.0012651658265271,0.0012651658283735,-0.0012651658272695,0.0012651658274127,-0.0012651658264439,0.0012651658282903,-0.00098728906502434,0.0009872890665727,-0.00098728906495722,0.00098728906650573,0.65325215552177,125301,3014,0.0031549771354343,0.0034011535237446,0.0042853088242653,17.551719729995,5.561375783996e-05,5.561375783996e-05,5.561375783996e-05,3117862.7435599,0.010901306324763
20419200,0.99900994261163,0.013108624576202,0.0039773953507563,0.0042149810250629,0.0049162482003829,-0.00075711693968498,0.0007571169414549,9.4126589203193e-13,9.4134471315341e-13,6.4273618838005e-13,1.2890346061717e-12,-0.00096969201959708,0.00096969202137959,-0.00096969201983138,0.00096969202161396,-0.0009696920197122,0.00096969202189045,-0.00096969201994572,0.00096969202212403,-0.00085242778214274,0.00085242778454917,-0.0008524277823126,0.00085242778471917,6.6651196948537e-13,2.3450728449284e-14,1.6782041401037e-12,-7.6035135425014e-13,-0.00081461881720309,0.00081461881776762,-0.0010319118790412,0.0010319118807926,-0.0010319118800956,0.0010319118802389,-0.0010319118796241,0.0010319118809101,-0.0010319118806785,0.0010319118803564,-0.0009010711337089,0.00090107113721662,-0.00090107113599154,0.00090107113472842,-0.00081305536024402,0.00081305536064813,-0.00081305536113719,0.00081305536029816,1.521496460504e-13,1.5208576564896e-13,-0.0010242033369985,0.0010242033372935,-9.4737567597046e-13,1.4309803874726e-12,-0.0012641011933814,0.0012641011931594,-0.0012641011927012,0.0012641011940457,-0.0012641011933831,0.0012641011931611,-0.0012641011927137,0.0012641011940582,-0.00098290196791479,0.0009829019689994,-0.00098290196785154,0.00098290196893626,0.70012779305903,125301,3014,0.0031508866301269,0.0033893320048497,0.0042579791222063,18.600074112914,6.4000592903309e-05,6.4000592903309e-05,6.4000592903309e-05,2958153.2406082,0.010857654259845
21419200,0.99916372892071,0.013110650034417,0.0039780667857942,0.0042156472459428,0.00491693600268,-0.00074712673154646,0.00074712673659992,2.0186111563442e-12,2.0187774747927e-12,1.6658570945034e-12,2.3475339609195e-12,-0.0009617661907702,0.00096176619509485,-0.00096176619072937,0.00096176619505416,-0.00096176619053785,0.00096176619526725,-0.0009617661904981,0.0009617661952276,-0.00084244704251335,0.0008424470474186,-0.0008424470427308,0.00084244704763636,1.6352576352098e-12,1.0004598336976e-12,2.7796808643672e-12,1.6660962566594e-13,-0.00080382922749198,0.00080382923114106,-0.0010232129255606,0.0010232129297754,-0.0010232129264024,0.0010232129288776,-0.0010232129257689,0.0010232129295074,-0.0010232129266107,0.0010232129286097,-0.00089039771655533,0.00089039772257071,-0.00089039771903786,0.00089039771994732,-0.00080303616879594,0.00080303617141739,-0.00080303616979462,0.00080303617117467,9.3906857680546e-13,9.388976114401e-13,-0.0010118575464282,0.0010118575491649,-2.5930868123896e-13,2.3075082277958e-12,-0.0012538397150059,0.0012538397166097,-0.0012538397138452,0.001253839717146,-0.0012538397145656,0.0012538397161692,-0.001253839713422,0.0012538397167226,-0.000971616351664,0.00097161635463658,-0.0009716163516104,0.00097161635458332,0.64990944923706,125301,3014,0.0031093955277278,0.0033445363088142,0.004206764298455,15.216724422331,3.6933795378648e-05,3.6933795378648e-05,3.6933795378648e-05,2902238.8327796,0.010718687216567
22419200,0.99929110124084,0.013112373788067,0.0039786393722554,0.0042162148875155,0.0049175195282959,-0.00074528971229745,0.00074528971513419,1.2863214096463e-12,1.2865021394192e-12,9.7047713200155e-13,1.6292367132309e-12,-0.00095864861643542,0.0009586486190688,-0.00095864861657354,0.00095864861920706,-0.00095864861643439,0.00095864861946634,-0.00095864861657227,0.00095864861960433,-0.00084077886030357,0.00084077886351287,-0.00084077886050007,0.00084077886370973,9.767026007533e-13,3.4007104121018e-13,2.0530703591539e-12,-4.8235533089688e-13,-0.0008020920823644,0.00080209208393509,-0.0010200419278021,0.0010200419303939,-0.001020041928793,0.0010200419297075,-0.0010200419282606,0.0010200419303853,-0.0010200419292514,0.0010200419296989,-0.00088884376341708,0.00088884376777432,-0.0008888437658146,0.00088884376521343,-0.00080135593187488,0.00080135593297936,-0.00080135593281169,0.00080135593268107,4.2538194605001e-13,4.2520774548937e-13,-0.0010103949641517,0.0010103949652853,-7.2609518593754e-13,1.7534510362156e-12,-0.0012509601319437,0.0012509601323656,-0.001250960131088,0.0012509601331453,-0.0012509601317978,0.0012509601322195,-0.0012509601309552,0.0012509601330124,-0.00097005223553652,0.00097005223728419,-0.00097005223545917,0.00097005223720717,0.66642562144511,125301,3014,0.0031017514777266,0.0033373083035858,0.0042006898106255,14.857990881885,3.4063927055081e-05,3.4063927055081e-05,3.4063927055081e-05,2917312.4808922,0.010697499926686
23419200,0.99940423083326,0.013113816046284,0.0039791183174498,0.0042166896923004,0.0049180080365343,-0.00074598936969334,0.00074598937163885,9.931083965143e-13,9.9330053770334e-13,6.9676874360493e-13,1.3346295515127e-12,-0.00096031848013565,0.00096031848207148,-0.00096031848034748,0.00096031848228346,-0.00096031848023466,0.00096031848255953,-0.00096031848044592,0.00096031848277093,-0.00084119984598731,0.00084119984851627,-0.00084119984617122,0.00084119984870056,7.1070847311537e-13,8.1678905500798e-14,1.7017278107181e-12,-6.7673066874264e-13,-0.00080229880356664,0.0008022988043083,-0.0010212246134667,0.0010212246153471,-0.0010212246144793,0.0010212246147897,-0.0010212246140276,0.0010212246154505,-0.0010212246150401,0.0010212246148931,-0.00088884464000988,0.00088884464359045,-0.00088884464224677,0.00088884464117511,-0.00080185192520545,0.00080185192574201,-0.00080185192610784,0.00080185192542844,2.1036666167818e-13,2.1018034384065e-13,-0.0010095617355755,0.0010095617360523,-8.6097722714847e-13,1.4590969402959e-12,-0.0012510183267992,0.0012510183267553,-0.0012510183261113,0.0012510183275956,-0.0012510183267759,0.001251018326732,-0.0012510183260992,0.0012510183275834,-0.00096976944857174,0.00096976944977213,-0.00096976944849282,0.00096976944969357,0.62875729639221,125301,3014,0.0031046569235526,0.0033381702623599,0.0041972408350361,15.70795110426,4.0863608834077e-05,4.0863608834077e-05,4.0863608834077e-05,2876834.1594811,0.01069783380296
24419200,0.99951104125085,0.01311525392553,0.0039795963378915,0.0042171634087302,0.0049184941789081,-0.00075026799492885,0.00075026799588223,6.6473763389805e-13,6.6493809836223e-13,3.9100224632624e-13,1.006975722877e-12,-0.00096370191664282,0.00096370191780558,-0.00096370191693625,0.00096370191809917,-0.00096370191685112,0.00096370191839286,-0.00096370191714363,0.00096370191868551,-0.00084543777958184,0.00084543778134968,-0.00084543777975199,0.00084543778152023,4.1126336160883e-13,-2.0831662320251e-13,1.2873456334121e-12,-8.7799337766947e-13,-0.00080655736834331,0.00080655736815649,-0.00102451081752,0.0010245108185949,-0.0010245108185437,0.0010245108181933,-0.0010245108181922,0.0010245108188206,-0.0010245108192159,0.001024510818419,-0.00089308242760304,0.0008930824302728,-0.00089308242962405,0.00089308242805781,-0.00080611481028343,0.00080611481019352,-0.00080611481114112,0.00080611480985846,-3.0942231206665e-14,-3.1138284040914e-14,-0.0010137416635507,0.0010137416632901,-9.9441979762837e-13,1.1101866286782e-12,-0.0012542314437,0.0012542314431511,-0.0012542314432104,0.0012542314440451,-0.0012542314438121,0.0012542314432631,-0.0012542314433317,0.0012542314441663,-0.00097391786406389,0.00097391786463709,-0.00097391786398072,0.0009739178645543,0.66255127740754,125301,3014,0.003122419194767,0.0033558459892208,0.0042145827190017,17.887330807772,5.8298646462177e-05,5.8298646462177e-05,5.8298646462177e-05,2877762.9595623,0.010751169231549
25419200,0.99960841194231,0.013116799032982,0.0039801097494685,0.0042176724639253,0.0049190168195885,-0.00075367215881976,0.00075367215987573,6.9913528895565e-13,6.9932693015997e-13,4.264440753674e-13,1.0352208747129e-12,-0.0009686252864733,0.0009686252877167,-0.00096862528675802,0.00096862528800158,-0.00096862528667418,0.00096862528829167,-0.00096862528695829,0.00096862528857589,-0.00084844548646192,0.00084844548830678,-0.00084844548663323,0.00084844548847848,4.3959465973878e-13,-1.7257517096169e-13,1.2553211181729e-12,-7.7730938439019e-13,-0.00080929284339048,0.00080929284330433,-0.0010288375669027,0.0010288375680092,-0.0010288375678758,0.001028837567643,-0.0010288375675622,0.0010288375682268,-0.0010288375685353,0.0010288375678606,-0.00089550552270258,0.00089550552532308,-0.00089550552459541,0.00089550552324074,-0.00080919496859744,0.0008091949686189,-0.00080919496945602,0.00080919496829901,-1.5420087750433e-14,-1.5608581992064e-14,-0.0010149994879936,0.0010149994877927,-9.1519967363113e-13,1.0591668343567e-12,-0.0012570115590129,0.0012570115585469,-0.0012570115585533,0.001257011559385,-0.0012570115591112,0.0012570115586451,-0.0012570115586609,0.0012570115594924,-0.0009758825326905,0.00097588253326007,-0.00097588253260935,0.00097588253317929,0.77991302017261,125301,3014,0.0031365615906365,0.003367214002984,0.0042198138476081,19.931984406742,7.4655875253938e-05,7.4655875253938e-05,7.4655875253938e-05,2822002.4820986,0.01078225917043
26419200,0.99968822928889,0.013118147516678,0.0039805586487142,0.0042181171303668,0.0049194717375965,-0.00075236255599572,0.00075236255824087,1.0918634384391e-12,1.0920607853515e-12,7.9881261152893e-13,1.4170330341429e-12,-0.00097117018776308,0.00097117018992495,-0.00097117018794858,0.0009711701901106,-0.00097117018784148,0.00097117019037884,-0.00097117018802721,0.0009711701905647,-0.00084657031213137,0.00084657031488511,-0.00084657031232029,0.00084657031507443,7.9376966580575e-13,1.8585291607099e-13,1.6296205117083e-12,-4.0537195276322e-13,-0.0008065691287142,0.00080656912975341,-0.0010301914650975,0.001030191467079,-0.0010301914659751,0.0010301914666092,-0.0010301914656244,0.0010301914671612,-0.001030191466502,0.0010301914666914,-0.0008923694453278,0.00089236944880928,-0.00089236944723414,0.00089236944673864,-0.0008073564656274,0.000807356466479,-0.00080735646653243,0.00080735646620863,2.6576199880042e-13,2.6557468099344e-13,-0.0010091230733495,0.0010091230740289,-6.404601402647e-13,1.3424305631972e-12,-0.0012552019324403,0.0012552019326425,-0.0012552019318279,0.0012552019333357,-0.0012552019323802,0.0012552019325823,-0.0012552019317791,0.0012552019332867,-0.00097159610496898,0.00097159610619698,-0.00097159610489261,0.00097159610612097,0.82922923068302,125301,3014,0.003131134392493,0.0033559274382601,0.0041954589160586,20.395380521805,7.8363044174439e-05,7.8363044174439e-05,7.8363044174439e-05,2711404.5529777,0.010740790875353
27419200,0.99975785051758,0.013119209006584,0.003980913463886,0.0042184677982857,0.0049198277444127,-0.00075430199070664,0.00075430199190159,7.4443637562679e-13,7.4462548749661e-13,4.6860481679745e-13,1.0743823107108e-12,-0.00097454798739503,0.00097454798874305,-0.00097454798766639,0.00097454798901455,-0.00097454798758589,0.00097454798930551,-0.00097454798785691,0.00097454798957664,-0.00084815285931528,0.00084815286126619,-0.00084815285949101,0.00084815286144228,4.8107593360177e-13,-1.2768688785617e-13,1.2633897273809e-12,-6.9051720230696e-13,-0.00080760866825912,0.00080760866831507,-0.0010327221459189,0.0010327221471052,-0.0010327221468539,0.0010327221467515,-0.0010327221465675,0.0010327221473135,-0.0010327221475025,0.0010327221469598,-0.00089316541498641,0.00089316541764125,-0.0008931654168059,0.0008931654156405,-0.00080897403958289,0.00080897403973136,-0.00080897404045958,0.00080897403943571,1.3767608820766e-14,1.3580614533313e-14,-0.0010080574533787,0.0010080574532849,-8.4840974342942e-13,1.0491392436339e-12,-0.001255655928638,0.0012556559282689,-0.0012556559281866,0.0012556559290647,-0.0012556559287195,0.0012556559283503,-0.0012556559282771,0.0012556559291551,-0.00097147684610676,0.00097147684672474,-0.00097147684602308,0.00097147684664143,0.74718867332314,125301,3014,0.0031391866599967,0.003360248985522,0.0041910519201199,22.257776058116,9.3262208464928e-05,9.3262208464928e-05,9.3262208464928e-05,2648057.4013109,0.010748855401513
28419200,0.99981506201925,0.013120204117042,0.0039812465404035,0.0042187968966428,0.0049201606799955,-0.00075638654291234,0.00075638654461142,9.0754845148836e-13,9.0772697544634e-13,6.2536545433817e-13,1.2362640712165e-12,-0.00097449420434735,0.00097449420609948,-0.00097449420457374,0.00097449420632602,-0.00097449420448263,0.0009744942066072,-0.00097449420470904,0.00097449420683374,-0.0008503765648369,0.00085037656716628,-0.00085037656502452,0.00085037656735425,6.2638536658301e-13,2.2203340085554e-14,1.4044136305945e-12,-5.2652889023126e-13,-0.00081004460274916,0.00081004460327616,-0.0010327944427303,0.0010327944442896,-0.001032794443614,0.0010327944438966,-0.001032794443318,0.0010327944444371,-0.0010327944442016,0.0010327944440441,-0.00089574277821439,0.00089574278119912,-0.00089574278002087,0.00089574277923176,-0.00081127795907452,0.00081127795957293,-0.00081127795996299,0.00081127795929594,1.3922948192902e-13,1.3905613428349e-13,-0.0010113115380403,0.0010113115383306,-7.1437376460715e-13,1.1632593896947e-12,-0.0012564476107985,0.0012564476107505,-0.0012564476102867,0.0012564476114737,-0.0012564476108101,0.001256447610762,-0.0012564476103086,0.0012564476114955,-0.00097436514101818,0.00097436514191766,-0.00097436514092892,0.00097436514182872,0.8493285419621,125301,3014,0.0031478287242395,0.0033703450927858,0.0042045403363423,23.444957876842,0.00010275966301474,0.00010275966301474,0.00010275966301474,2681890.0918367,0.010781402168114
29419200,0.9998615479933,0.013120780441551,0.0039814395969957,0.0042189873941765,0.0049203534503791,-0.00075765665748957,0.00075765665907752,8.7273272096738e-13,8.7286745214556e-13,5.9122554140672e-13,1.1982865990493e-12,-0.00097891617448836,0.00097891617614398,-0.00097891617472493,0.00097891617638066,-0.00097891617463917,0.00097891617666567,-0.00097891617487577,0.00097891617690235,-0.00085099936403276,0.00085099936628162,-0.00085099936421761,0.00085099936646675,5.9630011114945e-13,-8.5094348955462e-15,1.3613702658523e-12,-5.432372352141e-13,-0.00081011916953137,0.00081011916996131,-0.0010362241811115,0.0010362241825753,-0.0010362241819969,0.0010362241822018,-0.0010362241817161,0.0010362241827405,-0.0010362241826015,0.001036224182367,-0.0008952898247558,0.00089528982764657,-0.00089528982653423,0.0008952898257026,-0.00081196080444092,0.00081196080487812,-0.00081196080533419,0.00081196080460524,1.1041462690894e-13,1.1028436618243e-13,-0.0010085829267599,0.0010085829269687,-7.2972086929305e-13,1.1213417731903e-12,-0.0012570765910151,0.0012570765908983,-0.0012570765905284,0.0012570765916288,-0.0012570765910441,0.0012570765909272,-0.0012570765905671,0.0012570765916674,-0.00097287186013369,0.0009728718609615,-0.00097287186004795,0.00097287186087599,0.60881578646039,125301,3014,0.003153111952927,0.0033706735828758,0.0041932463648778,24.784377772873,0.00011347502218299,0.00011347502218299,0.00011347502218299,2587099.6309151,0.010775696828091
30419200,0.99989852438425,0.013121169252237,0.003981570243533,0.0042191161152361,0.0049204828934676,-0.00076220337567036,0.00076220337723292,8.5949862525992e-13,8.5962697428013e-13,5.8121396490057e-13,1.1931637408432e-12,-0.00097655518231556,0.00097655518397629,-0.00097655518255074,0.00097655518421158,-0.00097655518246172,0.00097655518449577,-0.00097655518269688,0.00097655518473101,-0.00085648280806473,0.00085648281028393,-0.00085648280825472,0.00085648281047418,5.8187215637703e-13,-2.0724519453686e-14,1.3360530429525e-12,-5.5362270580126e-13,-0.00081655364860076,0.0008165536489933,-0.0010352403552258,0.0010352403566815,-0.0010352403561045,0.001035240356311,-0.0010352403558254,0.0010352403568423,-0.0010352403567041,0.0010352403564719,-0.00090251156132038,0.00090251156415551,-0.00090251156309,0.00090251156223213,-0.00081745325925237,0.00081745325966092,-0.00081745326012988,0.00081745325937687,1.1389660877208e-13,1.1377375958386e-13,-0.0010193300433699,0.0010193300435714,-7.1954681245644e-13,1.1169499661805e-12,-0.0012603569470158,0.0012603569469348,-0.0012603569465322,0.0012603569476587,-0.0012603569470437,0.0012603569469626,-0.0012603569465706,0.001260356947697,-0.00098161401434243,0.00098161401516453,-0.00098161401424438,0.0009816140150667,0.51512748248588,125301,3014,0.0031719637808831,0.0033973441118329,0.0042377909810625,26.135131495747,0.00012428105196597,0.00012428105196597,0.00012428105196597,2746259.672052,0.010866658372995
31419200,0.99992845944625,0.013121575318873,0.0039817057859423,0.0042192501970512,0.0049206193358792,-0.00076920545141853,0.00076920545223066,6.1303612510836e-13,6.1315882724225e-13,3.4977044710587e-13,9.5004712377133e-13,-0.00098139487812724,0.00098139487918381,-0.00098139487842739,0.00098139487948406,-0.00098139487835562,0.00098139487978159,-0.00098139487865534,0.0009813948800814,-0.00086352485384161,0.00086352485549156,-0.00086352485401663,0.00086352485566683,3.5964219440198e-13,-2.4358327193354e-13,1.056325508933e-12,-7.3946874780031e-13,-0.00082432012278012,0.0008243201224672,-0.0010407616444697,0.0010407616453206,-0.0010407616453816,0.0010407616450491,-0.0010407616451563,0.0010407616455721,-0.0010407616460682,0.0010407616453006,-0.0009102221968164,0.0009102221990275,-0.0009102221984837,0.00091022219718438,-0.00082449712034333,0.00082449712026393,-0.00082449712118588,0.00082449711994713,-6.9132358642133e-14,-6.924906095931e-14,-0.0010287105913979,0.0010287105910375,-8.5323333136623e-13,8.8632484985482e-13,-0.0012675118064732,0.0012675118059715,-0.0012675118061213,0.0012675118067614,-0.0012675118066063,0.0012675118061044,-0.0012675118062631,0.0012675118069031,-0.00098995419513659,0.0009899541955055,-0.00098995419504439,0.00098995419541351,0.66479676253864,125301,3014,0.0032010377608993,0.0034295808439315,0.0042767016261913,28.446526106318,0.00014277220885054,0.00014277220885054,0.00014277220885054,2798813.6345261,0.010967956356694
32419200,0.9999503220713,0.013121924541539,0.0039818220763216,0.0042193653854621,0.004920737079755,-0.00076963205844343,0.00076963206038892,9.9315286574403e-13,9.9327818544501e-13,7.0754045865408e-13,1.3175210300487e-12,-0.00098739543827665,0.00098739544021872,-0.00098739543848539,0.00098739544042757,-0.00098739543838869,0.00098739544070225,-0.0009873954385978,0.00098739544091145,-0.00086310413010704,0.00086310413262983,-0.0008631041302959,0.00086310413281893,7.029686378852e-13,1.0005999654461e-13,1.4394156247268e-12,-3.9939783348193e-13,-0.00082314138685269,0.00082314138761187,-0.0010455483792574,0.0010455483809658,-0.0010455483800951,0.0010455483805855,-0.001045548379818,0.0010455483810865,-0.0010455483806557,0.0010455483807063,-0.00090834777827544,0.00090834778135289,-0.00090834777999262,0.00090834777947785,-0.00082414582683372,0.00082414582753741,-0.00082414582772927,0.00082414582726903,1.9466287671215e-13,1.9454585087544e-13,-0.0010239791105096,0.0010239791109675,-6.1540337631987e-13,1.1724981956908e-12,-0.0012686633279757,0.0012686633280834,-0.0012686633274647,0.0012686633287485,-0.0012686633279556,0.0012686633280632,-0.0012686633274553,0.001268663328739,-0.00098699468054859,0.00098699468154521,-0.00098699468046639,0.00098699468146323,0.7835582016357,125301,3014,0.0032028368228941,0.0034247265029291,0.0042571068987046,29.298459221519,0.00014958767377215,0.00014958767377215,0.00014958767377215,2658235.5735239,0.010945121969821
33419200,0.99996551543771,0.013122176251561,0.0039819062833381,0.0042194485998808,0.0049208213683423,-0.00076744601123495,0.00076744601382831,1.205736342053e-12,1.2058638381581e-12,9.0683413507494e-13,1.5257231254999e-12,-0.00098876360844433,0.0009887636108767,-0.00098876360859844,0.00098876361103092,-0.00098876360848992,0.00098876361129685,-0.0009887636086447,0.00098876361145172,-0.00086052800212303,0.00086052800514196,-0.00086052800232161,0.00086052800534081,8.9742429067457e-13,2.9322560465906e-13,1.6819103789027e-12,-2.3524869400092e-13,-0.00081960890204277,0.00081960890341922,-0.0010458303370601,0.0010458303392657,-0.0010458303378696,0.0010458303388026,-0.0010458303375521,0.001045830339314,-0.0010458303383615,0.0010458303388509,-0.00090455510172384,0.0009045551053478,-0.00090455510352316,0.00090455510340248,-0.00082150222154463,0.0008215022226814,-0.00082150222247149,0.00082150222243879,3.5284675018575e-13,3.5272581270384e-13,-0.0010173204447788,0.0010173204457349,-4.978714080173e-13,1.3706832589203e-12,-0.0012659751591232,0.0012659751595761,-0.0012659751585052,0.0012659751601886,-0.0012659751590191,0.0012659751594719,-0.0012659751584127,0.001265975160096,-0.00098182246329416,0.00098182246468894,-0.00098182246321324,0.00098182246460825,0.80945760226261,125301,3014,0.0031937682384745,0.0034100808005567,0.0042295075360155,29.317385110661,0.00014973908088529,0.00014973908088529,0.00014973908088529,2559674.5407359,0.010893284201894
34419200,0.99997701665093,0.013122349297414,0.0039819643857878,0.0042195059042674,0.0049208790073588,-0.0007705006612964,0.00077050066222521,6.5485099475162e-13,6.5494925645567e-13,3.8384980306377e-13,9.8358968730433e-13,-0.00099245239843772,0.00099245239958019,-0.00099245239872853,0.00099245239987103,-0.00099245239865978,0.00099245240017101,-0.00099245239895022,0.00099245240046154,-0.00086328899534374,0.00086328899708951,-0.00086328899552007,0.00086328899726593,4.0050283697782e-13,-2.0529261264278e-13,1.1224154067518e-12,-7.1242701649051e-13,-0.0008220327422027,0.00082203274201604,-0.0010488916123563,0.0010488916133132,-0.0010488916132719,0.0010488916130192,-0.0010488916130385,0.0010488916135586,-0.0010488916139542,0.0010488916132646,-0.00090677084945276,0.00090677085180697,-0.00090677085115801,0.00090677084992521,-0.00082430970103547,0.00082430970103897,-0.00082430970191165,0.00082430970074988,-4.7533636115339e-14,-4.7624015707246e-14,-0.0010182061617002,0.0010182061614248,-8.5083708104062e-13,9.2804220777112e-13,-0.0012675161194814,0.001267516119011,-0.0012675161191026,0.0012675161198004,-0.0012675161196002,0.0012675161191298,-0.0012675161192298,0.0012675161199275,-0.00098332745550804,0.00098332745594769,-0.00098332745541779,0.00098332745585757,0.73398852679868,125301,3014,0.003206448597616,0.0034201448478209,0.0042331912814254,31.490035648371,0.00016712028518697,0.00016712028518697,0.00016712028518697,2518652.4009776,0.0109200027255
35419200,0.99998603779639,0.013122469434461,0.0039820047934526,0.0042195457169539,0.0049209189240546,-0.00077985059287997,0.00077985059198291,5.2326254410022e-14,5.2421898546983e-14,-1.8235881141643e-13,3.8893576533817e-13,-0.00099961545939887,0.00099961545910539,-0.00099961545984356,0.00099961545955017,-0.00099961545982011,0.00099961545988476,-0.00099961546026353,0.0009996154603282,-0.00087252077612059,0.00087252077647246,-0.00087252077626609,0.00087252077661815,-1.4550627010047e-13,-7.467581061701e-13,4.4762380609851e-13,-1.1742954521944e-12,-0.00083161640621284,0.00083161640430896,-0.0010560806950222,0.0010560806945433,-0.0010560806960188,0.0010560806944799,-0.0010560806959144,0.0010560806950105,-0.0010560806969111,0.001056080694947,-0.00091625321159207,0.00091625321243707,-0.00091625321306867,0.00091625321074052,-0.00083367454415209,0.00083367454295191,-0.00083367454495052,0.00083367454260255,-4.9093344349676e-13,-4.9102258783229e-13,-0.0010282783288033,0.0010282783271642,-1.1821491361554e-12,3.7668587485803e-13,-0.0012750577905779,0.0012750577891089,-0.0012750577905085,0.0012750577900584,-0.0012750577909479,0.0012750577894788,-0.0012750577908831,0.001275057790433,-0.00099303524303515,0.00099303524237827,-0.00099303524294337,0.00099303524228664,0.64952121200817,125301,3014,0.0032452634554034,0.0034599200314529,0.0042749691640162,35.94582511583,0.00020276660092664,0.00020276660092664,0.00020276660092664,2540181.7241734,0.011041664565981
36419200,0.99999180903778,0.013122550085309,0.0039820318892027,0.0042195724333919,0.0049209457627141,-0.00078381473387254,0.00078381473525726,8.0223337467402e-13,8.0232146021836e-13,5.3143411799366e-13,1.1260540115876e-12,-0.0010015103231894,0.0010015103247015,-0.0010015103234398,0.0010015103249519,-0.0010015103233633,0.0010015103252387,-0.001001510323614,0.0010015103254894,-0.00087659536589439,0.00087659536797842,-0.00087659536608044,0.00087659536816466,5.2677206562067e-13,-6.442795640251e-14,1.1671156404551e-12,-4.8336831505891e-13,-0.00083613328243509,0.00083613328267164,-0.001058357656077,0.0010583576573139,-0.0010583576568943,0.0010583576570393,-0.0010583576566993,0.0010583576575062,-0.0010583576575167,0.0010583576572317,-0.0009208419490714,0.00092084195156379,-0.00092084195060525,0.00092084194987392,-0.00083781586210439,0.0008378158624671,-0.00083781586297472,0.00083781586219931,5.6352043189645e-14,5.6269986872879e-14,-0.0010340695954256,0.0010340695954737,-6.6017006755171e-13,9.3941771319841e-13,-0.0012785084163955,0.0012785084162516,-0.0012785084160154,0.0012785084169219,-0.0012785084164506,0.0012785084163066,-0.0012785084160801,0.0012785084169865,-0.00099818865537408,0.00099818865599328,-0.0009981886552805,0.00099818865589985,0.6811981079479,125301,3014,0.0032617165773449,0.0034786599421457,0.0042989829611375,37.486239725752,0.00021508991780602,0.00021508991780602,0.00021508991780602,2582506.8357938,0.011101505133859
37419200,0.99999521642995,0.013122595791569,0.0039820472280272,0.0042195875633813,0.004920961000161,-0.00078396193761037,0.00078396194006428,1.1574902865251e-12,1.157566607723e-12,8.643423596401e-13,1.4770351864125e-12,-0.0010031112098662,0.0010031112122166,-0.0010031112100282,0.0010031112123787,-0.001003111209925,0.0010031112126462,-0.0010031112100879,0.0010031112128091,-0.00087649526311091,0.00087649526601544,-0.00087649526331393,0.00087649526621862,8.4963416156197e-13,2.5350139541226e-13,1.5687331328054e-12,-2.1491781673244e-13,-0.00083585968198981,0.00083585968323168,-0.0010596552996417,0.0010596553017208,-0.0010596553004161,0.0010596553013102,-0.0010596553001439,0.0010596553017848,-0.0010596553009183,0.0010596553013743,-0.00092035310598355,0.0009203531093706,-0.00092035310765838,0.00092035310756279,-0.0008377196849398,0.0008377196860094,-0.00083771968585843,0.00083771968577532,3.1848891744102e-13,3.1841818430775e-13,-0.0010328235840482,0.0010328235848959,-4.6757773052717e-13,1.2690918771731e-12,-0.0012788448207128,0.0012788448211509,-0.001278844820151,0.0012788448217323,-0.0012788448206229,0.0012788448210609,-0.0012788448200727,0.0012788448216539,-0.00099737024547798,0.00099737024674578,-0.00099737024538706,0.00099737024665499,0.65495763090949,125301,3014,0.0032623341314515,0.0034775341288123,0.0042938253402416,37.681166277183,0.00021664933021746,0.00021664933021746,0.00021664933021746,2545366.9970761,0.01109579526096
38419200,0.99999717476189,0.01312262509446,0.0039820570657973,0.0042195972682716,0.0049209707603911,-0.00078286795338214,0.00078286795637573,1.3354428796073e-12,1.3355197596116e-12,1.0295863409617e-12,1.6563590170161e-12,-0.0010017505751469,0.0010017505779256,-0.0010017505752634,0.0010017505780422,-0.0010017505751448,0.001001750578301,-0.0010017505752624,0.0010017505784186,-0.00087549251695503,0.00087549252027214,-0.00087549251716779,0.00087549252048506,1.0123510079419e-12,4.1051416679458e-13,1.8056996656993e-12,-1.1885823491495e-13,-0.00083484093224809,0.00083484093399418,-0.0010583402785291,0.0010583402810625,-0.0010583402793042,0.0010583402805575,-0.0010583402789703,0.0010583402810589,-0.0010583402797454,0.001058340280554,-0.00091942394637235,0.00091942395027634,-0.00091942394819118,0.00091942394833709,-0.00083672228231825,0.00083672228371954,-0.00083672228326247,0.00083672228349726,4.5603327437886e-13,4.5596160009787e-13,-0.0010319823971581,0.0010319823984191,-4.0103483689631e-13,1.4776489323688e-12,-0.0012776997192285,0.001277699719953,-0.0012776997185494,0.0012776997205122,-0.0012776997190641,0.0012776997197886,-0.001277699718398,0.0012776997203607,-0.00099650242695375,0.00099650242858258,-0.00099650242686102,0.00099650242848999,0.72891346290552,125301,3014,0.0032577897435973,0.0034733022058449,0.0042903325920236,37.194176559756,0.00021275341247805,0.00021275341247805,0.00021275341247805,2553286.8373628,0.011083386319116
38880000,0.99999785868906,0.013122635556701,0.0039820605774165,0.004219600732872,0.0049209742464122,-0.00078204364564635,0.00078204364826298,1.2117711282826e-12,1.2118558315774e-12,9.0962509393071e-13,1.5346570878676e-12,-0.0010031119555042,0.0010031119579678,-0.0010031119556536,0.0010031119581173,-0.0010031119555449,0.0010031119583867,-0.0010031119556948,0.0010031119585367,-0.00087437530931944,0.00087437531235448,-0.0008743753095241,0.00087437531255933,9.0477037427606e-13,2.9649776756437e-13,1.7288551079169e-12,-2.7080688667475e-13,-0.00083330439471641,0.00083330439611464,-0.0010591699350304,0.0010591699372964,-0.0010591699358613,0.0010591699368005,-0.0010591699355213,0.0010591699373407,-0.0010591699363522,0.0010591699368447,-0.00091765109414065,0.00091765109785703,-0.00091765109602589,0.00091765109583576,-0.00083556514499786,0.00083556514612464,-0.00083556514593781,0.00083556514588708,3.6949615332262e-13,3.694177145424e-13,-0.0010287784799602,0.0010287784809583,-5.2162097660193e-13,1.4287388235979e-12,-0.0012769493010294,0.0012769493015061,-0.0012769493003784,0.00127694930214,-0.0012769493009204,0.001276949301397,-0.0012769493002811,0.0012769493020426,-0.00099403301550615,0.0009940330169626,-0.00099403301541704,0.00099403301687363,0.74537476942469,125301,3014,0.0032543742763347,0.0034669369256766,0.0042770580715794,37.193611324064,0.00021274889059251,0.00021274889059251,0.00021274889059251,2496906.7304955,0.011060101405195
