time,ASR_ext,ASR_strain,ASR_strain_xx,ASR_strain_yy,ASR_strain_zz,disp_x_101,disp_x_102,disp_x_103,disp_x_104,disp_x_105,disp_x_106,disp_x_p1_neg,disp_x_p1_pos,disp_x_p2_neg,disp_x_p2_pos,disp_x_p3_neg,disp_x_p3_pos,disp_x_p4_neg,disp_x_p4_pos,disp_x_p5_neg,disp_x_p5_pos,disp_x_p6_neg,disp_x_p6_pos,disp_y_101,disp_y_102,disp_y_103,disp_y_104,disp_y_105,disp_y_106,disp_y_p1_neg,disp_y_p1_pos,disp_y_p2_neg,disp_y_p2_pos,disp_y_p3_neg,disp_y_p3_pos,disp_y_p4_neg,disp_y_p4_pos,disp_y_p5_neg,disp_y_p5_pos,disp_y_p6_neg,disp_y_p6_pos,disp_y_p7_neg,disp_y_p7_pos,disp_y_p8_neg,disp_y_p8_pos,disp_z_101,disp_z_102,disp_z_103,disp_z_104,disp_z_105,disp_z_106,disp_z_p1_neg,disp_z_p1_pos,disp_z_p2_neg,disp_z_p2_pos,disp_z_p3_neg,disp_z_p3_pos,disp_z_p4_neg,disp_z_p4_pos,disp_z_p5_neg,disp_z_p5_pos,disp_z_p6_neg,disp_z_p6_pos,humidity,ndof,nelem,strain_xx,strain_yy,strain_zz,temp,thermal_strain_xx,thermal_strain_yy,thermal_strain_zz,vonmises,vstrain
2419200,0,0,0,0,0,0,0,0,0,0,0,0,0,0,0,0,0,0,0,0,0,0,0,0,0,0,0,0,0,0,0,0,0,0,0,0,0,0,0,0,0,0,0,0,0,0,0,0,0,0,0,0,0,0,0,0,0,0,0,0,0,0,0,0,0,0,0,0,0,0,0,0,0,0,0
2919200,0.076571946901102,0.0015629010693422,0.00052096702311408,0.00052096702311408,0.00052096702311408,-0.00015721668633623,0.00015719372082042,-8.9666577077914e-09,-8.9666577222469e-09,-8.2496036170443e-09,-9.280288552055e-09,-0.00015902025724224,0.00015900088572843,-0.00015902096838321,0.00015900159686925,-0.00015902181862597,0.00015900186391682,-0.00015902252270952,0.00015900256800041,-0.00016216852248823,0.00016214937709747,-0.00016216917190424,0.00016215002651338,-6.6051196656246e-09,-5.9485158623575e-09,-6.7615109757084e-09,-6.148877609442e-09,-0.00016044558215791,0.000160428465012,-0.00016201100004473,0.00016199621125423,-0.00016201147850856,0.00016199713736701,-0.00016201233032458,0.00016199814499575,-0.00016201280878856,0.00016199907110884,-0.00016474459115982,0.00016473062754466,-0.00016474466200499,0.00016473188302796,-0.00016251397130605,0.00016250016184219,-0.00016251398959713,0.00016250157528991,-2.1853883426068e-09,-2.1853882832631e-09,-0.00016656922154653,0.00016656232905659,-1.8420045844067e-09,-2.4916035324246e-09,-0.00016756735724764,0.00016756251137367,-0.00016756911199121,0.00016756382108392,-0.0001675692664268,0.00016756442055259,-0.00016757094879066,0.0001675656578835,-0.00016726256326175,0.00016725759679344,-0.00016726143665064,0.0001672564701822,0.81617710293228,125301,3014,0.00065480739812756,0.00066826370238087,0.00069378191448356,32.430638994591,0.00017464511195673,0.00017464511195673,0.00017464511195673,1257704.376116,0.0020188903107187
3419200,0.15549434452682,0.0030810224731768,0.0010016935291858,0.001020819557264,0.001058509386727,-0.00026132240350777,0.00026130109999031,-8.9599991467059e-09,-8.9599397484837e-09,-8.4053454097174e-09,-8.8321155440945e-09,-0.00027061744606496,0.00027059856021415,-0.00027061858828396,0.00027059970251973,-0.00027061928748819,0.00027060022002366,-0.00027062041339418,0.00027060134601737,-0.00027365416650299,0.00027363549690858,-0.0002736556056722,0.00027363693598042,-7.4890858251631e-09,-7.587723668187e-09,-8.6399651932871e-09,-7.2085049873817e-09,-0.00027176364280053,0.00027174478116933,-0.00028063782895695,0.00028062058985825,-0.00028063854304685,0.00028062233550047,-0.00028063997269535,0.00028062280404096,-0.00028064068681664,0.00028062454973335,-0.00028226817025514,0.00028225038985566,-0.00028226841690396,0.00028225340561052,-0.00027386800063044,0.00027385275024338,-0.00027386948425211,0.00027385420575754,-4.2415947239427e-09,-4.2415352293485e-09,-0.00029310480534533,0.00029309419432707,-3.4559974992002e-09,-4.9788249085446e-09,-0.00030101397185823,0.0003010056339131,-0.00030101715013915,0.00030100776913668,-0.00030101690878527,0.00030100857113762,-0.00030101997895561,0.00030101059804041,-0.00029093783808579,0.0002909285597254,-0.00029093529539647,0.00029092601677317,0.78776539656259,125301,3014,0.0010882150927421,0.0011316700644127,0.0012204945084464,31.910859830121,0.00017048687864097,0.00017048687864097,0.00017048687864097,2077263.7651425,0.0034463128141092
3919200,0.24192950869798,0.0046751924502388,0.0014854405347516,0.0015380743914834,0.0016516775240038,-0.00036807485148279,0.00036806634224541,-3.2725152462585e-09,-3.2724453192183e-09,-3.5804136416445e-09,-2.8313435964261e-09,-0.00038961631620628,0.00038960907530723,-0.00038961700324324,0.00038960976238927,-0.00038961695795855,0.00038961024635444,-0.00038961762932425,0.00038961091776589,-0.0003910887611621,0.00039108199506482,-0.00039108929654114,0.00039108253031537,-3.3619173285977e-09,-4.4354588738826e-09,-4.6373475839882e-09,-3.3947322105988e-09,-0.00038850194230049,0.00038849204808834,-0.00041026023470458,0.0004102516168732,-0.00041026054432207,0.00041025281151654,-0.00041026150538309,0.00041025222490539,-0.00041026181502433,0.00041025341959473,-0.00040809069233363,0.0004080805927711,-0.00040809014837785,0.0004080824626187,-0.00038893343951075,0.00038892642883353,-0.00038893494510484,0.00038892591166499,-3.4330080933563e-09,-3.4329384039853e-09,-0.00043383612932463,0.00043382786606162,-2.7048278554172e-09,-4.0572827336946e-09,-0.00045633275221819,0.00045632608340803,-0.00045633453667026,0.00045632693631516,-0.00045633396071889,0.00045632729229505,-0.00045633568878583,0.00045632808869008,-0.00042455100760062,0.00042454332423313,-0.00042455042507145,0.00042454274145457,0.77553103605579,125301,3014,0.0015324912303546,0.0016174403654578,0.0018059714983656,32.496995074748,0.00017517596059799,0.00017517596059799,0.00017517596059799,2875075.179132,0.0049682256175438
4419200,0.33654667616642,0.0063822441966843,0.0019902348606772,0.0020862004889769,0.0023058088470302,-0.0004798743132622,0.00047987014695436,-1.5733468588335e-09,-1.5732766124059e-09,-2.0190502977082e-09,-9.7904219055077e-10,-0.00051742137821077,0.00051741856995461,-0.00051742178684451,0.00051741897860864,-0.00051742135972846,0.00051741925419739,-0.00051742176093948,0.00051741965542713,-0.00051816951994294,0.00051816643352249,-0.0005181696936211,0.00051816660708757,-1.7161730413701e-09,-2.8339837843216e-09,-2.5900169405804e-09,-2.372727846853e-09,-0.0005122253539107,0.00051221946936194,-0.00055114960463719,0.00055114542398943,-0.00055115002434039,0.00055114601242901,-0.00055115012847708,0.0005511452357948,-0.00055115054821413,0.00055114582428845,-0.00054528679753485,0.0005452808002749,-0.00054528708511085,0.0005452815123819,-0.00051082630151643,0.00051082254713943,-0.00051082783776265,0.00051082193514912,-1.8860435783692e-09,-1.885974494362e-09,-0.00058878004960265,0.00058877526348284,-1.7611142974465e-09,-2.0615295618487e-09,-0.00063234117087002,0.00063233754927096,-0.00063234193516327,0.0006323380914817,-0.00063234153393946,0.00063233791284369,-0.00063234230362041,0.00063233846029231,-0.000570135354413,0.00057013120816411,-0.00057013462165149,0.00057013047517024,0.77667599579676,125301,3014,0.0019975796755331,0.0021320260203091,0.0024501575120215,33.599289733565,0.00018399431786852,0.00018399431786852,0.00018399431786852,3577446.6360072,0.0066015087851428
4919200,0.43943684088629,0.0082053707826731,0.0025193699278601,0.0026654190737789,0.0030205817810342,-0.0005967749017269,0.00059677278703771,-7.258254396781e-10,-7.2574454885515e-10,-1.3040557745795e-09,-1.4985133373285e-10,-0.00065660856565079,0.00065660788791606,-0.0006566087882962,0.0006566081105731,-0.00065660812443184,0.00065660823607011,-0.00065660834607277,0.00065660845772194,-0.00065409239246995,0.00065409110049437,-0.00065409238302159,0.00065409109085451,-1.0770495841089e-09,-2.137449704728e-09,-1.6670670513771e-09,-1.8865576214304e-09,-0.00064235738260334,0.00064235332623235,-0.00070468653016911,0.00070468426687145,-0.00070468690249924,0.00070468450100806,-0.00070468665662694,0.00070468371226496,-0.00070468702897336,0.00070468394643979,-0.00069235679736386,0.0006923526030243,-0.00069235733552563,0.00069235271067234,-0.00063915755732812,0.00063915499679393,-0.00063915917915518,0.00063915457193633,-1.1042858332964e-09,-1.1042071406122e-09,-0.0007575410930252,0.00075753810218141,-1.2397402708298e-09,-1.0691937165129e-09,-0.00082956513241318,0.00082956300828271,-0.00082956532764064,0.00082956330481071,-0.00082956502759793,0.00082956290392714,-0.00082956526650774,0.00082956324400522,-0.00072853274281251,0.00072853027476581,-0.0007285320986196,0.00072852963034398,0.77771912739334,125301,3014,0.0024837065124268,0.0026730058964149,0.0031512824183424,35.344577908164,0.00019795662326531,0.00019795662326531,0.00019795662326531,4112981.252048,0.0083427150887194
5419200,0.53995131140296,0.0099362402256696,0.0030171247757893,0.0032094378662419,0.0037096775836384,-0.00070265027301583,0.00070265025814261,3.4222672344381e-11,3.4301748781591e-11,-6.0801831339906e-10,6.8171207175239e-10,-0.00078943035710741,0.0007894317696227,-0.0007894304470486,0.00078943185955886,-0.00078942967964342,0.00078943196996361,-0.00078942977135073,0.00078943206166338,-0.00077842424463595,0.00077842457220717,-0.00077842417277612,0.00077842450018065,-3.8463906712787e-10,-1.4613933565372e-09,-3.0815250405303e-10,-1.9201344155365e-09,-0.00076033227993654,0.00076033010890621,-0.00085061735062708,0.00085061741452537,-0.00085061804426414,0.00085061703270101,-0.00085061725821835,0.00085061662357865,-0.00085061795186937,0.00085061624178431,-0.00082690116903086,0.00082689966912418,-0.00082690300420104,0.00082689834801555,-0.00075520973800333,0.00075520826987704,-0.00075521165340955,0.00075520809173552,-1.8160847177997e-10,-1.8153287779519e-10,-0.00091627768552223,0.00091627683263314,-1.0445352795613e-09,5.3976687547776e-10,-0.0010215590758776,0.0010215585166193,-0.0010215585262088,0.0010215590189629,-0.0010215586910165,0.0010215581322495,-0.0010215582101525,0.0010215587032518,-0.00087707346667047,0.00087707336941108,-0.000877072497753,0.00087707240027358,0.76998246010791,125301,3014,0.0029238457011489,0.0031632363385046,0.0038102835022238,36.273462500384,0.00020538770000307,0.00020538770000307,0.00020538770000307,4499116.8274929,0.0099467166740276
5919200,0.63125279921836,0.011385108401057,0.0034335474123687,0.0036618133072698,0.0042897476814182,-0.00078661648522769,0.0007866187069943,9.3127973448455e-10,9.3135913597065e-10,1.9420089535478e-10,1.592987364153e-09,-0.000902761345361,0.00090276487384834,-0.00090276129134188,0.00090276481983151,-0.00090276044256947,0.00090276491551395,-0.00090276039268604,0.00090276486563156,-0.00087529190108365,0.00087529412541933,-0.00087529176132276,0.0008752939854903,3.7064392107933e-10,-7.0800373499027e-10,7.9461086522625e-10,-1.4207280756093e-09,-0.00085369719002713,0.00085369703860153,-0.00097443000822268,0.0009744321647857,-0.00097443073449886,0.00097443139926009,-0.00097442970633403,0.00097443114152622,-0.00097443043261953,0.00097443037602819,-0.00093150699671415,0.00093150774228035,-0.00093150929631109,0.00093150570850967,-0.00084411039392931,0.000844110348067,-0.0008441124184322,0.00084411026411606,5.6462489936161e-10,5.646994854654e-10,-0.0010458031513618,0.0010458041027336,-6.198429070629e-10,1.5888659135752e-09,-0.0011872489577099,0.0011872498272128,-0.0011872478921259,0.0011872502374599,-0.0011872482619469,0.0011872491319281,-0.0011872472839567,0.0011872496296286,-0.00099449122185022,0.00099449285281803,-0.00099449030471885,0.00099449193548166,0.72322607356021,125301,3014,0.0032728400707607,0.0035510850329648,0.0043476737990517,36.77937003726,0.00020943496029808,0.00020943496029808,0.00020943496029808,4732899.5417533,0.011234550757658
6419200,0.70871109250514,0.012572570185589,0.0037800110863548,0.0040335477298842,0.0047590113693498,-0.00085167223181876,0.00085167627531176,1.6135508106009e-09,1.6136296346635e-09,7.9896926515503e-10,2.2866703043801e-09,-0.00099398684001267,0.00099399214892634,-0.00099398664024771,0.00099399194916169,-0.00099398573739339,0.00099399204136253,-0.00099398554343533,0.00099399184740307,-0.00095037891507913,0.00095038262435161,-0.00095037877520154,0.00095038248430942,9.7832204749398e-10,-9.1647035977578e-11,1.8925101215478e-09,-1.2148375419451e-09,-0.00092544146988879,0.00092544305468744,-0.0010734651746419,0.0010734693382895,-0.0010734660393513,0.0010734681071589,-0.001073464679638,0.0010734681107385,-0.0010734655443535,0.0010734668796303,-0.0010119802585682,0.0010119832609033,-0.0010119833963784,0.0010119803204605,-0.00091202677081022,0.00091202775887576,-0.00091202892048349,0.00091202781191218,1.2680399305152e-09,1.2681125413264e-09,-0.0011457318627596,0.0011457345490718,-3.7955609205722e-10,2.7388637263285e-09,-0.0013202661881141,0.0013202683990159,-0.0013202645344515,0.0013202688339951,-0.0013202652099424,0.0013202674213298,-0.0013202636575093,0.0013202679573991,-0.0010837528893552,0.0010837562770106,-0.0010837519235881,0.0010837553110379,0.70960752485686,125301,3014,0.0035431973036693,0.0038490520394889,0.0047620603863891,36.741500284539,0.00020913200227631,0.00020913200227631,0.00020913200227631,4914430.7345335,0.012228895053846
6919200,0.77861794055483,0.013676098651111,0.0041076621666891,0.0043811001806624,0.0051873363037593,-0.00091410981110541,0.0009141112982673,5.9208823843427e-10,5.921668599442e-10,-1.4023340952442e-10,1.2103170583211e-09,-0.0010823006042548,0.0010823038662922,-0.0010823004340197,0.0010823036960577,-0.0010822996311986,0.0010823038150349,-0.0010822994658513,0.0010823036496867,-0.0010233588755488,0.0010233603969703,-0.0010233588240149,0.0010233603452682,1.9033389900035e-10,-7.4566397284145e-10,1.3945960025655e-09,-2.181641205783e-09,-0.00099282278511099,0.00099282248813319,-0.001167465131227,0.0011674679175904,-0.0011674661625091,0.0011674665452954,-0.0011674647107435,0.0011674668734399,-0.0011674657420292,0.0011674655011645,-0.0010891136927864,0.0010891156478187,-0.0010891173625133,0.0010891123176171,-0.00097878135317579,0.0009787805288321,-0.00097878352279519,0.00097878088653153,1.2600985107966e-09,1.2601691302275e-09,-0.0012370371274954,0.0012370395513587,-6.2448189241861e-10,2.9651045899136e-09,-0.0014425030112137,0.0014425050434034,-0.001442501271777,0.0014425057082938,-0.0014425021570277,0.0014425041897062,-0.0014425005137964,0.0014425049506633,-0.0011691049889242,0.0011691084655415,-0.0011691038615973,0.0011691073380104,0.73388447137041,125301,3014,0.0038026209174826,0.0041288368445012,0.0051405187951723,38.625434611647,0.00022420347689318,0.00022420347689318,0.00022420347689318,4960599.6747541,0.013158356731157
7419200,0.8389596867985,0.014562086943217,0.0043735107738664,0.004660462464148,0.0055281137052027,-0.00096066281277432,0.00096066347713038,2.3390862551676e-10,2.3398707020856e-10,-4.5548730882243e-10,8.2821013474889e-10,-0.0011568978266349,0.001156900359968,-0.0011568977080598,0.001156900241394,-0.0011568969528568,0.0011569003712993,-0.001156896838024,0.0011569002564662,-0.0010755803004441,0.0010755810705977,-0.0010755803107241,0.0010755810807084,-1.1517747328533e-10,-9.9237135198639e-10,1.1944128141435e-09,-2.5498693634193e-09,-0.0010419160036411,0.0010419150528027,-0.0012449773447963,0.0012449795715647,-0.0012449784739025,0.001244978187892,-0.0012449769988877,0.0012449786471452,-0.0012449781279962,0.0012449772634891,-0.0011435533706403,0.0011435549280187,-0.0011435572548244,0.0011435514822326,-0.0010263152756257,0.0010263137724803,-0.0010263174791128,0.0010263142916905,1.213806791271e-09,1.2138765521987e-09,-0.0013040992258133,0.0013041014998337,-7.5304381367546e-10,3.0032909886101e-09,-0.0015406319158693,0.001540633776417,-0.0015406302106676,0.0015406345871035,-0.0015406311790159,0.0015406330400527,-0.0015406295635947,0.0015406339403836,-0.00123118896792,0.0012311924024459,-0.001231187739361,0.0012311911736833,0.68603447262454,125301,3014,0.0039960723959752,0.0043326996326222,0.0054183898600474,40.764319084694,0.00024131455267755,0.00024131455267755,0.00024131455267755,4824727.3493603,0.013842832384558
7919200,0.88433779087186,0.015208674429596,0.0045716775495743,0.0048657140940466,0.0057712827859746,-0.00098800989243842,0.00098801430321023,1.6711041913846e-09,1.671182121151e-09,8.9431920813267e-10,2.2687941958359e-09,-0.0012047942974132,0.0012048001022725,-0.0012047940347562,0.001204799839616,-0.0012047932048211,0.0012047999345028,-0.0012047929471817,0.0012047996768625,-0.0011065315451769,0.001106535409133,-0.001106531551099,0.001106535414883,1.0655696291477e-09,1.7870107388574e-10,2.695275250784e-09,-1.614066251605e-09,-0.0010701553051597,0.0010701575899122,-0.001294080677179,0.0012940859274719,-0.0012940818518074,0.0012940842003715,-0.0012940801123219,0.0012940847481731,-0.0012940812869506,0.0012940830210881,-0.0011752055948125,0.001175210301537,-0.0011752100103532,0.0011752062852527,-0.0010536824654563,0.0010536833300423,-0.0010536847634739,0.0010536839082876,1.9783889509873e-09,1.9784583851015e-09,-0.0013428992693432,0.0013429036696359,-2.8299708004523e-10,4.0509790137836e-09,-0.0016027438906811,0.0016027473509118,-0.00160274172102,0.001602748086985,-0.0016027428580615,0.0016027463187831,-0.0016027407872038,0.0016027471535237,-0.0012666080286278,0.0012666133001386,-0.0012666068327733,0.0012666121040804,0.66517729706501,125301,3014,0.004109742624834,0.0044499885656087,0.0055791207809495,40.956226902378,0.00024284981521902,0.00024284981521902,0.00024284981521902,4725404.4747802,0.014240138217204
8419200,0.91815486900549,0.015683970665211,0.0047196493312901,0.0050175430326952,0.0059467783012259,-0.0010062755869062,0.0010062797508623,1.5708943425503e-09,1.5709728921506e-09,7.8890481191129e-10,2.168374714288e-09,-0.0012407967843337,0.0012408024240471,-0.0012407965123599,0.0012408021520741,-0.0012407956970681,0.0012408022662744,-0.0012407954293418,0.0012408019985476,-0.0011267018230474,0.0011267054798768,-0.0011267018622004,0.0011267055188576,1.0095841712362e-09,1.2620046409627e-10,2.8750132389643e-09,-1.8931838230081e-09,-0.0010880054275507,0.0010880075851839,-0.0013297580179821,0.0013297633621187,-0.0013297593276764,0.0013297614670303,-0.0013297574644268,0.0013297621973524,-0.0013297587741204,0.0013297603022783,-0.0011950783450485,0.0011950833981525,-0.0011950832333245,0.0011950789552789,-0.0010716094387158,0.001071610035901,-0.001071611782254,0.001071610670557,2.0963793512263e-09,2.0964477382548e-09,-0.0013663902598186,0.001366394903793,-3.9161851499966e-10,4.3993645066695e-09,-0.0016451655092259,0.0016451690966831,-0.0016451631778361,0.0016451699755029,-0.0016451644799303,0.0016451680678785,-0.0016451622453025,0.0016451690433249,-0.0012891666022047,0.0012891722631768,-0.0012891653712548,0.0012891710320248,0.65392243555003,125301,3014,0.0041856796965664,0.0045241499375544,0.005676420219962,41.432638864432,0.00024666111091546,0.00024666111091546,0.00024666111091546,4563178.9868302,0.014491211804657
8919200,0.94282407657377,0.016017948555966,0.004825107497844,0.0051248195898109,0.0060680214683108,-0.0010171179058462,0.0010171222982374,1.6565219660381e-09,1.6566001966776e-09,8.6751348805843e-10,2.2497516371612e-09,-0.0012663427051953,0.001266348573732,-0.0012663424145568,0.001266348283094,-0.001266341604832,0.0012663484034778,-0.0012663413179816,0.0012663481166266,-0.001137959958181,0.0011379638017011,-0.0011379600181335,0.0011379638614801,1.0949414279943e-09,2.2029398866067e-10,3.1591515708624e-09,-1.982967750227e-09,-0.0010976745911708,0.0010976770043085,-0.0013541227626824,0.0013541284804835,-0.001354124172786,0.0013541264375866,-0.0013541221936902,0.0013541273040759,-0.0013541236037923,0.0013541252611925,-0.0012054172559674,0.0012054228871665,-0.0012054225227077,0.0012054180904706,-0.0010815807517309,0.0010815814135851,-0.0010815831206168,0.0010815820919123,2.2478694194264e-09,2.2479379141574e-09,-0.0013781073348111,0.0013781123496219,-4.2508911790748e-10,4.7388063128965e-09,-0.0016719651123003,0.0016719689304116,-0.0016719626260243,0.0016719699029613,-0.0016719640581056,0.0016719678767082,-0.0016719616677495,0.0016719689450432,-0.0013010456706123,0.0013010517735939,-0.0013010444260618,0.0013010505288408,0.62734197942039,125301,3014,0.0042307784255482,0.0045643549439931,0.0057249547636793,41.89165213335,0.0002503332170668,0.0002503332170668,0.0002503332170668,4384434.4959607,0.014627108721541
9419200,0.95971666265551,0.016243733434646,0.0048973221664658,0.0051977429618682,0.0061486683063119,-0.0010206227522562,0.0010206300285843,2.774999294794e-09,2.7750781542085e-09,1.9034359329859e-09,3.3770678896588e-09,-0.0012796173991292,0.0012796258394875,-0.001279616966576,0.0012796254069351,-0.001279616099488,0.0012796255129424,-0.0012796156720658,0.0012796250855198,-0.0011417210512177,0.0011417273019978,-0.001141721119405,0.0011417273700121,2.0569637497729e-09,1.1603464968121e-09,4.4319646210961e-09,-1.27565025686e-09,-0.0011000417139066,0.0011000467122022,-0.0013662344039622,0.001366242642907,-0.0013662358631929,0.0013662402610614,-0.0013662336476867,0.0013662412425493,-0.0013662351069154,0.0013662388607166,-0.0012082542882085,0.0012082625700318,-0.0012082601033136,0.0012082572187866,-0.0010845076961109,0.001084510243466,-0.0010845101592124,0.0010845109583209,2.9447523728364e-09,2.9448200560628e-09,-0.0013807772439974,0.001380784145706,-2.1274154383304e-11,5.7193199899649e-09,-0.0016846942739514,0.0016846995526901,-0.0016846913479008,0.0016847004739867,-0.0016846929557373,0.0016846982349672,-0.001684690134221,0.0016846992606637,-0.0013042863731034,0.0013042941608879,-0.0013042851576729,0.0013042929452561,0.61541999896418,125301,3014,0.0042453951822548,0.0045742427503967,0.0057360190211188,41.150743137046,0.00024440594509637,0.00024440594509637,0.00024440594509637,4258023.157262,0.014663268725777
9919200,0.97108226458102,0.016395651905892,0.0049463281674695,0.0052470081112258,0.0062023156271964,-0.0010206028693909,0.0010206117214483,3.3898766480365e-09,3.3899549500268e-09,2.4666245221081e-09,4.0021353399831e-09,-0.0012873223354845,0.0012873321934685,-0.0012873218188312,0.001287331676816,-0.0012873209201486,0.0012873317826295,-0.0012873204092254,0.0012873312717128,-0.0011415805538548,0.0011415881298629,-0.0011415806380266,0.0011415882138572,2.6023566880312e-09,1.6822450840913e-09,5.2015990949466e-09,-9.3205573467097e-10,-0.001098885451445,0.0010988918910061,-0.0013727405709782,0.0013727502719296,-0.0013727420881168,0.0013727476584573,-0.0013727397139948,0.0013727487439688,-0.0013727412311291,0.0013727461305094,-0.0012072075257641,0.0012072173977168,-0.0012072137644206,0.0012072116382131,-0.001084004241284,0.001084007819544,-0.0010840067794441,0.0010840085558441,3.3692210875497e-09,3.369289264761e-09,-0.0013790010487217,0.0013790090804328,1.8553141111333e-10,6.357700037628e-09,-0.0016904951564495,0.0016905012978543,-0.0016904919445194,0.0016905022230868,-0.0016904936896749,0.0016904998315682,-0.0016904905865423,0.0016905008654655,-0.0013035223176076,0.001303531155701,-0.0013035211094953,0.0013035299473855,0.61191532128093,125301,3014,0.0042453660026445,0.0045694999745414,0.0057286691123322,39.827332044602,0.00023381865635682,0.00023381865635682,0.00023381865635682,4143538.3303927,0.014651036743869
10419200,0.97872117451724,0.016499792479175,0.0049801427016719,0.0052808889820753,0.0062387607954276,-0.0010184930145573,0.0010185029912687,3.8303878910733e-09,3.8304666447557e-09,2.8655632725973e-09,4.4557656698585e-09,-0.0012912191504286,0.0012912300140565,-0.0012912185734596,0.0012912294370884,-0.0012912176493275,0.0012912295471494,-0.0012912170782154,0.0012912289760363,-0.0011392809854463,0.0011392895142424,-0.0011392810852993,0.0011392896139197,3.0029476315608e-09,2.0528281601908e-09,5.8291986534131e-09,-7.5554140641085e-10,-0.0010957630896882,0.0010957705658443,-0.0013755619769566,0.0013755727782018,-0.0013755635816423,0.0013755699497166,-0.0013755610527941,0.0013755711560264,-0.0013755626574778,0.0013755683275532,-0.0012041015547679,0.001204112711767,-0.0012041082419335,0.0012041065186112,-0.0010815913659116,0.0010815956540388,-0.0010815939741424,0.0010815963961688,3.6905323560051e-09,3.6906001169939e-09,-0.0013749085114265,0.0013749173908267,2.8089503714355e-10,6.9056915383049e-09,-0.0016921064775216,0.0016921132224711,-0.0016921030144374,0.0016921141990701,-0.0016921049062397,0.0016921116516838,-0.0016921015545381,0.0016921127395277,-0.0013006058816815,0.001300615556189,-0.0013006046758416,0.0013006143501456,0.62047456219911,125301,3014,0.004236651231586,0.0045565902339741,0.005711724746147,38.098951246945,0.00021999160997556,0.00021999160997556,0.00021999160997556,4047332.3052035,0.014611963891944
10919200,0.98432375569632,0.016573600148746,0.0050042227463613,0.0053049511308131,0.0062644262715714,-0.0010189359616573,0.0010189423883092,2.4533383985783e-09,2.4534171439962e-09,1.5711181808004e-09,3.0792530938434e-09,-0.0012970576774817,0.0012970653950402,-0.0012970572678212,0.00129706498538,-0.0012970564143539,0.0012970651326397,-0.0012970560073105,0.0012970647255956,-0.0011391411902873,0.0011391467682199,-0.0011391412962681,0.0011391468740269,1.8404349861104e-09,8.9649600798219e-10,4.7470020795122e-09,-2.075958914847e-09,-0.0010951273712827,0.0010951317078763,-0.0013802755072772,0.0013802835861271,-0.0013802773410032,0.0013802808514269,-0.0013802748233087,0.0013802822352097,-0.0013802766570319,0.0013802795005219,-0.0012030923333966,0.0012031011758914,-0.0012030992652216,0.0012030947518499,-0.0010815289340684,0.0010815306402261,-0.0010815314669889,0.0010815313392784,2.973603718977e-09,2.9736715764334e-09,-0.0013727903500301,0.0013727972133189,-5.3022215334188e-10,6.3087798188129e-09,-0.0016949812253733,0.0016949861779908,-0.0016949779838243,0.001694987510743,-0.0016949799731442,0.0016949849262534,-0.0016949768305641,0.0016949863578406,-0.001299663575171,0.0012996717722905,-0.0012996623296161,0.0012996705265339,0.5983995504701,125301,3014,0.0042385121268249,0.004553982038747,0.0057029598198018,37.946134466881,0.00021876907573505,0.00021876907573505,0.00021876907573505,3946318.9532531,0.014602372306095
11419200,0.98840634219597,0.01662731363454,0.0050218271496042,0.0053225008162639,0.0062829856686714,-0.0010180248881925,0.0010180317129512,2.60413173971e-09,2.6042107872657e-09,1.7173097811591e-09,3.2224694208888e-09,-0.0012982549718219,0.0012982630571404,-0.0012982545385199,0.0012982626238372,-0.001298253685207,0.0012982627666561,-0.001298253254718,0.0012982623361677,-0.0011383467374967,0.0011383526380087,-0.001138346847962,0.0011383527483018,1.9672850265451e-09,1.0400795839885e-09,4.9473924619143e-09,-1.9939357490378e-09,-0.0010936177687041,0.0010936224813061,-0.0013808430191437,0.0013808514785877,-0.0013808448691114,0.0013808486793298,-0.0013808423029124,0.001380850102854,-0.0013808441528774,0.0013808473036071,-0.001201802145814,0.0012018114124755,-0.0012018091964599,0.0012018048761741,-0.0010806077548634,0.00108060970028,-0.0010806102851152,0.0010806104277661,3.1039771005714e-09,3.1040446053915e-09,-0.0013703867741771,0.0013703939795637,-4.6112454828511e-10,6.4982334562226e-09,-0.0016947388388161,0.0016947440636551,-0.0016947355195425,0.0016947453996399,-0.0016947375481962,0.0016947427735242,-0.0016947343290905,0.0016947442095458,-0.0012979748747806,0.0012979833898806,-0.0012979736302911,0.0012979821451927,0.59529610001378,125301,3014,0.0042347417219428,0.0045477327349625,0.00569300629652,37.628348273148,0.00021622678618518,0.00021622678618518,0.00021622678618518,3902952.3535668,0.014582119289506
11919200,0.99136533949755,0.016667144734872,0.0050349098449757,0.0053355317049965,0.0062967031849003,-0.0010169220237756,0.001016929393832,2.8174833334064e-09,2.8175623147877e-09,1.9211668604359e-09,3.4316799700913e-09,-0.0012999240994149,0.0012999326752763,-0.0012999236389959,0.0012999322148581,-0.0012999227796275,0.0012999323524331,-0.0012999223221917,0.0012999318949962,-0.0011369824981875,0.0011369888533274,-0.0011369826155587,0.0011369889705246,2.1521122267523e-09,1.230528407336e-09,5.2194372680371e-09,-1.8758817514459e-09,-0.0010918630388167,0.0010918682539003,-0.0013818223126478,0.0013818312740747,-0.0013818241867513,0.0013818283946569,-0.0013818215592044,0.0013818298610472,-0.0013818234333062,0.0013818269816426,-0.0011999094537675,0.0011999192869491,-0.0011999166587842,0.0011999126042415,-0.0010792987594488,0.0010793010516798,-0.001079301302518,0.0010793018007527,3.2475883219942e-09,3.2476559128706e-09,-0.0013676022485496,0.0013676098389767,-3.9554112843121e-10,6.7192489102345e-09,-0.0016945004093844,0.0016945059206618,-0.0016944969924997,0.0016945072632194,-0.0016944990706349,0.0016945045824052,-0.0016944957550426,0.0016945060261205,-0.0012959868973283,0.0012959957722137,-0.0012959856549187,0.0012959945296033,0.60696177561217,125301,3014,0.0042301797538011,0.0045404719655337,0.0056814799374084,37.104791063581,0.00021203832850865,0.00021203832850865,0.00021203832850865,3847862.7353456,0.01455846257455
12419200,0.99354392220601,0.016696806421008,0.0050446746545476,0.005345247409564,0.0063068843568964,-0.0010162916686516,0.0010162985723949,2.6391549451574e-09,2.6392339510086e-09,1.7547693437364e-09,3.2528034101475e-09,-0.0013024390664052,0.0013024472238962,-0.001302438630052,0.0013024467875452,-0.0013024377804404,0.0013024469299496,-0.001302437346513,0.0013024464960217,-0.0011358766388922,0.0011358826106484,-0.0011358767599034,0.0011358827314845,2.0043592398035e-09,1.0819333920397e-09,5.10829222502e-09,-2.0714287308649e-09,-0.0010905073222633,0.0010905121291125,-0.0013835907333878,0.0013835993531726,-0.0013835926563711,0.0013835964703135,-0.001383590014133,0.0013835979778798,-0.0013835919371147,0.0013835950950318,-0.0011982119692814,0.001198221558888,-0.0011982192600023,0.0011982147951118,-0.0010783578809722,0.0010783598255936,-0.0010783604171922,0.0010783605692992,3.1509683453741e-09,3.1510359550145e-09,-0.0013649957961069,0.0013650031170076,-5.2964409064836e-10,6.6653458310837e-09,-0.0016947057762599,0.0016947110242782,-0.0016947023735379,0.0016947124329985,-0.0016947044822116,0.0016947097307222,-0.0016947011784214,0.0016947112382404,-0.0012942755829189,0.0012942842774454,-0.0012942743362411,0.0012942830305655,0.61229629864852,125301,3014,0.0042275791801471,0.0045348683718787,0.0056706942983523,36.802292219592,0.00020961833775674,0.00020961833775674,0.00020961833775674,3782675.4117865,0.014539239380083
12919200,0.99512893858119,0.016717723528919,0.0050515789351166,0.0053521064476548,0.0063140381461473,-0.001014455602992,0.0010144633964535,2.9864819907017e-09,2.9865610908734e-09,2.0839596311402e-09,3.5974130163841e-09,-0.0013027886596955,0.0013027976037663,-0.0013027881807384,0.0013027971248095,-0.0013027873174749,0.0013027972592094,-0.0013027868413885,0.0013027967831225,-0.001133799971728,0.0011338066868713,-0.0011338000985442,0.0011338068135141,2.3049196217107e-09,1.3836881719508e-09,5.4878329553025e-09,-1.8262304499261e-09,-0.0010880982871616,0.0010881039025877,-0.0013833606173511,0.0013833699982885,-0.0013833625440075,0.0013833670258858,-0.0013833598396419,0.0013833685593807,-0.0013833617662952,0.00138336558699,-0.0011956624993731,0.0011956728849524,-0.0011956699233958,0.0011956659929802,-0.0010763850377465,0.0010763875855381,-0.0010763875960192,0.0010763883491994,3.3633489435867e-09,3.3634165029934e-09,-0.0013615341454441,0.0013615420478558,-3.8746113668118e-10,6.9453358184641e-09,-0.0016932533631527,0.0016932590637956,-0.0016932498422872,0.0016932604474967,-0.0016932519920654,0.0016932576932001,-0.0016932485722586,0.0016932591778262,-0.0012915795463917,0.0012915887448825,-0.0012915783066311,0.0012915875049209,0.59298587050883,125301,3014,0.0042199742371547,0.0045248926331913,0.0056563632430209,36.136517146933,0.00020429213717546,0.00020429213717546,0.00020429213717546,3734764.1337144,0.014506891204525
13419200,0.99625823227252,0.016732466664585,0.0050564545554851,0.0053569453610097,0.00631906674809,-0.0010107110151073,0.0010107204301594,3.6155958784689e-09,3.6156748162339e-09,2.6708758319885e-09,4.2288178521645e-09,-0.0012993039856578,0.0012993143771234,-0.0012993034248682,0.001299313816334,-0.0012993025324689,0.001299313941242,-0.0012993019755092,0.0012993133842822,-0.0011303366392697,0.0011303447065056,-0.0011303367727551,0.0011303448398171,2.8492611094957e-09,1.9217983422842e-09,6.1669527236009e-09,-1.3816673304887e-09,-0.0010841413033801,0.0010841483848608,-0.0013796430047784,0.0013796537846796,-0.001379644931391,0.0013796506484627,-0.0013796421198873,0.0013796522224735,-0.0013796440464966,0.0013796490862685,-0.0011920248151032,0.0011920366227803,-0.0011920324701405,0.0011920295055127,-0.0010728582404337,0.0010728618844063,-0.0010728608466851,0.0010728626746503,3.7662066507368e-09,3.766274280259e-09,-0.0013571748642959,0.0013571838564624,-1.0926032802492e-10,7.4655673369248e-09,-0.0016892282465241,0.0016892348221363,-0.0016892245082672,0.0016892361524663,-0.0016892267294941,0.0016892333055986,-0.0016892230975825,0.0016892347421398,-0.0012876458496501,0.0012876559923455,-0.0012876446200996,0.0012876547625936,0.58571222542567,125301,3014,0.0042044404698219,0.0045084829733869,0.0056383026935472,34.795367084577,0.00019356293667661,0.00019356293667661,0.00019356293667661,3725819.118907,0.014456158390873
13919200,0.9970898456623,0.016743191127977,0.0050600032574202,0.0053604664605608,0.0063227214099959,-0.0010080805763679,0.0010080891416616,3.2856132473295e-09,3.2856921720948e-09,2.3522504162174e-09,3.9072178331478e-09,-0.0012975688938714,0.0012975785324279,-0.0012975683733835,0.0012975780119397,-0.0012975674924152,0.0012975781507795,-0.001297566974836,0.0012975776331994,-0.0011276524048955,0.0011276597699675,-0.0011276525396787,0.001127659904577,2.5747368235457e-09,1.633744175202e-09,5.9552318368775e-09,-1.7521858794913e-09,-0.001081231714353,0.0010812380372917,-0.001377606334501,0.0013776164999253,-0.0013776083487727,0.0013776133524735,-0.001377605511653,0.0013776149971732,-0.001377607525921,0.0013776118497328,-0.0011891128124016,0.001189124153174,-0.0011891206252374,0.0011891168799801,-0.0010702035163923,0.0010702065152344,-0.0010702061198651,0.0010702072806262,3.6005959560298e-09,3.600663624492e-09,-0.0013537541538635,0.0013537626728179,-3.4692894217661e-10,7.3796301589231e-09,-0.0016866179981612,0.0016866241260148,-0.0016866142793982,0.0016866255744974,-0.0016866165569463,0.0016866226852914,-0.0016866129417548,0.0016866242372122,-0.0012846133600875,0.0012846231933147,-0.0012846121200821,0.0012846219531072,0.57829084504914,125301,3014,0.0041935269767065,0.0044964170006126,0.0056241325374058,33.828649940055,0.00018582919952044,0.00018582919952044,0.00018582919952044,3705769.8822898,0.014418484094708
14419200,0.99770316928341,0.016750928417332,0.0050625659224424,0.0053630078580649,0.0063253546368245,-0.0010049452552753,0.0010049543483833,3.4909314471759e-09,3.4910103373541e-09,2.543609770644e-09,4.113889865812e-09,-0.0012951517276589,0.0012951618373583,-0.0012951511809953,0.0012951612906953,-0.0012951502903165,0.0012951614269617,-0.0012951497467311,0.0012951608833752,-0.0011244963702888,0.0011245041763789,-0.0011244965091959,0.0011245043151112,2.7545604439888e-09,1.8098427952729e-09,6.2172806959266e-09,-1.6448934124575e-09,-0.0010778747886752,0.0010778815915213,-0.0013749454288486,0.0013749560786559,-0.0013749474684651,0.0013749528520254,-0.0013749445721298,0.001374954535923,-0.0013749466117435,0.0013749513093039,-0.0011857767441224,0.0011857886273897,-0.0011857847099312,0.0011857812047462,-0.0010670740131623,0.001067077347688,-0.0010670766357178,0.0010670781220964,3.7387791478634e-09,3.7388468039731e-09,-0.001349996054263,0.0013500049427749,-2.8713070079536e-10,7.5954611818452e-09,-0.0016835014940429,0.0016835078950963,-0.0016834976793598,0.0016835093521485,-0.0016835000059742,0.00168350640752,-0.0016834962963578,0.0016835079695048,-0.0012811870260927,0.0012811972067375,-0.0012811857879581,0.0012811959683996,0.56553166651007,125301,3014,0.0041805206426181,0.004482496753054,0.0056085649749192,32.642432960316,0.00017633946368252,0.00017633946368252,0.00017633946368252,3690235.2087795,0.014375387614198
14919200,0.99814309278583,0.016756533709617,0.0050644233998373,0.0053648496881895,0.0063272606215902,-0.00099985714411001,0.00099986831358063,4.2993802038272e-09,4.2994591982669e-09,3.2990903962589e-09,4.9258604404036e-09,-0.0012903317810513,0.0012903437416112,-0.0012903311324313,0.0012903430929912,-0.0012903302025603,0.0012903432154588,-0.0012903295582501,0.0012903425711482,-0.0011195588757323,0.0011195684165559,-0.0011195590230422,0.0011195685636924,3.4542161079828e-09,2.4986023893055e-09,7.0739188403498e-09,-1.0615174296741e-09,-0.0010727017359005,0.0010727104095778,-0.0013700127181947,0.0013700251428877,-0.0013700147515431,0.0013700217184905,-0.0013700117254519,0.001370023442071,-0.0013700137587972,0.0013700200176852,-0.0011807738287663,0.0011807875041707,-0.001180782063247,0.0011807798189395,-0.0010621208354733,0.0010621255847777,-0.0010621235216138,0.0010621263900349,4.2359894554887e-09,4.2360569814258e-09,-0.0013447090526243,0.0013447192909073,6.4417313477644e-11,8.2296562399451e-09,-0.0016784555597174,0.0016784630443352,-0.0016784514780349,0.0016784644261288,-0.0016784538862364,0.0016784613713458,-0.001678449916193,0.0016784628646444,-0.0012761251058113,0.0012761364471547,-0.0012761238811755,0.0012761352223183,0.57027523375347,125301,3014,0.0041594128650958,0.004461042654528,0.0055866605632619,30.578865984484,0.00015983092787587,0.00015983092787587,0.00015983092787587,3687896.7086529,0.014309999311276
15419200,0.99844284045159,0.016760632704945,0.0050657811754198,0.0053661968919614,0.0063286546375639,-0.0009919484285404,0.00099196297084426,5.6174181404376e-09,5.6174970983197e-09,4.5268156837117e-09,6.257828078736e-09,-0.0012839021139351,0.0012839170575588,-0.0012839013045603,0.0012839162481845,-0.00128390030478,0.0012839163513365,-0.0012838995014725,0.0012839155480287,-0.0011115553478144,0.0011115677183756,-0.0011115555126361,0.001111567883023,4.6047712020249e-09,3.6092336902228e-09,8.4855023165148e-09,-1.3007777156737e-10,-0.001064601851289,0.0010646135577209,-0.0013633756784721,0.0013633909797263,-0.0013633777169358,0.0013633872268567,-0.0013633744742503,0.0013633890186057,-0.0013633765127119,0.0013633852657483,-0.0011726179421453,0.0011726345590609,-0.0011726266504561,0.0011726264134244,-0.0010542038775359,0.0010542109370681,-0.0010542066913012,0.001054211773369,5.0224732974177e-09,5.022540926587e-09,-0.0013363577412528,0.0013363701248457,5.9904250175101e-10,9.2574128812146e-09,-0.0016713890922704,0.001671398263244,-0.0016713845723769,0.0016713995402989,-0.0016713871239802,0.0016713962954455,-0.0016713827253096,0.0016713976935897,-0.0012681338549268,0.0012681470497186,-0.0012681326501498,0.0012681458447402,0.6099827451483,125301,3014,0.0041266127580633,0.0044274593227085,0.0055520658337948,27.069957902373,0.00013175966321899,0.00013175966321899,0.00013175966321899,3670666.3186325,0.014207606780684
15919200,0.99867318885837,0.016764029638714,0.0050669064928462,0.0053673138296283,0.0063298093162392,-0.00098827956569978,0.00098828998184823,4.0174009216007e-09,4.0174797885443e-09,3.007424013996e-09,4.678850591385e-09,-0.0012835117131943,0.0012835229554548,-0.0012835111098321,0.0012835223520927,-0.0012835101720834,0.0012835225021007,-0.0012835095711058,0.0012835219011222,-0.0011071691888897,0.0011071781424688,-0.0011071693471137,0.0011071783005192,3.253130171694e-09,2.2200361854828e-09,7.1500338601746e-09,-1.6373654407199e-09,-0.0010603344350107,0.0010603424325223,-0.0013624151072236,0.0013624271358397,-0.0013624173892735,0.0013624235401515,-0.0013624141969215,0.0013624254756832,-0.001362416478968,0.0013624218800068,-0.0011677301435411,0.0011677439009634,-0.001167739021192,0.0011677355767391,-0.0010500969139896,0.001050101002298,-0.0010500996666022,0.0010501017262106,4.0852909169315e-09,4.0853587319774e-09,-0.0013309823878891,0.0013309921948335,-3.9423229947386e-10,8.4072793327991e-09,-0.0016688978005511,0.0016689046775084,-0.0016688935835491,0.0016689063426293,-0.0016688962082463,0.0016689030856957,-0.00166889209796,0.0016689048573989,-0.0012634601797877,0.0012634714084872,-0.0012634589421717,0.0012634701706695,0.65577892059586,125301,3014,0.0041114002062768,0.0044097742581171,0.0055298073060877,25.353599092254,0.00011802879273803,0.00011802879273803,0.00011802879273803,3609771.033092,0.014151727837751
16419200,0.99886010205708,0.016766547816212,0.0050677429485858,0.0053681424977617,0.0063306623698643,-0.00098596161154167,0.00098597021978642,3.3138753073547e-09,3.3139540164208e-09,2.3573414887768e-09,3.9642663533841e-09,-0.0012841995133505,0.0012842091373008,-0.0012841990003121,0.0012842086242625,-0.0012841981016812,0.0012842087820236,-0.0012841975898306,0.001284208270172,-0.0011042885970854,0.0011042960378891,-0.0011042887497791,0.0011042961904093,2.6430998495274e-09,1.6322011184847e-09,6.4756499258532e-09,-2.2043760619839e-09,-0.00105733835857,0.0010573447396701,-0.0013624952495876,0.0013625057711846,-0.001362497581095,0.0013625023059097,-0.0013624944556442,0.0013625042554609,-0.0013624967871482,0.0013625007901977,-0.001164268468034,0.0011642808125052,-0.0011642772404177,0.001164272588966,-0.0010474524781988,0.0010474552917828,-0.0010474551617742,0.0010474560006902,3.6506749458569e-09,3.6507431401854e-09,-0.0013266040488068,0.0013266126849253,-7.6591584162031e-10,7.9191748928489e-09,-0.0016673039739639,0.0016673098563441,-0.0016672999484096,0.0016673116318765,-0.0016673025455785,0.001667308428451,-0.0016672986202358,0.0016673103040616,-0.0012599453438841,0.001259955606224,-0.0012599440986977,0.0012599543608351,0.60060694661896,125301,3014,0.0041017980503485,0.004397368205029,0.0055116843628792,24.411883039918,0.00011049506431934,0.00011049506431934,0.00011049506431934,3546029.6865604,0.014111080577265
16919200,0.99901544357945,0.016768896199214,0.0050685239131424,0.005368916250753,0.0063314560353191,-0.00098293590025736,0.00098294375134986,3.009393197633e-09,3.0094719820791e-09,2.07411232141e-09,3.6500271406469e-09,-0.001278658209556,0.0012786671906557,-0.0012786577241804,0.0012786667052797,-0.0012786568486706,0.0012786668676034,-0.0012786563641477,0.0012786663830797,-0.0011023820713763,0.0011023888610142,-0.001102382215623,0.0011023890050874,2.3688411578916e-09,1.3891605826106e-09,6.1677970183524e-09,-2.4289825871294e-09,-0.0010544855759558,0.0010544912901375,-0.0013571064248013,0.0013571163381512,-0.0013571087552965,0.0013571129296077,-0.0013571056683995,0.0013571148834204,-0.001357107998889,0.0013571114748878,-0.0011625177686742,0.0011625294816218,-0.0011625264557957,0.0011625213349271,-0.0010452758490912,0.0010452781112884,-0.0010452784821538,0.0010452788336634,3.5351237348083e-09,3.5351915704418e-09,-0.001323929669925,0.0013239379616962,-8.3879159331612e-10,7.7609466251432e-09,-0.0016625503880512,0.0016625560358854,-0.0016625464435785,0.0016625578350001,-0.0016625490181697,0.0016625546664962,-0.0016625451733853,0.0016625565651662,-0.0012575615277136,0.0012575715064284,-0.0012575602766069,0.0012575702551189,0.6689580951102,125301,3014,0.0040892263978213,0.0043855142886749,0.0055005808717509,23.779666617532,0.00010543733294025,0.00010543733294025,0.00010543733294025,3580595.3201375,0.014074988154744
17419200,0.99913730161507,0.016770628601527,0.0050690998414612,0.0053694867455419,0.0063320420145236,-0.00097967035765215,0.00097968089463877,4.0672999908654e-09,4.0673791977986e-09,3.0816149408377e-09,4.7052101541772e-09,-0.0012799337240577,0.0012799450382135,-0.0012799331215553,0.0012799444357113,-0.0012799321974206,0.0012799445699065,-0.0012799315973197,0.001279943969805,-0.0010978423093062,0.0010978513577142,-0.0010978424718383,0.0010978515200738,3.2889078130113e-09,2.2925006136284e-09,7.1847934676137e-09,-1.5634998974939e-09,-0.0010504861040997,0.001050494232264,-0.0013577060720272,0.001357718141577,-0.001357708342612,0.0013577145600861,-0.0013577051495806,0.0013577164946719,-0.0013577074201621,0.0013577129131927,-0.0011573440611629,0.0011573579122317,-0.0011573529033636,0.0011573496293193,-0.001041104220113,0.0010411084029056,-0.0010411069359612,0.0010411091629617,4.0884065948673e-09,4.0884741979197e-09,-0.0013185789293424,0.0013185887776983,-3.7101135821062e-10,8.3915399473913e-09,-0.001661222005346,0.0016612288804379,-0.0016612178037466,0.0016612305349715,-0.0016612204159638,0.0016612272915476,-0.0016612163190432,0.0016612290506266,-0.0012527501116587,0.0012527613464993,-0.0012527488807881,0.0012527601154274,0.63180124737233,125301,3014,0.004075707613452,0.004368962471674,0.0054784464500825,21.982614019673,9.1060912157382e-05,9.1060912157382e-05,9.1060912157382e-05,3503388.8008789,0.014022145989862
17919200,0.99923040000655,0.016771854515504,0.0050695085973969,0.0053698908551753,0.0063324550629323,-0.00097278123434291,0.00097279332011352,4.664923324971e-09,4.6650026406656e-09,3.6337074547904e-09,5.3075305852897e-09,-0.0012717629646143,0.0012717756511595,-0.0012717622821064,0.001271774968652,-0.0012717613308143,0.0012717750981448,-0.0012717606516843,0.0012717744190147,-0.001091906844418,0.0010919171842456,-0.001091907002637,0.0010919173422916,3.8060443724193e-09,2.8024917826986e-09,7.8180542179214e-09,-1.1283294795007e-09,-0.00104365001489,0.0010436595470392,-0.0013495901399863,0.0013496035333308,-0.0013495924006984,0.0013495998023339,-0.0013495891177012,0.0013496017693909,-0.0013495913784098,0.0013495980384053,-0.0011514639702726,0.001151479153079,-0.0011514729983211,0.0011514706712238,-0.0010349815003208,0.0010349867390972,-0.0010349842528438,0.0010349875111564,4.4953532281034e-09,4.4954206429851e-09,-0.0013117426753491,0.0013117536166662,-7.108828662517e-11,8.8972184383487e-09,-0.0016534230698125,0.0016534308327483,-0.0016534186694039,0.0016534324284217,-0.0016534213421111,0.0016534291055396,-0.001653417052365,0.0016534308117416,-0.0012464004303068,0.0012464126056685,-0.0012463992181784,0.0012464113933378,0.58584132827753,125301,3014,0.0040471182941599,0.0043405981362434,0.0054501041802732,19.502317119212,7.1218536953699e-05,7.1218536953699e-05,7.1218536953699e-05,3523078.139496,0.013935614188842
18419200,0.99930440633213,0.016772857423646,0.0050698427474447,0.0053702214277226,0.0063327932484787,-0.0009673067777194,0.00096731784825217,4.262713543792e-09,4.2627925210558e-09,3.2401516189451e-09,4.9142974224106e-09,-0.0012643066596499,0.0012643184823728,-0.0012643060175129,0.001264317840233,-0.0012643050807749,0.0012643179873871,-0.0012643044412707,0.0012643173478807,-0.0010872072914706,0.00108721677774,-0.0010872074463051,0.0010872169323984,3.4607967088724e-09,2.4524711765585e-09,7.5131516248792e-09,-1.5387056077005e-09,-0.0010384695556837,0.0010384781769104,-0.0013423697150205,0.0013423823755572,-0.0013423720470339,0.0013423786514502,-0.0013423687571192,0.0013423806777005,-0.0013423710891395,0.0013423769536094,-0.0011470224388957,0.0011470369648622,-0.0011470315710362,0.0011470283778689,-0.001030080244812,0.001030084708472,-0.0010300829833761,0.0010300854615439,4.3179636481745e-09,4.3180315289243e-09,-0.0013071288970805,0.0013071393163009,-2.965073204343e-10,8.7719008077163e-09,-0.00164704906643,0.0016470563956366,-0.0016470447043465,0.0016470580943958,-0.0016470474169466,0.0016470547466458,-0.0016470431643664,0.0016470565547768,-0.0012416987573046,0.0012417105745414,-0.0012416975312334,0.0012417093482722,0.60198894508651,125301,3014,0.0040243857759039,0.0043190882692432,0.0054309658500698,17.479117222032,5.5032937776253e-05,5.5032937776253e-05,5.5032937776253e-05,3563837.1087252,0.013871311926603
18919200,0.99936899514187,0.016773782431353,0.0050701504237447,0.005370526172736,0.0063331058348725,-0.00096597792847477,0.00096598578225257,3.0118802546551e-09,3.01195913751e-09,2.0699151068967e-09,3.6599401381058e-09,-0.0012647605463445,0.0012647695257416,-0.0012647600607868,0.0012647690401839,-0.0012647591831147,0.0012647692096218,-0.0012647586979257,0.001264768724432,-0.0010853419941799,0.0010853487940324,-0.0010853421484975,0.0010853489481764,2.3843899926084e-09,1.3887401648015e-09,6.3259459103556e-09,-2.5711757937546e-09,-0.0010368056024902,0.0010368113331312,-0.0013424945920129,0.0013425046239766,-0.0013424970184346,0.0013425011148495,-0.0013424938436652,0.0013425031673471,-0.0013424962700835,0.0013424996582317,-0.0011448726670637,0.0011448846868868,-0.0011448816559906,0.0011448762523919,-0.0010283584399103,0.0010283606348985,-0.0010283610981312,0.0010283613512592,3.5663578496863e-09,3.5664256343214e-09,-0.0013048361120243,0.0013048444765098,-9.5325107195174e-10,7.9430160731348e-09,-0.0016463034533288,0.0016463090691976,-0.0016462994126993,0.0016463109684265,-0.0016463020871973,0.0016463077035583,-0.0016462981454522,0.0016463097015381,-0.0012396499384724,0.0012396600824568,-0.0012396486787669,0.0012396588225494,0.63537815352263,125301,3014,0.0040188718825517,0.0043121902770183,0.0054214734121658,16.874921960353,5.0199375682827e-05,5.0199375682827e-05,5.0199375682827e-05,3530555.4749424,0.013849141838735
19419200,0.9994299141559,0.016774697910659,0.0050704551411737,0.0053708279441001,0.0063334148253856,-0.00096735413212477,0.00096735908547204,1.8811939507867e-09,1.8812729217565e-09,1.0361628747001e-09,2.4974732660237e-09,-0.0012684058355449,0.0012684122713827,-0.00126840548939,0.0012684119252279,-0.0012684046819831,0.0012684120970653,-0.0012684043349717,0.001268411750053,-0.0010860485383578,0.0010860528939087,-0.0010860486873293,0.0010860530427072,1.3859851037363e-09,4.590447988237e-10,5.0637320471264e-09,-3.3066332226757e-09,-0.0010376535290598,0.0010376566616289,-0.0013456576722912,0.0013456651999763,-0.0013456600598807,0.0013456620128203,-0.0013456570931596,0.0013456639774625,-0.0013456594807458,0.0013456607903181,-0.001145122213245,0.0011451316171142,-0.0011451306933656,0.0011451237006078,-0.0010292542587131,0.001029254482308,-0.0010292567831494,0.0010292552171498,2.8572693860286e-09,2.8573371787223e-09,-0.0013045906748226,0.0013045971260394,-1.3910629617167e-09,6.96967659837e-09,-0.0016481198144864,0.0016481239557519,-0.0016481161862414,0.0016481259069637,-0.0016481186999895,0.0016481228417472,-0.0016481151615507,0.0016481248826319,-0.0012398696317829,0.0012398780787913,-0.0012398683499122,0.0012398767967188,0.66499876077797,125301,3014,0.0040245874113382,0.0043157192039137,0.0054204725960624,17.545891307537,5.55671304603e-05,5.55671304603e-05,5.55671304603e-05,3478670.5388039,0.013857543660223
19919200,0.99948865736172,0.016775566296445,0.0050707447103287,0.0053711144115525,0.0063337071745639,-0.00096938663119504,0.00096939051604366,1.4634803668264e-09,1.4635599316899e-09,6.7037038667426e-10,2.0498935427476e-09,-0.0012721538049905,0.0012721593174361,-0.0012721535091927,0.0012721590216388,-0.0012721527386646,0.0012721591829508,-0.0012721524421167,0.0012721588864025,-0.0010876856359148,0.001087689077468,-0.0010876857828265,0.0010876892242079,1.0019526621915e-09,1.3595544017485e-10,4.4460046314918e-09,-3.4207440303951e-09,-0.0010391473641863,0.0010391495457196,-0.0013489366600885,0.0013489431603105,-0.0013489389341495,0.0013489401944467,-0.0013489361309856,0.0013489420346161,-0.0013489384050432,0.0013489390687639,-0.0011462898113948,0.0011462979638109,-0.0011462978035912,0.0011462905454983,-0.0010310104371056,0.0010310100049509,-0.0010310128772915,0.0010310107821016,2.5749490796025e-09,2.5750164211924e-09,-0.0013048783379538,0.0013048840440499,-1.4239232086234e-09,6.4346092241051e-09,-0.0016500859091578,0.0016500895709304,-0.0016500825320946,0.0016500914389503,-0.0016500848854335,0.0016500885476981,-0.0016500815948804,0.0016500905020946,-0.0012407653018837,0.0012407729806604,-0.0012407640135083,0.001240771692084,0.65387748913111,125301,3014,0.0040330283004954,0.0043219290576053,0.0054216807363591,18.682040726199,6.4656325809589e-05,6.4656325809589e-05,6.4656325809589e-05,3430694.8269623,0.01387365007678
20419200,0.99954111013815,0.016776373526037,0.0050710141954125,0.0053713809034807,0.0063339784271434,-0.00096825186468093,0.00096825847146159,2.5239173446164e-09,2.5239968582756e-09,1.6827750065257e-09,3.0975169756885e-09,-0.0012708461887176,0.0012708540915941,-0.0012708457636567,0.0012708536665338,-0.0012708449546318,0.0012708537984121,-0.0012708445308117,0.0012708533745916,-0.0010868550394562,0.0010868607496259,-0.001086855190854,0.0010868609008518,1.908321823483e-09,1.0597690023194e-09,5.368097383369e-09,-2.4499904974137e-09,-0.0010378237121384,0.0010378283524169,-0.0013474619711755,0.0013474706122544,-0.0013474641101134,0.0013474675277058,-0.0013474612599198,0.0013474692973746,-0.0013474633988543,0.0013474662128378,-0.001145301887847,0.001145312011942,-0.0011453098292282,0.0011453046452589,-0.0010301251657845,0.0010301267071858,-0.0010301276466919,0.0010301275445328,3.1992120717967e-09,3.1992793710348e-09,-0.0013030416387487,0.0013030490665217,-7.9078568895178e-10,7.0346879963458e-09,-0.0016482284818688,0.0016482336120668,-0.0016482248996536,0.0016482352585759,-0.0016482272267953,0.0016482323574852,-0.0016482237386402,0.001648234097921,-0.0012393831335854,0.0012393921493356,-0.0012393818708906,0.0012393908864399,0.67876341596567,125301,3014,0.0040283236266111,0.0043164425993847,0.0054140712107404,18.601894971078,6.4015159768623e-05,6.4015159768623e-05,6.4015159768623e-05,3422632.4742061,0.013855587513181
20919200,0.99958473544212,0.016777020463057,0.0050712303366934,0.0053715945096235,0.00633419561674,-0.00096508015940689,0.00096508961390019,3.637685593408e-09,3.637765295679e-09,2.7326191883007e-09,4.213423654976e-09,-0.0012694135180477,0.0012694239029906,-0.0012694129616618,0.0012694233466031,-0.0012694121013096,0.0012694234564771,-0.0012694115479053,0.0012694229030702,-0.0010833882796019,0.0010833963779165,-0.0010833884413093,0.0010833965394532,2.8751572196859e-09,2.0068043532895e-09,6.4270303201271e-09,-1.5287556099517e-09,-0.0010342686909178,0.001034275893481,-0.0013456984387794,0.0013457093750839,-0.0013457005002248,0.0013457061073886,-0.0013456975509902,0.0013457078524964,-0.0013456996124303,0.0013457045848116,-0.0011414983015111,0.0011415106575217,-0.0011415063778102,0.0011415031624608,-0.0010267427117886,0.0010267462867131,-0.0010267452770055,0.0010267471542933,3.8352735733191e-09,3.8353407177385e-09,-0.0012986780333914,0.0012986872228685,-2.3577615984722e-10,7.740236949692e-09,-0.0016455484836173,0.0016455550417622,-0.0016455446295875,0.0016455565215859,-0.0016455469904487,0.0016455535490848,-0.0016455432375863,0.0016455551299455,-0.001235455395829,0.0012354658365166,-0.0012354541583045,0.0012354645987884,0.6551000058282,125301,3014,0.0040151778578464,0.0043017137974424,0.0053960060990904,17.27724553067,5.3417964245363e-05,5.3417964245363e-05,5.3417964245363e-05,3389732.4256295,0.013809044673653
21419200,0.99961974659551,0.016777540957189,0.0050714044035293,0.005371766455664,0.0063343700979951,-0.0009596570986292,0.00095966821016613,4.2809570558182e-09,4.2810366918853e-09,3.3194237021786e-09,4.8737097472774e-09,-0.0012633941157104,0.0012634059499649,-0.0012633934778349,0.0012634053120907,-0.0012633925797594,0.001263405422308,-0.001263391945739,0.0012634047882872,-0.0010784792435788,0.0010784887364199,-0.0010784794059189,0.0010784888985888,3.4436705145464e-09,2.5392235563126e-09,7.1295984698137e-09,-1.0887825548425e-09,-0.0010288626508182,0.0010288713460112,-0.0013396827911497,0.0013396951485089,-0.001339684861631,0.0013396917080897,-0.0013396818071305,0.001339693493966,-0.0013396838776081,0.0013396900535585,-0.0011366136953402,0.001136627514463,-0.0011366220239241,0.0011366197602457,-0.0010217379006054,0.0010217426152003,-0.0010217405364368,0.0010217434719086,4.2457933351045e-09,4.2458605338163e-09,-0.0012932526410452,0.0012932629440619,3.6960011955829e-11,8.2821821487264e-09,-0.001639661855519,0.0016396692833013,-0.0016396577774889,0.001639670720942,-0.0016396602189569,0.0016396676472312,-0.00163965624747,0.0016396691912811,-0.001230315775237,0.0012303271880005,-0.0012303145542259,0.0012303259667885,0.656007211711,125301,3014,0.0039926734203889,0.0042792843724303,0.0053735151596563,15.231165766946,3.7049326135565e-05,3.7049326135565e-05,3.7049326135565e-05,3401422.1768609,0.013740668763781
21919200,0.99964951958099,0.01677797785536,0.0050715504984731,0.0053719107709321,0.0063345165859546,-0.0009565222083116,0.00095653151101928,3.5762115247221e-09,3.5762911667303e-09,2.6374026417773e-09,4.1877208621787e-09,-0.0012608763875879,0.0012608866301052,-0.0012608758347272,0.0012608860772451,-0.0012608749571619,0.0012608862144625,-0.0012608744066575,0.0012608856639576,-0.0010753053770059,0.0010753133697277,-0.0010753055399182,0.0010753135324682,2.8512980456253e-09,1.9168290382989e-09,6.5562654467528e-09,-1.7721930708267e-09,-0.0010255618620427,0.0010255689261871,-0.0013370066907238,0.0013370176618896,-0.0013370088747095,0.0013370142733911,-0.0013370058340787,0.0013370161276234,-0.0013370080180609,0.0013370127391366,-0.0011332969591866,0.0011333095407401,-0.0011333054005151,0.0011333016786556,-0.0010185806770916,0.0010185840760319,-0.0010185833076259,0.0010185848780385,3.8485834170066e-09,3.8486505826018e-09,-0.001289596203955,0.0012896054024673,-4.0362547354825e-10,7.9401470019888e-09,-0.0016366034289121,0.0016366098950138,-0.0016365994621777,0.0016366115055044,-0.001636601947084,0.0016366084136776,-0.0016365980816447,0.0016366101253299,-0.0012268875254974,0.0012268981120777,-0.0012268862822184,0.0012268968685978,0.64802895887917,125301,3014,0.0039796625790429,0.0042655908584948,0.0053583636415019,13.995900263624,2.7167202108994e-05,2.7167202108994e-05,2.7167202108994e-05,3390502.2118857,0.0136982492076
22419200,0.99967840635296,0.016778411523149,0.0050716955285195,0.005372054045478,0.0063346619491518,-0.00095778240709107,0.00095778696523945,1.7248505065892e-09,1.7249301864786e-09,8.8977952908145e-10,2.3390342715792e-09,-0.0012620926819891,0.0012620987736302,-0.001262092351205,0.0012620984428468,-0.0012620915555763,0.0012620986203015,-0.0012620912240931,0.0012620982888179,-0.001076553824007,0.0010765578475913,-0.0010765539805061,0.0010765580039188,1.2551734061766e-09,3.3487173728248e-10,4.7934958284e-09,-3.2992823541906e-09,-0.001026662791371,0.0010266655883184,-0.001338060914263,0.0013380680537323,-0.001338063227866,0.001338064975858,-0.0013380603605361,0.0013380668637721,-0.0013380626741357,0.0013380637859091,-0.0011344107758449,0.0011344196344331,-0.0011344189958043,0.001134412002109,-0.0010198272821175,0.001019827320962,-0.0010198297995352,0.0010198280637018,2.7783062025938e-09,2.7783733184258e-09,-0.0012902893717984,0.0012902956155332,-1.3338907599058e-09,6.7512625249759e-09,-0.0016372771268089,0.0016372811846294,-0.0016372736216834,0.0016372830760842,-0.0016372760484109,0.0016372801067232,-0.0016372726312684,0.0016372820860278,-0.001227770262703,0.0012277784522533,-0.0012277689692073,0.0012277771585568,0.66209702025061,125301,3014,0.003984878937938,0.0042701477950162,0.0053612318552224,14.850076474784,3.4000611798276e-05,3.4000611798276e-05,3.4000611798276e-05,3381223.8471845,0.013711060268367
22919200,0.99970572611877,0.016778800588193,0.0050718257647588,0.0053721826103667,0.0063347922130672,-0.00095860702137802,0.00095861233591059,2.0186765497288e-09,2.0187561960016e-09,1.1863596237925e-09,2.6126378582362e-09,-0.0012640217709081,0.0012640285309727,-0.0012640214054351,0.0012640281654999,-0.0012640206085221,0.0012640283232884,-0.0012640202431912,0.001264027957957,-0.0010770358664184,0.0010770405075457,-0.0010770360237678,0.0010770406647233,1.4930436789568e-09,6.0793061137977e-10,4.9718445504046e-09,-2.949389618402e-09,-0.0010271699540581,0.0010271734368188,-0.0013397017471228,0.0013397094163393,-0.0013397039742064,0.0013397063596728,-0.0013397011331707,0.0013397081839291,-0.001339703360251,0.001339705127274,-0.0011346135296629,0.0011346227928628,-0.0011346215814367,0.0011346153309587,-0.0010203827648599,0.0010203833759277,-0.0010203852622735,0.0010203841645788,2.9256230354598e-09,2.92569021029e-09,-0.0012900959615933,0.0012901026318071,-1.1075557954601e-09,6.8126202443632e-09,-0.0016381301067462,0.0016381345683944,-0.0016381265964805,0.0016381363470541,-0.0016381289639,0.0016381334260401,-0.0016381255434458,0.0016381352943778,-0.0012278326163903,0.0012278410737277,-0.0012278313332566,0.0012278397903935,0.62916624930542,125301,3014,0.0039883060021201,0.0042722606985948,0.005360443076392,15.357494425697,3.8059955405579e-05,3.8059955405579e-05,3.8059955405579e-05,3353232.412193,0.013715898281916
23419200,0.99973124672911,0.01677917121738,0.0050719498979417,0.005372305130727,0.0063349161887116,-0.00095847336330542,0.00095847901778379,2.1484076393566e-09,2.1484871908382e-09,1.3175370356774e-09,2.7321692336348e-09,-0.0012625572506872,0.0012625643204669,-0.0012625568660756,0.0012625639358563,-0.001262556071406,0.0012625640859932,-0.0012625556873555,0.0012625637019428,-0.0010773089444989,0.0010773138596388,-0.0010773091025646,0.0010773140175301,1.5967188423468e-09,7.3360629742677e-10,5.0379277852014e-09,-2.7787331392234e-09,-0.0010271247698091,0.0010271285668579,-0.0013382783891385,0.0013382862999765,-0.0013382805650413,0.0013382832582771,-0.0013382777456395,0.0013382850494408,-0.0013382799215383,0.0013382820077539,-0.0011349756254727,0.0011349850464736,-0.0011349835760074,0.0011349776897587,-0.0010205717437148,0.0010205726172816,-0.0010205742283634,0.0010205734343656,3.0195382259446e-09,3.0196054663022e-09,-0.0012901540799691,0.0012901610023736,-9.6535654319672e-10,6.8537355987291e-09,-0.0016369522178581,0.0016369569367806,-0.0016369487120242,0.0016369586538113,-0.0016369510446775,0.0016369557640925,-0.0016369476299989,0.0016369575721442,-0.0012279563009741,0.0012279649253865,-0.0012279550180225,0.0012279636422318,0.64041033929091,125301,3014,0.0039877415984561,0.004272061859785,0.0053606727347772,15.705783419173,4.0846267353388e-05,4.0846267353388e-05,4.0846267353388e-05,3370148.2741469,0.013715324774387
23919200,0.99975639865882,0.016779564716006,0.0050720815230634,0.0053724351738869,0.0063350480190556,-0.00096112965362133,0.00096113317404265,1.3181497881641e-09,1.3182293201462e-09,5.4220029356498e-10,1.895236333478e-09,-0.0012661895036665,0.001266194707005,-0.0012661892209495,0.0012661944242883,-0.0012661884673828,0.0012661945868269,-0.0012661881840609,0.0012661943035044,-0.0010795381259192,0.0010795412543052,-0.0010795382817458,0.0010795414099599,8.753729614583e-10,3.1877041562453e-11,4.1828933715771e-09,-3.3973658878391e-09,-0.0010294783999093,0.001029480277896,-0.0013416269795286,0.0013416331158227,-0.0013416291741672,0.0013416302595962,-0.0013416264692187,0.0013416320260492,-0.0013416286638534,0.0013416291698345,-0.0011369386819587,0.0011369463097519,-0.0011369464066853,0.0011369391860764,-0.0010228854392987,0.0010228848360301,-0.0010228878593276,0.0010228856393099,2.5167845980758e-09,2.5168518469037e-09,-0.0012918386524119,0.0012918441988387,-1.3416984916791e-09,6.2323402407249e-09,-0.0016395258372298,0.0016395294662454,-0.0016395225838329,0.0016395312691862,-0.0016395248474905,0.0016395284769985,-0.0016395216788887,0.0016395303646008,-0.0012298085541776,0.001229816014559,-0.0012298072505705,0.0012298147107509,0.6882784266865,125301,3014,0.0039987618872334,0.0042818279980097,0.0053676631679736,17.004663458138,5.1237307665106e-05,5.1237307665106e-05,5.1237307665106e-05,3342326.8130514,0.013743504602357
24419200,0.99978038318355,0.01677992883961,0.005072203480293,0.0053725555650022,0.006335169794315,-0.00096316672288121,0.00096317121501975,1.6986070348681e-09,1.6986869106927e-09,9.1612007451352e-10,2.2596837670356e-09,-0.0012707516784665,0.0012707577371181,-0.0012707513525614,0.0012707574112137,-0.0012707505899688,0.0012707575542705,-0.0012707502645663,0.0012707572288677,-0.0010807768642176,0.0010807807966956,-0.0010807770226663,0.0010807809549735,1.1904686241827e-09,3.7095647242411e-10,4.4085506166467e-09,-2.9449622052714e-09,-0.0010309562510755,0.0010309590024356,-0.0013457148473248,0.0013457216646689,-0.0013457169303019,0.0013457188393594,-0.001345714266393,0.001345720513522,-0.0013457163493666,0.0013457176882239,-0.0011376720990733,0.0011376802311755,-0.0011376796029021,0.0011376733339899,-0.0010242872926446,0.001024287442566,-0.0010242897088715,0.0010242882849739,2.6916409413345e-09,2.6917079785219e-09,-0.0012921255041343,0.0012921315635972,-1.0621215170638e-09,6.2937518643478e-09,-0.0016422162550391,0.0016422203735399,-0.0016422129976106,0.0016422220299316,-0.0016422151826337,0.0016422193016264,-0.0016422120122153,0.0016422210448948,-0.001230441197326,0.0012304489700167,-0.0012304399081471,0.0012304476806373,0.6683188572616,125301,3014,0.0040072288428111,0.0042879799613397,0.0053688805078353,17.881915499158,5.8255323993265e-05,5.8255323993265e-05,5.8255323993265e-05,3286858.5059792,0.013759612860236
24919200,0.9998025970637,0.016780249278919,0.0050723110350543,0.0053726615975926,0.0063352766462723,-0.00096322403939478,0.00096322942928892,2.0466139724068e-09,2.0466938324672e-09,1.2473418690915e-09,2.604091586466e-09,-0.0012701143298245,0.0012701211769198,-0.0012701139595136,0.0012701208066095,-0.0012701131850562,0.0012701209414911,-0.0012701128159396,0.0012701205723746,-0.0010812218187777,0.0010812264980552,-0.0010812219796312,0.0010812266587372,1.4893563303811e-09,6.7512101148343e-10,4.7000915546126e-09,-2.6129321315184e-09,-0.0010309138139814,0.0010309173806353,-0.0013449794450156,0.0013449869648676,-0.0013449814739546,0.0013449841067707,-0.001344978804168,0.0013449857509932,-0.0013449808331037,0.0013449828929075,-0.001138043457303,0.0011380522165218,-0.001138050921969,0.001138045362056,-0.0010246650527615,0.0010246658637834,-0.0010246674848424,0.0010246667271072,2.9093885658823e-09,2.9094555504242e-09,-0.0012917399837916,0.0012917466404609,-8.2984101716185e-10,6.491002633884e-09,-0.0016412892734273,0.0016412939126975,-0.001641285955715,0.0016412954875304,-0.0016412881246494,0.0016412927644114,-0.0016412848965367,0.0016412944287104,-0.001230436447263,0.0012304446776204,-0.0012304351635823,0.0012304433937388,0.63528368964696,125301,3014,0.0040074633845663,0.0042878004550925,0.0053672776388729,18.352027846496,6.2016222771966e-05,6.2016222771966e-05,6.2016222771966e-05,3286642.7734529,0.013758016101487
25419200,0.99982441522487,0.016780594921188,0.0050724269181478,0.0053727759633351,0.0063353920397056,-0.0009658213708748,0.00096582425558809,1.0689048004568e-09,1.0689844350828e-09,3.3464392697539e-10,1.6177434048142e-09,-0.0012713112147974,0.0012713158799299,-0.0012713109600559,0.0012713156251889,-0.001271310236741,0.0012713157759192,-0.0012713099818851,0.0012713155210628,-0.0010841218890621,0.0010841244655605,-0.0010841220474894,0.0010841246238159,6.3966382988921e-10,-1.4537776630535e-10,3.6793754739045e-09,-3.3232455464772e-09,-0.0010335578880654,0.0010335592094833,-0.0013461734159137,0.0013461788555131,-0.0013461754523984,0.0013461762219042,-0.0013461729285643,0.0013461778310046,-0.0013461749650454,0.0013461751974072,-0.0011409999086741,0.0011410065327643,-0.0011410070773538,0.0011409999858805,-0.0010275022418019,0.0010275013273011,-0.0010275045944147,0.0010275021822542,2.351700423284e-09,2.3517675728209e-09,-0.0012943676379057,0.0012943727506226,-1.2238796514344e-09,5.7770592888337e-09,-0.0016425944275722,0.0016425978755633,-0.0016425914144738,0.0016425995384037,-0.001642593492549,0.001642596941032,-0.0016425905621763,0.0016425986864648,-0.0012331208293582,0.0012331277471691,-0.0012331195151122,0.0012331264327222,0.69486038370291,125301,3014,0.004018225190384,0.004298752894804,0.0053781538255614,19.920335036228,7.4562680289825e-05,7.4562680289825e-05,7.4562680289825e-05,3299932.017525,0.013791023086475
25919200,0.99984472119028,0.016780913433479,0.0050725337077745,0.0053728813391119,0.006335498386593,-0.0009681114812324,0.00096811610522182,1.7494785866595e-09,1.7495585380406e-09,9.8037341150053e-10,2.2935793756068e-09,-0.0012767846652844,0.0012767908485516,-0.0012767843328461,0.0012767905161141,-0.001276783579028,0.001276790647717,-0.0012767832478371,0.0012767903165259,-0.0010853032897224,0.0010853073209129,-0.0010853034506188,0.0010853074816386,1.2210706701609e-09,4.3390575439249e-10,4.2468803022743e-09,-2.6868675180177e-09,-0.0010352402077485,0.0010352430839638,-0.0013511358061619,0.0013511425842469,-0.0013511377492222,0.0013511398925552,-0.0013511352068618,0.0013511414348834,-0.0013511371499186,0.0013511387432031,-0.0011416214487382,0.001141629282124,-0.0011416285468411,0.0011416228038872,-0.0010288870183965,0.0010288873759211,-0.0010288894070962,0.0010288882543295,2.6964910339322e-09,2.6965579770048e-09,-0.001294800297821,0.0012948063921484,-8.5442711083827e-10,6.0879182338063e-09,-0.0016460192704568,0.0016460235482367,-0.0016460161399145,0.0016460250581061,-0.0016460181874347,0.0016460224657064,-0.001646015143932,0.0016460240624821,-0.0012337494399177,0.0012337570905169,-0.0012337481514174,0.0012337558018162,0.68893727664669,125301,3014,0.0040277462866205,0.00430575854638,0.005379983906578,20.734576939579,8.107661551663e-05,8.107661551663e-05,8.107661551663e-05,3236756.8403015,0.01380970855571
26419200,0.99986234805312,0.016781203975422,0.0050726312359342,0.0053729775414926,0.0063355951979949,-0.00096655109824684,0.00096655830925396,2.7567459933904e-09,2.7568258858616e-09,1.9283159278603e-09,3.3030899674571e-09,-0.0012751957994709,0.0012752042363489,-0.0012751953446351,0.0012752037815138,-0.0012751945455322,0.0012752038946738,-0.0012751940935124,0.0012752034426536,-0.0010840376199665,0.0010840438170469,-0.0010840377858743,0.0010840439827834,2.0946136548369e-09,1.2929270878859e-09,5.21455896511e-09,-1.8619396845717e-09,-0.0010334981143479,0.0010335033229457,-0.0013493943847672,0.0013494032559254,-0.0013493962600934,0.0013494003887351,-0.0013493936231374,0.0013494019174964,-0.0013493954984597,0.0013493990503177,-0.0011402060707875,0.0011402159489063,-0.0011402133049462,0.0011402093328073,-0.0010275767047531,0.0010275789008982,-0.0010275791630565,0.0010275798057867,3.294999752784e-09,3.2950667397376e-09,-0.0012925599052136,0.0012925676505077,-3.388247483424e-10,6.7581720430713e-09,-0.0016438949239067,0.0016439005412448,-0.00164389153811,0.0016439019032941,-0.0016438936226451,0.0016438992404752,-0.0016438903308356,0.0016439006963782,-0.0012319815631809,0.0012319905586536,-0.001231980299022,0.0012319892942947,0.72144036121654,125301,3014,0.0040212761541547,0.0042985368013104,0.0053707014723621,20.398838512296,7.839070809837e-05,7.839070809837e-05,7.839070809837e-05,3227551.3771365,0.013786402560148
26919200,0.99987875962816,0.016781465920787,0.0050727192359224,0.0053730642928474,0.0063356823920168,-0.00096824346456829,0.00096824795456047,1.6986248540885e-09,1.6987047020903e-09,9.1939107567491e-10,2.2558521210897e-09,-0.0012784123462821,0.0012784184072142,-0.0012784120199486,0.0012784180808814,-0.001278411260776,0.0012784182228612,-0.0012784109355179,0.0012784178976028,-0.0010853396556618,0.0010853435860816,-0.0010853398200745,0.0010853437503235,1.1894734969153e-09,3.7671158977099e-10,4.2289853797681e-09,-2.7595673365378e-09,-0.001034729056251,0.0010347318126455,-0.0013522354785778,0.0013522421798232,-0.0013522374451186,0.0013522394764008,-0.0013522348967133,0.0013522410323943,-0.0013522368632505,0.0013522383289833,-0.0011410908056521,0.0011410985883457,-0.0011410979612892,0.0011410920596759,-0.0010289337383179,0.0010289340076925,-0.0010289361530985,0.0010289348620644,2.6728572851035e-09,2.6729243682306e-09,-0.0012927151526141,0.0012927211789316,-9.0414926983103e-10,6.0917824308165e-09,-0.0016456340369962,0.0016456382421776,-0.0016456308999315,0.0016456397807991,-0.0016456329664036,0.0016456371720769,-0.0016456299157096,0.0016456387969359,-0.0012325388714151,0.001232546488895,-0.0012325375780104,0.0012325451952895,0.69956234933587,125301,3014,0.0040283000771906,0.0043036512530674,0.0053713611052618,21.287234864871,8.5497878918968e-05,8.5497878918968e-05,8.5497878918968e-05,3187942.0181998,0.013799406517248
27419200,0.99989399421934,0.016781707253217,0.0050728004106276,0.0053731442628357,0.0063357625797532,-0.00096943216150426,0.00096943642734661,1.6085343341155e-09,1.6086141299131e-09,8.37046871675e-10,2.1627515844825e-09,-0.0012788585308731,0.0012788643984101,-0.0012788582131711,0.0012788640807085,-0.0012788574610023,0.001278864223535,-0.0012788571443048,0.0012788639068371,-0.0010868372298624,0.0010868409674534,-0.0010868373933496,0.0010868411307694,1.1099295988108e-09,3.0589392113046e-10,4.1239788148336e-09,-2.8108110102216e-09,-0.0010358147879156,0.0010358173486068,-0.0013525715648481,0.0013525780744268,-0.0013525735221611,0.0013525753980225,-0.0013525709944077,0.001352576945422,-0.0013525729517178,0.0013525742690289,-0.0011425154230621,0.0011425229918202,-0.0011425225267171,0.0011425165162723,-0.0010303750057315,0.0010303751250245,-0.0010303774077198,0.0010303759846897,2.6352169091676e-09,2.6352840247055e-09,-0.0012934346645937,0.0012934405835267,-9.1493457131806e-10,6.0269193080463e-09,-0.0016457400466353,0.0016457441833576,-0.0016457369442584,0.001645745720563,-0.0016457389945532,0.0016457431317676,-0.0016457359780507,0.0016457447547141,-0.0012335842512774,0.0012335917684253,-0.0012335829535239,0.0012335904704706,0.69373345910987,125301,3014,0.0040332261023699,0.0043081492337924,0.0053743367203911,22.251217694151,9.3209741553205e-05,9.3209741553205e-05,9.3209741553205e-05,3188208.7061191,0.013811950442057
27919200,0.99990780210358,0.016781932857001,0.005072876274202,0.0053732190208594,0.0063358375619396,-0.00097038661371532,0.00097039154142778,1.8655743468078e-09,1.8656542067505e-09,1.0825602822618e-09,2.4165092085377e-09,-0.0012798429060215,0.0012798493517389,-0.0012798425568656,0.0012798490025837,-0.0012798417957499,0.0012798491383991,-0.0012798414480617,0.0012798487907106,-0.0010877623787905,0.0010877666669962,-0.0010877625431511,0.0010877668311856,1.3292630643959e-09,5.2960126845655e-10,4.3524405545698e-09,-2.5810476648378e-09,-0.0010366144577576,0.0010366176160302,-0.001353402530228,0.0013534095605138,-0.0013534044580185,0.0013534068517072,-0.0013534019159027,0.0013534083858975,-0.0013534038436897,0.0013534056771024,-0.0011433100876425,0.001143318144886,-0.0011433171890725,0.001143311671305,-0.0010313040246474,0.0010313046189317,-0.0010313064359147,0.001031305492895,2.7860213624304e-09,2.7860884359107e-09,-0.001293822497822,0.0012938288354125,-7.6712608564819e-10,6.177083725097e-09,-0.0016461867016283,0.0016461911892345,-0.0016461835462543,0.0016461926763071,-0.0016461855937799,0.0016461900818781,-0.0016461825260523,0.0016461916564638,-0.0012341510855633,0.0012341589300519,-0.0012341497945735,0.0012341576388611,0.71478776517715,125301,3014,0.0040371858280528,0.0043114674689495,0.0053759472603464,22.918726270841,9.8549810166726e-05,9.8549810166726e-05,9.8549810166726e-05,3179728.436303,0.013820959769732
28419200,0.99992015140207,0.016782143293487,0.0050729470283013,0.0053732887590037,0.0063359075061818,-0.00097135147406804,0.00097135674827547,2.0018049896728e-09,2.001884850439e-09,1.2104365604351e-09,2.5536856332745e-09,-0.0012819987916409,0.0012820055364746,-0.0012819984275962,0.0012820051724306,-0.0012819976592981,0.0012820053056237,-0.0012819972969058,0.001282004943231,-0.0010883605184831,0.0010883650988776,-0.0010883606846994,0.0010883652649226,1.4477598805329e-09,6.4309929342163e-10,4.482770664068e-09,-2.4708601059214e-09,-0.001037247885905,0.0010372513534487,-0.0013552782877411,0.0013552855944072,-0.0013552802081554,0.001355282863317,-0.0013552776531435,0.0013552843941674,-0.0013552795735539,0.0013552816630882,-0.0011436061708375,0.0011436145014821,-0.0011436132922711,0.0011436080091397,-0.0010319560102508,0.0010319568518836,-0.0010319584340681,0.0010319577269845,2.8545003708554e-09,2.8545674534532e-09,-0.0012936955252401,0.0012937020582035,-7.0980342540435e-10,6.2558632230845e-09,-0.0016472539819237,0.0016472586213453,-0.0016472507931967,0.0016472600898271,-0.0016472528457014,0.0016472574856152,-0.0016472497452494,0.0016472590422382,-0.0012342441384756,0.0012342521399994,-0.0012342428518291,0.0012342508531517,0.74447174930228,125301,3014,0.0040411943501809,0.0043141045374006,0.0053754366130467,23.441580249475,0.0001027326419958,0.0001027326419958,0.0001027326419958,3151060.0404271,0.0138272050004
28919200,0.99993115822583,0.01678232296682,0.0050730075266261,0.0053733483317262,0.0063359671084679,-0.00097225157075484,0.00097225681290184,1.9903568628758e-09,1.9904367960516e-09,1.197758550122e-09,2.5444193972634e-09,-0.0012842573926953,0.0012842641054124,-0.001284257031382,0.0012842637440998,-0.0012842562617179,0.0012842638785884,-0.0012842559019953,0.0012842635188658,-0.0010889399316267,0.0010889444884012,-0.0010889400991464,0.0010889446557506,1.4399827842048e-09,6.2968668893771e-10,4.4773668156711e-09,-2.486809212764e-09,-0.0010377399736908,0.0010377434107587,-0.0013572101286937,0.0013572174106838,-0.0013572120550424,0.0013572146789733,-0.0013572094983764,0.0013572162116,-0.0013572114247213,0.0013572134799007,-0.001143812774331,0.0011438210906199,-0.0011438199071338,0.0011438145887871,-0.0010325682168124,0.0010325690369667,-0.0010325706459531,0.001032569906682,2.8393424199204e-09,2.8394096391022e-09,-0.0012932248772434,0.0012932313738294,-7.295620578211e-10,6.2461673018177e-09,-0.0016482210919347,0.0016482256921188,-0.0016482179035085,0.0016482271674102,-0.0016482199593875,0.0016482245600636,-0.0016482168587943,0.0016482261230548,-0.001234126083366,0.0012341340574231,-0.0012341247970643,0.00123413277092,0.71381039519392,125301,3014,0.0040449346299386,0.0043161567506699,0.0053735039337277,23.983858771687,0.0001070708701735,0.0001070708701735,0.0001070708701735,3116534.0123333,0.013831143415733
29419200,0.99994105156962,0.016782469520044,0.0050730569836906,0.005373396954432,0.0063360155819214,-0.00097304401041396,0.00097304865032953,1.7537288795512e-09,1.7538087785222e-09,9.7221023399765e-10,2.3095617357096e-09,-0.0012839825450751,0.0012839887375484,-0.0012839822095692,0.0012839884020432,-0.001283981450803,0.0012839885438943,-0.0012839811165303,0.0012839882096207,-0.0010900967047251,0.0010901007562796,-0.0010900968715837,0.001090100922967,1.237573693035e-09,4.2909327920994e-10,4.2596211817523e-09,-2.6864214725316e-09,-0.0010385173162611,0.0010385202167448,-0.0013568832167501,0.0013568900284209,-0.0013568851613131,0.0013568873297981,-0.0013568826245005,0.0013568888722522,-0.0013568845690606,0.0013568861736409,-0.0011449804768485,0.0011449883331522,-0.0011449875940459,0.0011449818499608,-0.0010336761396302,0.001033676531508,-0.0010336785563552,0.001033677395112,2.7230158175006e-09,2.7230829615083e-09,-0.0012938406645388,0.0012938468289896,-8.3473679839321e-10,6.120377726044e-09,-0.001647849595143,0.0016478539335447,-0.0016478464596222,0.0016478554471386,-0.0016478485127288,0.0016478528516227,-0.0016478454636964,0.0016478544515712,-0.0012349965541639,0.0012350042669097,-0.001234995257859,0.0012350029704039,0.64935525945804,125301,3014,0.0040482132520405,0.0043193711472505,0.0053760444431713,24.778720135364,0.00011342976108291,0.00011342976108291,0.00011342976108291,3124701.7284299,0.013840268044885
29919200,0.99994983001209,0.016782607455328,0.0050731034807358,0.0053734427091654,0.0063360612654271,-0.00097353565420888,0.00097354048880449,1.8252557984824e-09,1.8253354905184e-09,1.0431466636443e-09,2.3768723171823e-09,-0.0012817266944929,0.0012817330643459,-0.0012817263456856,0.0012817327155392,-0.0012817255890002,0.001281732855304,-0.0012817252416047,0.001281732507908,-0.0010912109752338,0.0010912151808108,-0.0010912111412186,0.0010912153466238,1.2960598560901e-09,4.9970108780014e-10,4.3286748639239e-09,-2.6235426150454e-09,-0.001039390248636,0.001039393332508,-0.0013548559284651,0.0013548629051869,-0.0013548578627171,0.0013548601905932,-0.0013548553194563,0.0013548617380577,-0.0013548572537047,0.0013548590234754,-0.0011464686736372,0.0011464766828928,-0.0011464757966504,0.0011464701940964,-0.0010347294998584,0.0010347300210989,-0.0010347319091962,0.0010347308995627,2.7982060621373e-09,2.7982731804399e-09,-0.0012954634938758,0.0012954698507248,-7.648131452187e-10,6.1980962579727e-09,-0.0016466766578816,0.0016466811707807,-0.0016466735020323,0.0016466826698791,-0.0016466755576923,0.0016466800710837,-0.0016466724894473,0.0016466816576529,-0.0012364521686977,0.0012364600421376,-0.0012364508702724,0.0012364587435112,0.68704430003959,125301,3014,0.004050235674251,0.0043229690458114,0.0053827420096476,25.465321238725,0.0001189225699098,0.0001189225699098,0.0001189225699098,3170719.4516915,0.013852696771877
30419200,0.99995756047463,0.016782716933448,0.0050731404004586,0.0053734790153105,0.0063360975176788,-0.00097538778572401,0.00097539271514114,1.865785567914e-09,1.8658651901286e-09,1.0826946866264e-09,2.4168568973278e-09,-0.0012859352803523,0.0012859417296739,-0.0012859349310425,0.0012859413803669,-0.0012859341708464,0.0012859415171402,-0.0012859338229617,0.0012859411692548,-0.0010921941479032,0.0010921984368906,-0.0010921943155609,0.0010921986043759,1.329898426915e-09,5.3035483316728e-10,4.3620504435007e-09,-2.5892822366986e-09,-0.0010407980484765,0.0010408012098104,-0.001358694944966,0.001358701986141,-0.0013586968783091,0.0013586992712151,-0.0013586943317059,0.0013587008125169,-0.0013586962650464,0.0013586980976029,-0.0011470324228344,0.0011470404992662,-0.0011470395451741,0.0011470340115991,-0.0010358443348813,0.0010358449250216,-0.0010358467489618,0.0010358458023524,2.7896947030359e-09,2.7897619695103e-09,-0.0012959503040432,0.0012959566517888,-7.7225282370633e-10,6.1896531898732e-09,-0.001649401700536,0.0016494061933318,-0.001649398539792,0.0016494076867565,-0.0016494005937748,0.0016494050870632,-0.0016493975203351,0.0016494066676594,-0.0012369930246916,0.0012370008833641,-0.0012369917306811,0.0012369995891553,0.62192907470482,125301,3014,0.0040579299429799,0.00432882486496,0.0053847860967322,26.130626967547,0.00012424501574037,0.00012424501574037,0.00012424501574037,3124337.405241,0.013868565038169
30919200,0.99996443543859,0.01678282372007,0.005073176396575,0.0053735144378246,0.0063361328856705,-0.00097654509747657,0.00097654922608021,1.5506063385113e-09,1.5506862565699e-09,7.8930644455345e-10,2.0980474168857e-09,-0.0012841085342495,0.0012841142900937,-0.001284108218881,0.0012841139747259,-0.0012841074779368,0.0012841141177503,-0.0012841071635597,0.001284113803373,-0.0010940398786184,0.0010940434913558,-0.0010940400447296,0.0010940436572956,1.0562387541566e-09,2.7143397172407e-10,4.0510595073264e-09,-2.8320890953232e-09,-0.0010423772884657,0.001042379739137,-0.0013571328754619,0.0013571392708168,-0.001357134818372,0.0013571366141144,-0.0013571323096187,0.001357138159245,-0.0013571342525251,0.0013571355025539,-0.0011492880572261,0.0011492954847048,-0.0011492951153433,0.0011492890650276,-0.0010376228258483,0.0010376228530002,-0.0010376252097711,0.0010376237330083,2.6419932818011e-09,2.6420601194064e-09,-0.0012983739334577,0.0012983798543167,-8.8365176239816e-10,6.0071015791408e-09,-0.0016487944141369,0.0016487985855975,-0.0016487913393715,0.0016488001166078,-0.0016487933755592,0.0016487975475118,-0.0016487903863222,0.0016487991639171,-0.0012392472867367,0.0012392547973031,-0.00123924597907,0.0012392534894359,0.67884300912511,125301,3014,0.0040627109148751,0.0043353488094977,0.0053947989549131,27.119859871227,0.00013215887896982,0.00013215887896982,0.00013215887896982,3172698.0559735,0.013890113154838
31419200,0.99997058609863,0.016782920150605,0.0050732088613579,0.0053735464044413,0.0063361648848056,-0.0009800575698115,0.00098006099556333,1.2812808182799e-09,1.2813607540144e-09,5.4135563772158e-10,1.8224177285952e-09,-0.0012908044657521,0.0012908096079661,-0.0012908041884122,0.0012908093306269,-0.0012908034605319,0.0012908094730665,-0.0012908031839192,0.0012908091964536,-0.0010963852497769,0.0010963882762221,-0.0010963854141623,0.0010963884404369,8.1694734248324e-10,4.267297639376e-11,3.7317331067967e-09,-2.9951217258582e-09,-0.0010452923530686,0.0010452941627471,-0.0013633449144256,0.0013633506887375,-0.0013633468428243,0.0013633481239791,-0.0013633443918203,0.0013633496323758,-0.0013633463202152,0.0013633470676287,-0.0011510667654552,0.0011510735258758,-0.0011510736709438,0.0011510672584972,-0.001040140198863,0.0010401397570096,-0.0010401425544217,0.001040140634253,2.4371112584534e-09,2.4371782389366e-09,-0.0013000506222259,0.0013000559997212,-1.0080747060391e-09,5.7242958438089e-09,-0.0016535174719419,0.0016535212207714,-0.001653514507601,0.0016535227557297,-0.0016535164941447,0.0016535202434661,-0.0016535136128857,0.0016535218613731,-0.0012409986443271,0.0012410056655301,-0.0012409973375122,0.0012410043585147,0.68615601681328,125301,3014,0.0040772966781597,0.0043474617962228,0.0054017825621944,28.437152642882,0.00014269722114306,0.00014269722114306,0.00014269722114306,3108111.4831453,0.013924340114074
31919200,0.9999758837111,0.016783004475706,0.0050732372920594,0.0053735743809923,0.0063361928026541,-0.0009814322159832,0.00098143674049702,1.7080626910925e-09,1.7081424884489e-09,9.4738441752694e-10,2.2453751160374e-09,-0.0012925501405304,0.0012925562430383,-0.0012925498110056,0.0012925559135148,-0.0012925490663271,0.0012925560446228,-0.0012925487382893,0.001292555716585,-0.0010977285246548,0.0010977324662165,-0.0010977286922384,0.0010977326336287,1.1827397230912e-09,4.1097165371757e-10,4.1124336674679e-09,-2.6159799161639e-09,-0.0010464310104441,0.001046433810826,-0.0013648911862476,0.0013648978274614,-0.0013648930668377,0.001364895207694,-0.0013648905909962,0.0013648966927147,-0.0013648924715823,0.0013648940729589,-0.0011522033555145,0.0011522109280629,-0.0011522102622602,0.0011522046615407,-0.0010414900041648,0.001041490352568,-0.0010414923819003,0.0010414912510501,2.682428344126e-09,2.682495438841e-09,-0.0013005941303647,0.0013006001927237,-7.69235886107e-10,5.9704916576664e-09,-0.0016545036830812,0.0016545080042075,-0.0016545006286143,0.0016545094560525,-0.0016545026113095,0.0016545069329283,-0.0016544996427851,0.0016545084705819,-0.0012418665306057,0.001241874086345,-0.0012418652338053,0.0012418727893447,0.69501902406593,125301,3014,0.0040830034178548,0.0043521903875659,0.0054040423311124,29.269334984822,0.00014935467987858,0.00014935467987858,0.00014935467987858,3089203.6204129,0.013937212648076
32419200,0.99998023348108,0.016783077205449,0.0050732618105112,0.0053735985141607,0.0063362168807769,-0.00098116197231289,0.00098116835352161,2.430293935512e-09,2.4303737289567e-09,1.619980494002e-09,2.9762775330585e-09,-0.001292816963816,0.0012928246787113,-0.001292816546715,0.001292824261611,-0.0012928157641152,0.0012928243833201,-0.0012928153494923,0.0012928239686969,-0.0010973987087235,0.0010974042077559,-0.0010973988816118,0.0010974043804732,1.8129418341101e-09,1.0167342506044e-09,4.8394709638627e-09,-2.0629961015713e-09,-0.0010459466536731,0.0010459511218351,-0.0013649794464525,0.0013649876115848,-0.0013649813013446,0.0013649848421401,-0.001364978738115,0.0013649863354974,-0.0013649805930034,0.001364983566064,-0.0011516839559702,0.0011516930548654,-0.0011516910312281,0.0011516866195875,-0.0010411702599765,0.0010411719094442,-0.0010411727033528,0.0010411728152176,3.1036763239364e-09,3.1037434347686e-09,-0.0012995834524504,0.0012995906834068,-4.4199186468722e-10,6.4794614601354e-09,-0.001654085607122,0.0016540908496541,-0.0016540823451825,0.0016540922178359,-0.0016540843775554,0.0016540896205796,-0.0016540812064087,0.001654091079421,-0.0012411313421013,0.0012411398701324,-0.0012411300626415,0.0012411385904718,0.72871757459711,125301,3014,0.0040818878328836,0.0043501889370407,0.0053998632428658,29.299123606851,0.00014959298885481,0.00014959298885481,0.00014959298885481,3072709.3212063,0.013929821593472
32919200,0.99998377726766,0.016783132204525,0.0050732803814753,0.0053736167719976,0.0063362350510523,-0.00098077723177622,0.00098078399343711,2.5804310143685e-09,2.5805107263451e-09,1.7553574399763e-09,3.1339390114321e-09,-0.0012939215195659,0.0012939295548234,-0.0012939210865754,0.0012939291218337,-0.0012939202921299,0.0012939292447485,-0.0012939198616518,0.0012939288142697,-0.0010967023477361,0.0010967081732232,-0.0010967025235275,0.0010967083488435,1.9500844978211e-09,1.1343617159179e-09,5.0226845450176e-09,-1.9822982531264e-09,-0.0010451822627339,0.0010451870697955,-0.0013657945184396,0.0013658030126833,-0.0013657963911225,0.0013658001923708,-0.0013657937926649,0.0013658017045699,-0.0013657956653444,0.0013657988842683,-0.0011506348669119,0.0011506443408534,-0.001150642042858,0.0011506378058157,-0.0010404994648162,0.001040501373819,-0.0010405019360232,0.0010405022671153,3.1842572729496e-09,3.1843245347772e-09,-0.0012979358740892,0.0012979433317577,-4.1216159904019e-10,6.6117221903079e-09,-0.0016540178645288,0.0016540232553404,-0.0016540145410159,0.0016540246302537,-0.0016540166050713,0.0016540219963754,-0.0016540133728274,0.0016540234624237,-0.0012398023175517,0.0012398110558198,-0.0012398010420602,0.0012398097801271,0.67786409407751,125301,3014,0.0040802993498865,0.004347031107894,0.0053930547516758,29.174592026579,0.00014859673621263,0.00014859673621263,0.00014859673621263,3039553.9472583,0.013918135748967
33419200,0.99998670572383,0.016783180722911,0.0050732967604362,0.005373632882635,0.0063362510798396,-0.00098011507442826,0.00098012120218563,2.3301581432976e-09,2.3302378868321e-09,1.5092172567723e-09,2.8918665814316e-09,-0.0012913495310767,0.0012913570196307,-0.0012913491237692,0.0012913566123242,-0.0012913483374303,0.001291356748037,-0.0012913479321974,0.0012913563428036,-0.0010966629915264,0.001096668287794,-0.0010966631640781,0.0010966684601733,1.7401348759892e-09,9.1589293018975e-10,4.8365635213058e-09,-2.2386368979659e-09,-0.0010447164193211,0.0010447206612046,-0.0013633249474047,0.0013633329845114,-0.0013633268667788,0.0013633301676918,-0.0013633242647302,0.0013633317172519,-0.0013633261841007,0.0013633289004437,-0.0011508102676829,0.0011508193389433,-0.0011508175122022,0.0011508127331551,-0.0010404070034366,0.0010404084392411,-0.0010404094701612,0.0010404093135615,3.0750172981559e-09,3.0750846743328e-09,-0.0012977944608761,0.0012978015965505,-5.5393382976056e-10,6.537119547338e-09,-0.0016519836530582,0.0016519887705316,-0.0016519803540054,0.0016519902135556,-0.0016519824448357,0.0016519875628016,-0.0016519792361151,0.0016519890960243,-0.001239840311536,0.001239848830691,-0.0012398390269858,0.0012398475459401,0.72119043498003,125301,3014,0.0040775388599975,0.0043450817683101,0.005392445758377,29.31612552943,0.00014972900423544,0.00014972900423544,0.00014972900423544,3067885.7877685,0.013912691491388
33919200,0.99998919406775,0.016783221488799,0.0050733105183817,0.0053736464153649,0.0063362645550521,-0.00098202690702722,0.00098203165029384,1.7949197098173e-09,1.7949992924155e-09,1.0061460226355e-09,2.3562330219339e-09,-0.0012953173907478,0.0012953236690956,-0.0012953170522954,0.0012953233306437,-0.0012953162885858,0.0012953234756191,-0.0012953159512879,0.0012953231383208,-0.0010978676281191,0.0010978717710024,-0.0010978678003111,0.0010978719430231,1.2782019365873e-09,4.5706637909395e-10,4.3302903709394e-09,-2.6852967554649e-09,-0.0010461860190433,0.0010461890104321,-0.0013669469315039,0.0013669538490243,-0.0013669488955732,0.0013669511240165,-0.0013669463386926,0.0013669526836398,-0.0013669483027582,0.0013669499586432,-0.0011515920636904,0.0011516000600594,-0.0011515992532897,0.0011515935129297,-0.0010416925722177,0.0010416930268341,-0.0010416950067077,0.0010416938833961,2.7413599025132e-09,2.7414272588084e-09,-0.0012982868870907,0.0012982931066767,-8.5044479220125e-10,6.1738065104196e-09,-0.0016545358512801,0.0016545402108263,-0.0016545326867545,0.0016545417412675,-0.0016545347626998,0.0016545391227382,-0.0016545316841534,0.0016545407390254,-0.0012404434469526,0.001240451224499,-0.0012404421498989,0.0012404499272439,0.71426719899008,125301,3014,0.0040854772030441,0.0043511908679292,0.005394511593577,30.0698810976,0.0001557590487808,0.0001557590487808,0.0001557590487808,3024984.6285012,0.013929080155552
34419200,0.99999135564939,0.016783256192584,0.0050733222465967,0.0053736579427854,0.0063362760032019,-0.00098449770972923,0.0009845009055906,1.1921261272475e-09,1.1922057353449e-09,4.4069109368959e-10,1.74995473229e-09,-0.0012975419028997,0.0012975468386051,-0.0012975416364993,0.0012975465722054,-0.0012975409024247,0.0012975467279664,-0.0012975406363216,0.001297546461863,-0.0011004292780857,0.0011004321243219,-0.0011004294477698,0.0011004322938349,7.5555246719169e-10,-5.1123079050395e-11,3.7352663346311e-09,-3.1573472877619e-09,-0.0010484859000407,0.0010484875038115,-0.0013690122666049,0.0013690179283764,-0.0013690142583641,0.0013690153198213,-0.0013690117694866,0.0013690168784331,-0.001369013761242,0.0013690142698892,-0.0011540152270155,0.0011540219715179,-0.0011540222998785,0.0011540155454166,-0.001044240547284,0.0010442399159875,-0.0010442429360364,0.0010442407635628,2.3992858568758e-09,2.3993531822308e-09,-0.0013000889359933,0.0013000942031509,-1.1252346677356e-09,5.7697171813359e-09,-0.0016561785790464,0.0016561821863464,-0.001656175579432,0.0016561837932757,-0.0016561776215437,0.0016561812293359,-0.0016561747037981,0.0016561829180011,-0.0012425475314439,0.0012425545244658,-0.0012425462167885,0.001242553209609,0.69956539798494,125301,3014,0.0040957226956968,0.0043607267332301,0.0054019780155716,31.479586558465,0.00016703669246772,0.00016703669246772,0.00016703669246772,3015482.5293731,0.013956694548003
34919200,0.99999325827919,0.016783287526535,0.0050733328352324,0.0053736683515875,0.0063362863397151,-0.00098852075437826,0.00098852230967602,5.5372848712187e-10,5.5380811351287e-10,-1.507387631519e-10,1.1013329219764e-09,-0.0013010067638795,0.0013010102775085,-0.0013010065744785,0.0013010100881075,-0.0013010058760238,0.0013010102507525,-0.0013010056861006,0.001301010060829,-0.0011044730531896,0.0011044745212076,-0.0011044732206845,0.0011044746885305,1.9724069001217e-10,-5.8170017352701e-10,3.065708919622e-09,-3.6164532921633e-09,-0.0010523991397122,0.0010523992734708,-0.0013723486711852,0.0013723529697372,-0.0013723506670851,0.0013723505119784,-0.001372348272069,0.0013723520470166,-0.0013723502679656,0.00137234958927,-0.0011579775992147,0.001157982944159,-0.0011579844706908,0.0011579767260459,-0.0010482932659464,0.0010482915010995,-0.0010482955938142,0.0010482923515341,2.0317169135017e-09,2.0317842086812e-09,-0.001303646640026,0.001303650885975,-1.3822484713168e-09,5.296245960939e-09,-0.001659201257078,0.0016592040803546,-0.001659198459788,0.001659205743237,-0.0016592004397219,0.0016592032634909,-0.0016591977197955,0.0016592050036038,-0.0012462648460928,0.0012462709706837,-0.0012462635121619,0.0012462696365495,0.71680104602199,125301,3014,0.0041124060655895,0.0043769518820469,0.0054167176077028,33.573062383813,0.00018378449907051,0.00018378449907051,0.00018378449907051,3011346.5897583,0.014004993383049
35419200,0.99999490325392,0.01678331299838,0.0050733414531679,0.0053736768154369,0.0063362947297752,-0.00099350997490182,0.00099351088623825,3.0336425654785e-10,3.0344388549759e-10,-3.7336397263398e-10,8.3603163654267e-10,-0.0013067427571774,0.0013067457212742,-0.0013067425986515,0.0013067455627488,-0.0013067419199016,0.0013067457206431,-0.0013067417608133,0.0013067455615544,-0.0011090565978708,0.0011090575176065,-0.001109056762716,0.0011090576822805,-3.2101903592515e-11,-7.7934640484605e-10,2.7326737406415e-09,-3.724756522653e-09,-0.0010570605432457,0.0010570600996157,-0.001377807623641,0.0013778113358905,-0.0013778095768488,0.0013778089856092,-0.0013778072559958,0.0013778104693024,-0.0013778092091999,0.0013778081190326,-0.0011622601321308,0.0011622647955834,-0.0011622667848239,0.0011622587983636,-0.0010529196701253,0.0010529174858228,-0.0010529219513986,0.001052918355997,1.868058799086e-09,1.8681261240292e-09,-0.0013074988565562,0.0013075026595753,-1.4339531256869e-09,5.0197252508687e-09,-0.0016638424396039,0.0016638449626229,-0.001663839767127,0.001663846600362,-0.0016638416758218,0.0016638441993328,-0.001663839079017,0.0016638459126108,-0.0012502601199473,0.0012502658179374,-0.0012502587828139,0.0012502644806025,0.6752187147995,125301,3014,0.004133106473989,0.0043962923019618,0.0054326953390274,35.929068498498,0.00020263254798798,0.00020263254798798,0.00020263254798798,2983125.7177293,0.014061815818498
35919200,0.9999962337735,0.016783334479881,0.0050733487209165,0.0053736839548143,0.0063363018041502,-0.0009962488605384,0.00099625145536404,9.5533837450961e-10,9.5541826130441e-10,2.5673379678227e-10,1.4734013546588e-09,-0.0013078335525692,0.0013078379843616,-0.0013078333126844,0.0013078377444775,-0.0013078326156967,0.0013078378804284,-0.0013078323765589,0.0013078376412904,-0.0011121198714,0.0011121221855907,-0.0011121200396599,0.0011121223536796,5.2079078438668e-10,-2.0366326123085e-10,3.2593978392308e-09,-3.086468987178e-09,-0.0010599286720968,0.0010599297528267,-0.0013789337818059,0.0013789387761874,-0.0013789356237368,0.0013789363782065,-0.0013789332980654,0.0013789377970226,-0.0013789351399926,0.0013789353990529,-0.0011654739215519,0.0011654797266688,-0.0011654804643877,0.0011654738428672,-0.0010559842019555,0.0010559832537203,-0.0010559864969477,0.0010559841733996,2.2520362588382e-09,2.2521032512622e-09,-0.0013105539028624,0.001310558776684,-1.0047931102014e-09,5.3476151890856e-09,-0.0016651945718091,0.0016651980234817,-0.0016651918001223,0.0016651994982261,-0.0016651936664535,0.0016651971186183,-0.0016651909748807,0.0016651986733433,-0.0012533806353531,0.0012533871318366,-0.0012533793123864,0.001253385808669,0.70236607462502,125301,3014,0.0041444624286939,0.0044081785534856,0.0054453409735111,37.536090238096,0.00021548872190476,0.00021548872190476,0.00021548872190476,3002478.6443962,0.014098168466719
36419200,0.99999721502495,0.016783350089878,0.0050733540017678,0.0053736891420349,0.0063363069460758,-0.00099629036962708,0.00099629690085466,2.4860320461628e-09,2.486111925546e-09,1.7026903040388e-09,3.0002635652428e-09,-0.0013093665255652,0.0013093743878321,-0.0013093661004787,0.0013093739627462,-0.001309365336175,0.0013093740638888,-0.0013093649143006,0.0013093736420145,-0.0011116791545111,0.0011116847543579,-0.0011116793302845,0.0011116849299602,1.8364471188465e-09,1.1008956249899e-09,4.6982489847167e-09,-1.8112798337437e-09,-0.0010596788759754,0.0010596834919028,-0.0013802373193475,0.0013802454626395,-0.0013802390418272,0.001380242816412,-0.0013802365827322,0.0013802441964038,-0.0013802383052079,0.0013802415501878,-0.001164750685355,0.001164759537011,-0.0011647573818099,0.0011647534949182,-0.0010555995758499,0.001055601413127,-0.0010556019644116,0.0010556023835186,3.1171793536046e-09,3.117246410909e-09,-0.0013096725118404,0.0013096798038488,-2.390690960444e-10,6.2954881528936e-09,-0.0016657940610326,0.0016657994748608,-0.0016657909153189,0.0016658007035788,-0.0016657928191243,0.0016657982334439,-0.0016657897641314,0.0016657995527505,-0.001252557393208,0.0012525658273562,-0.0012525561136709,0.0012525645476171,0.69281234864627,125301,3014,0.0041446483067224,0.0044071597913789,0.0054417116099732,37.488412641473,0.00021510730113179,0.00021510730113179,0.00021510730113179,2974089.97881,0.014093679659754
36919200,0.99999792192769,0.01678336090257,0.0050733576643077,0.0053736927368058,0.0063363105014567,-0.00099451236352867,0.00099452028603379,3.0266554587533e-09,3.0267353173431e-09,2.1925856674247e-09,3.5605200921435e-09,-0.0013074376572885,0.0013074467244829,-0.001307437165184,0.0013074462323792,-0.0013074363649526,0.0013074463358249,-0.0013074358766249,0.0013074458474969,-0.0011100306968321,0.0011100374724134,-0.0011100308761488,0.0011100376515592,2.3184964377437e-09,1.5399951971193e-09,5.3104633984255e-09,-1.4684650503994e-09,-0.0010578758226782,0.0010578816860362,-0.001378265630361,0.0013782749722566,-0.0013782673767973,0.0013782721660231,-0.0013782648166668,0.0013782735914082,-0.0013782665630993,0.0013782707851859,-0.0011630905065557,0.0011631006272205,-0.0011630974645101,0.0011630943209558,-0.0010539543008843,0.0010539570876856,-0.001053956763155,0.0010539580389505,3.4469467466136e-09,3.4470137869185e-09,-0.0013077831150126,0.0013077913123574,-4.7770979747007e-11,6.760531290645e-09,-0.0016637446815776,0.0016637507734542,-0.0016637413337171,0.0016637519839437,-0.0016637433207282,0.0016637494130969,-0.0016637400674923,0.0016637507180777,-0.0012508228338122,0.001250832071086,-0.001250821566821,0.0012508308038937,0.6663258805567,125301,3014,0.0041372720153516,0.0043996808980734,0.0054338806412045,36.861739407051,0.00021009391525641,0.00021009391525641,0.00021009391525641,2975549.6649012,0.014070666237922
37419200,0.99999846750984,0.016783369339941,0.0050733605213789,0.005373695541713,0.0063363132768496,-0.00099578608592786,0.00099579062565694,1.7128851487404e-09,1.7129650140652e-09,9.3774542375629e-10,2.2644278366957e-09,-0.0013077382814304,0.0013077443945267,-0.0013077379491981,0.001307744062295,-0.0013077371981905,0.0013077442052083,-0.0013077368673425,0.00130774387436,-0.0011114755055377,0.0011114794685197,-0.0011114756796856,0.0011114796424966,1.2004435650409e-09,4.0314145725741e-10,4.1545655099982e-09,-2.6473492442289e-09,-0.0010592235838543,0.001059226403443,-0.001378574447263,0.0013785811435972,-0.0013785763491825,0.0013785784966443,-0.0013785738608991,0.0013785800010084,-0.0013785757628148,0.0013785773540667,-0.0011646232338559,0.0011646308835995,-0.0011646302198821,0.0011646245522023,-0.0010554149856807,0.0010554153484524,-0.0010554173960472,0.0010554162286558,2.7130095927722e-09,2.7130765864314e-09,-0.001309241834839,0.0013092479703665,-7.7538687884545e-10,6.0376572761264e-09,-0.0016641650068174,0.0016641693772508,-0.0016641619275316,0.0016641708530545,-0.0016641639360082,0.0016641683069339,-0.0016641609422257,0.0016641698681075,-0.001252320632554,0.0012523282766363,-0.0012523193269669,0.0012523269708483,0.67334139627703,125301,3014,0.0041425423951036,0.0044052562463736,0.0054399113200898,37.673859639487,0.0002165908771159,0.0002165908771159,0.0002165908771159,2987267.0257695,0.014087757680702
37919200,0.99999886989779,0.016783375355293,0.0050733625588749,0.0053736975414468,0.0063363152549711,-0.00099573694495336,0.00099574337567424,2.4462711321255e-09,2.4463509940681e-09,1.6294853596937e-09,2.9968025480628e-09,-0.0013083040218506,0.0013083117825203,-0.0013083036003326,0.001308311361003,-0.0013083028160336,0.0013083114873988,-0.0013083023969994,0.0013083110683643,-0.0011111923323776,0.0011111978714386,-0.0011111925093217,0.0011111980482118,1.8317069808459e-09,1.026503741883e-09,4.8723465782168e-09,-2.0653642510393e-09,-0.0010590351418636,0.001059039659194,-0.0013790143189888,0.0013790225473068,-0.0013790161813991,0.0013790197616186,-0.0013790136110065,0.0013790212649704,-0.0013790154734131,0.0013790184792935,-0.0011642085854551,0.0011642177508569,-0.0011642157000237,0.0011642112858327,-0.00105517288194,0.001055174563038,-0.001055175339563,0.0010551754648866,3.1308521926146e-09,3.1309191985088e-09,-0.0013087470689735,0.0013087543728741,-4.3302359216179e-10,6.5238212003581e-09,-0.0016642461806659,0.0016642514817835,-0.0016642429019985,0.0016642528569593,-0.0016642449469421,0.0016642502485519,-0.0016642417588866,0.0016642517142062,-0.0012518621353247,0.0012518707338185,-0.0012518608512692,0.0012518694495621,0.65161956929542,125301,3014,0.0041423434664043,0.0044044811930743,0.0054378706899727,37.676474614282,0.00021661179691426,0.00021661179691426,0.00021661179691426,2974564.2117578,0.014084715882039
38419200,0.99999916080773,0.016783379988615,0.0050733641269063,0.0053736990815662,0.0063363167801429,-0.00099431321275033,0.00099432078996706,2.8908574662594e-09,2.8909372461457e-09,2.0426385966459e-09,3.4461513015903e-09,-0.0013062050328366,0.0013062137989395,-0.001306204554943,0.0013062133210478,-0.0013062037484561,0.0013062134422346,-0.0013062032737102,0.0013062129674887,-0.001109951586441,0.0011099580848732,-0.0011099517645915,0.0011099582628548,2.2174447088767e-09,1.4020422482114e-09,5.3367728720765e-09,-1.7408373160492e-09,-0.0010577160287829,0.0010577215776104,-0.0013769600918253,0.0013769692819709,-0.001376961946975,0.0013769663907045,-0.0013769593116292,0.001376967912301,-0.0013769611667758,0.0013769650210428,-0.0011630769994134,0.0011630871395889,-0.0011630842482768,0.0011630805368921,-0.0010539473033322,0.001053949772117,-0.0010539497952108,0.0010539506815011,3.4027621959507e-09,3.4028292343145e-09,-0.0013076517951705,0.0013076598447318,-2.3610518691331e-10,6.8659811768704e-09,-0.001662395188706,0.0016624010801442,-0.0016623917679756,0.0016624024117699,-0.0016623938547755,0.0016623997467055,-0.0016623905282616,0.0016624011724143,-0.0012507846635289,0.0012507938968949,-0.0012507833905724,0.0012507926237362,0.69258614062147,125301,3014,0.0041364335887255,0.0043990045820204,0.0054333241517666,37.198059366084,0.00021278447492867,0.00021278447492867,0.00021278447492867,2987527.4383863,0.014068542714855
38880000,0.99999936395821,0.016783383269226,0.0050733652366646,0.005373700171855,0.0063363178607062,-0.00099461616052881,0.00099462265749366,2.4753692641093e-09,2.4754488238553e-09,1.6398658266658e-09,3.0449624583106e-09,-0.001308486449094,0.001308494254889,-0.0013084860269807,0.0013084938327761,-0.0013084852288475,0.0013084939700129,-0.00130848480875,0.0013084935499148,-0.0011096495316374,0.0011096551429882,-0.001109649712679,0.0011096553238585,1.8724972003646e-09,1.0286948870957e-09,5.033203823136e-09,-2.181250416315e-09,-0.0010576513779571,0.0010576559467812,-0.0013789693049448,0.0013789776798461,-0.0013789712547688,0.0013789748008642,-0.0013789686059413,0.0013789763816056,-0.0013789705557615,0.0013789735026348,-0.0011624128831352,0.0011624223537763,-0.0011624202695957,0.0011624156173469,-0.0010537003615086,0.0010537020332227,-0.0010537028613072,0.0010537029010974,3.1503788643823e-09,3.1504461556796e-09,-0.001306799346997,0.0013068066967912,-5.4717331126035e-10,6.682736238701e-09,-0.0016635407620609,0.0016635460103866,-0.0016635373900017,0.0016635474728114,-0.0016635395249364,0.0016635447737544,-0.0016635362431621,0.0016635463263308,-0.001249996109953,0.0012500048403274,-0.0012499948244188,0.0012500035545919,0.70236790018274,125301,3014,0.0041376965114125,0.0043987483926243,0.0054298141903253,37.193677111095,0.00021274941688876,0.00021274941688876,0.00021274941688876,2949665.0102445,0.014066051799208
