time,ASR_ext,ASR_strain,ASR_strain_xx,ASR_strain_yy,ASR_strain_zz,disp_x_101,disp_x_102,disp_x_103,disp_x_104,disp_x_105,disp_x_106,disp_x_p1_neg,disp_x_p1_pos,disp_x_p2_neg,disp_x_p2_pos,disp_x_p3_neg,disp_x_p3_pos,disp_x_p4_neg,disp_x_p4_pos,disp_x_p5_neg,disp_x_p5_pos,disp_x_p6_neg,disp_x_p6_pos,disp_y_101,disp_y_102,disp_y_103,disp_y_104,disp_y_105,disp_y_106,disp_y_p1_neg,disp_y_p1_pos,disp_y_p2_neg,disp_y_p2_pos,disp_y_p3_neg,disp_y_p3_pos,disp_y_p4_neg,disp_y_p4_pos,disp_y_p5_neg,disp_y_p5_pos,disp_y_p6_neg,disp_y_p6_pos,disp_y_p7_neg,disp_y_p7_pos,disp_y_p8_neg,disp_y_p8_pos,disp_z_101,disp_z_102,disp_z_103,disp_z_104,disp_z_105,disp_z_106,disp_z_p1_neg,disp_z_p1_pos,disp_z_p2_neg,disp_z_p2_pos,disp_z_p3_neg,disp_z_p3_pos,disp_z_p4_neg,disp_z_p4_pos,disp_z_p5_neg,disp_z_p5_pos,disp_z_p6_neg,disp_z_p6_pos,humidity,ndof,nelem,strain_xx,strain_yy,strain_zz,temp,thermal_strain_xx,thermal_strain_yy,thermal_strain_zz,vonmises,vstrain
2419200,0,0,0,0,0,0,0,0,0,0,0,0,0,0,0,0,0,0,0,0,0,0,0,0,0,0,0,0,0,0,0,0,0,0,0,0,0,0,0,0,0,0,0,0,0,0,0,0,0,0,0,0,0,0,0,0,0,0,0,0,0,0,0,0,0,0,0,0,0,0,0,0,0,0,0
2919200,0.076434437678606,0.0015601436830424,0.00052004789434748,0.00052004789434748,0.00052004789434748,-0.0001636238183512,0.00016361319137876,-3.920129023683e-09,-3.9201290028675e-09,-3.7995360295398e-09,-3.8925328804763e-09,-0.00016380956128111,0.00016380093948302,-0.00016381044509766,0.00016380182329937,-0.00016381037850184,0.00016380176196323,-0.00016381126111983,0.00016380264458075,-0.00016597120455872,0.00016596293834126,-0.00016597202798514,0.00016596376176773,-3.7995345509345e-09,-3.8925358587382e-09,-7.8289853630291e-09,-1.1273552678671e-11,-0.00016362381835173,0.0001636131913782,-0.00016381086855721,0.00016379963766568,-0.00016380913782165,0.00016380312511738,-0.00016381168517999,0.0001638004595452,-0.00016380995444429,0.00016380394699703,-0.00016597503704179,0.00016595911733469,-0.00016596819550299,0.0001659675827706,-0.00016596987674123,0.00016596440416407,-0.00016597063757935,0.00016596505594769,-4.7906853002275e-09,-4.7906852827869e-09,-0.00016362469540498,0.00016361231432494,-8.7331231162893e-10,-8.6970118767092e-09,-0.00016380906608133,0.00016380133775329,-0.00016381258413616,0.00016379963803676,-0.00016380997525042,0.00016380224692263,-0.0001638134566245,0.00016380051052529,-0.00016597420075152,0.00016596160049354,-0.00016597339722341,0.0001659607969658,0.81617709150612,125301,3014,0.00068151080924394,0.00068151080924403,0.000681510809244,32.411067969227,0.00017448854375382,0.00017448854375382,0.00017448854375382,723531.17730283,0.0020466252943987
3419200,0.15576248967491,0.0031024293693117,0.0010341431231211,0.0010341431231209,0.0010341431230696,-0.00028216552715713,0.00028215274177859,-5.1485996113601e-09,-5.1486480778354e-09,-4.9737681616791e-09,-5.1076202210906e-09,-0.00028665295671002,0.00028664189040872,-0.00028665433689241,0.00028664327065408,-0.00028665427956196,0.00028664318603551,-0.0002866556558693,0.0002866445623377,-0.00028586632046496,0.00028585565496014,-0.00028586804429694,0.00028585737864247,-4.9737663539984e-09,-5.1076239949638e-09,-9.5238860000263e-09,-7.7336324230285e-10,-0.00028216552715778,0.00028215274177774,-0.0002866544275793,0.0002866404357584,-0.00028665286602293,0.00028664472530498,-0.00028665574851325,0.0002866417294634,-0.00028665418692097,0.00028664601890716,-0.00028587061838342,0.00028585138807631,-0.00028586374637932,0.00028586164551995,-0.00028586481774436,0.00028585734615171,-0.00028586645886646,0.00028585882609225,-5.8559283201742e-09,-5.8559768266924e-09,-0.00028216624826528,0.00028215202064731,-1.4545160104534e-09,-1.0224280365878e-08,-0.00028665213755831,0.0002866425843789,-0.00028665648278238,0.00028664107784438,-0.00028665355686295,0.00028664400376436,-0.0002866578500033,0.00028664244507371,-0.00028587022168886,0.00028585522971819,-0.00028586851539865,0.0002858535235805,0.78776538723662,125301,3014,0.001174971828831,0.0011749718288308,0.0011749718287831,31.910911358903,0.00017048729087122,0.00017048729087122,0.00017048729087122,1087000.9476995,0.0035311390263566
3919200,0.24278882507166,0.0047393968256582,0.0015797989419018,0.0015797989419018,0.0015797989418546,-0.00040957620485449,0.00040956668134127,-3.849102140057e-09,-3.8491417031867e-09,-3.7088579659497e-09,-3.819254531631e-09,-0.0004225089709166,0.00042250063391037,-0.00042250995328664,0.00042250161633902,-0.00042250992954633,0.00042250155543693,-0.00042251090751111,0.00042250253339957,-0.00041423224834262,0.00041422416087395,-0.00041423307771468,0.00041422499011846,-3.7088562622316e-09,-3.8192577125917e-09,-6.5898825026509e-09,-1.1083622503237e-09,-0.00040957620485492,0.00040956668134075,-0.00042250989552848,0.00042249972476688,-0.00042250902867451,0.00042250252548357,-0.00042251085198524,0.00042250064411734,-0.0004225099850746,0.00042250344471757,-0.00041423494642091,0.00041422149321412,-0.00041423037963672,0.00041422765777302,-0.00041423128890648,0.00041422525494413,-0.00041423206678034,0.00041422589565804,-3.9706050872254e-09,-3.9706447004123e-09,-0.00040957633456268,0.00040956655161185,-1.1991662249641e-09,-6.7049289245753e-09,-0.00042250813294598,0.00042250138857654,-0.00042251098139997,0.0004225005615764,-0.00042250914363649,0.00042250239934037,-0.00042251195625356,0.00042250153643866,-0.00041423412180648,0.00041422396610816,-0.00041423330639649,0.00041422315082681,0.77553102846544,125301,3014,0.0017050932255619,0.0017050932255617,0.0017050932255178,32.496470995451,0.00017517176796361,0.00017517176796361,0.00017517176796361,1558669.8353704,0.0051283948859487
4419200,0.33798231580702,0.0065027219572944,0.0021675739857793,0.0021675739857791,0.002167573985736,-0.00054701059325475,0.00054700376646166,-2.7423758207423e-09,-2.7424107537634e-09,-2.6616562455817e-09,-2.7248801819868e-09,-0.00057142427878878,0.00057141849288448,-0.00057142498762658,0.00057141920176932,-0.00057142498561269,0.0005714191762875,-0.00057142569137851,0.00057141988203173,-0.00055344610196548,0.00055344032577982,-0.00055344649601174,0.00055344071971735,-2.6616531566244e-09,-2.7248854971911e-09,-4.2301725677051e-09,-1.2546156615448e-09,-0.00054701059325549,0.00054700376646079,-0.00057142478235306,0.00057141799982705,-0.00057142448406153,0.0005714196948282,-0.00057142548766362,0.00057141868171151,-0.00057142518933147,0.00057142037660439,-0.00055344756855682,0.00055343887999154,-0.00055344502942324,0.00055344216549977,-0.00055344557862895,0.00055344091519544,-0.0005534459452665,0.00055344121384366,-2.5283071827746e-09,-2.5283422873492e-09,-0.00054701038354179,0.00054700397615512,-1.0147426655434e-09,-4.0122804399838e-09,-0.00057142354889227,0.00057141918561047,-0.00057142527355198,0.00057141890792423,-0.00057142427234857,0.00057141990912826,-0.0005714259821922,0.00057141961655408,-0.00055344678669731,0.00055344044219067,-0.00055344639439843,0.00055344004999978,0.77667599023679,125301,3014,0.0022766056184053,0.002276605618405,0.0022766056183647,33.598284824459,0.00018398627859567,0.00018398627859567,0.00018398627859567,2033477.5742858,0.0068532170402802
4919200,0.44130052823676,0.0083941939211097,0.0027980646403838,0.0027980646403836,0.0027980646403423,-0.00069426384920379,0.00069425888875098,-1.932481162027e-09,-1.9325082881983e-09,-1.9085834600854e-09,-1.9229951074371e-09,-0.00073415129887156,0.00073414734599839,-0.00073415180543694,0.00073414785259976,-0.00073415180779027,0.00073414785740695,-0.00073415231189303,0.00073414836148252,-0.00070350396442389,0.00070349972436153,-0.0007035042773304,0.0007035000371589,-1.9085812496789e-09,-1.9229990237439e-09,-2.3687510512223e-09,-1.4962396586534e-09,-0.00069426384920432,0.00069425888875033,-0.000734151450539,0.00073414720259929,-0.00073415165376888,0.00073414799599976,-0.00073415195825472,0.00073414771280114,-0.00073415216143119,0.00073414850608592,-0.00070350439949499,0.00070349930660903,-0.00070350384226129,0.00070350045490721,-0.00070350381821707,0.00070349988232886,-0.00070350410930903,0.00070350018621958,-1.4760817421278e-09,-1.4761090581168e-09,-0.00069426339568774,0.00069425934224853,-1.0162840412201e-09,-1.90938721634e-09,-0.000734150698066,0.00073414794384703,-0.00073415150650356,0.00073414815298634,-0.00073415120683028,0.00073414845266021,-0.00073415201697791,0.0007341486634428,-0.00070350397505784,0.00070350034517144,-0.00070350365246614,0.00070350002268872,0.77771912381838,125301,3014,0.0028885893777167,0.0028885893777164,0.0028885893776782,35.342972100039,0.00019794377680031,0.00019794377680031,0.00019794377680031,2492004.8398541,0.0087034771363931
5419200,0.54201686554168,0.010196332431603,0.0033987774772138,0.0033987774772134,0.0033987774771759,-0.00083100640094923,0.00083100344873567,-1.1073948794936e-09,-1.107425052513e-09,-1.1377050383038e-09,-1.1072483156181e-09,-0.00089009124919472,0.00089008922973199,-0.00089009159420916,0.00089008957479147,-0.00089009159383167,0.00089008960670971,-0.00089009193684613,0.00089008994970189,-0.00084328186900761,0.00084327933812378,-0.00084328211451891,0.00084327958355089,-1.1377027033358e-09,-1.1072517890653e-09,-6.7557803881384e-10,-1.5392425868869e-09,-0.00083100640094949,0.00083100344873522,-0.00089009111021575,0.00089008937515409,-0.00089009173318703,0.00089008942937039,-0.00089009145387892,0.00089008975115441,-0.00089009207680079,0.00089008980525501,-0.00084328145282534,0.00084327976890692,-0.00084328253070188,0.00084327915276366,-0.00084328203700986,0.00084327912696159,-0.00084328227161322,0.00084327944787888,-4.7680106987813e-10,-4.768313954223e-10,-0.00083100577203811,0.00083100407763002,-8.8722853527727e-10,-4.2679235222778e-11,-0.00089009078147528,0.00089008972706135,-0.00089009083519505,0.00089009034038569,-0.00089009111496854,0.00089009006061273,-0.00089009118498959,0.00089009069016793,-0.00084328134741634,0.00084328034787372,-0.0008432810851116,0.00084328008565208,0.76998245760729,125301,3014,0.0034565666611263,0.0034565666611259,0.0034565666610914,36.272581744397,0.00020538065395518,0.00020538065395518,0.00020538065395518,2873988.5670678,0.010423751794523
5919200,0.63329475349898,0.011708021647853,0.0039026738826299,0.0039026738826294,0.0039026738825932,-0.00094196747242848,0.00094196664291195,-2.1429484338081e-10,-2.1431922790058e-10,-3.0355375087657e-10,-2.2410832287986e-10,-0.0010238682519384,0.0010238682440979,-0.0010238683931324,0.0010238683853265,-0.0010238683936262,0.0010238684452146,-0.0010238685330717,0.0010238685846285,-0.00095399907556896,0.00095399834119518,-0.00095399918996983,0.00095399845550365,-3.0355126878518e-10,-2.2411211963152e-10,1.2274508204902e-09,-1.6560661143688e-09,-0.00094196747242884,0.00094196664291137,-0.0010238677757177,0.0010238687257803,-0.001023868869352,0.0010238679036453,-0.001023867916559,0.0010238689260465,-0.0010238690101412,0.0010238681037943,-0.00095399766951557,0.0009539997600099,-0.00095400059602469,0.00095399703668334,-0.00095399960961419,0.00095399770858374,-0.00095399972112602,0.00095399798767975,6.2240253167695e-10,6.2237787640074e-10,-0.00094196663653479,0.00094196747878962,-7.9919964351419e-10,2.0661021295276e-09,-0.0010238679369772,0.001023868625499,-0.0010238670982266,0.0010238696935704,-0.0010238680516143,0.0010238687401832,-0.0010238672447452,0.0010238698400666,-0.00095399788129656,0.00095399975530876,-0.00095399774138259,0.00095399961548689,0.7232260718424,125301,3014,0.0039172374441607,0.0039172374441602,0.0039172374441274,36.778889278997,0.00020943111423198,0.00020943111423198,0.00020943111423198,3173393.4670651,0.011821196697454
6419200,0.71057507022539,0.012945294110636,0.0043150980368903,0.0043150980368899,0.0043150980368556,-0.0010284166690435,0.0010284178294111,5.9686510573955e-10,5.9683985456978e-10,4.4971250341525e-10,5.7953398651687e-10,-0.0011319862065121,0.0011319881203875,-0.0011319861467872,0.0011319880606985,-0.0011319861545303,0.0011319881502327,-0.0011319860967545,0.0011319880924265,-0.0010395966371959,0.0010395975776611,-0.0010395966931027,0.0010395976334827,4.4971390861405e-10,5.7953183221504e-10,2.2683827403054e-09,-1.0746783068363e-09,-0.0010284166690435,0.0010284178294109,-0.0011319856406786,0.0011319886753893,-0.00113198671262,0.0011319875056975,-0.0011319855896988,0.0011319887062341,-0.001131986661587,0.0011319875364242,-0.0010395949965913,0.0010395992085627,-0.0010395983337072,0.0010395960025776,-0.0010395972852081,0.0010395967858458,-0.0010395973361569,0.0010395970939649,1.5121351381036e-09,1.5121096207067e-09,-0.001028415756236,0.0010284187422035,-1.6386523094144e-10,3.1803523216697e-09,-0.0011319859159698,0.001131988510395,-0.0011319847036215,0.0011319895302044,-0.0011319858196766,0.0011319884141499,-0.001131984653801,0.0011319894803627,-0.0010395952294944,0.0010395990848898,-0.0010395951356066,0.0010395989910866,0.70960752316693,125301,3014,0.0042760074780017,0.0042760074780012,0.0042760074779704,36.741524595796,0.00020913219676637,0.00020913219676637,0.00020913219676637,3408144.393491,0.012910881169139
6919200,0.78018480542292,0.014091510194547,0.0046971700648604,0.0046971700648599,0.0046971700648268,-0.0011092900461651,0.0011092905292474,3.9389749793711e-10,3.938727633398e-10,2.2930069272712e-10,3.7743247046181e-10,-0.0012339337483845,0.0012339352764737,-0.0012339337128797,0.0012339352410033,-0.0012339337084828,0.0012339353380665,-0.0012339336747472,0.0012339353042993,-0.0011221550127383,0.0011221554847026,-0.0011221551407126,0.0011221556125941,2.2929988657976e-10,3.7743388605644e-10,2.1870449018282e-09,-1.3992739015107e-09,-0.0011092900461645,0.0011092905292477,-0.0012339331449625,0.0012339358719646,-0.0012339343163017,0.0012339346455124,-0.0012339331059711,0.0012339359344692,-0.0012339342772569,0.0012339347078988,-0.0011221532540528,0.0011221572374524,-0.0011221568993948,0.001122153859844,-0.0011221557233962,0.0011221546234241,-0.0011221558283467,0.0011221550341244,1.3106314885783e-09,1.3106062904657e-09,-0.0011092891343411,0.001109291441057,-4.8487131104369e-10,3.1017201941948e-09,-0.0012339335035564,0.0012339356258703,-0.0012339322305106,0.0012339367460497,-0.0012339334271001,0.0012339355494607,-0.0012339322030643,0.0012339367185809,-0.0011221536382606,0.0011221571042267,-0.0011221534661375,0.0011221569321865,0.73388447362443,125301,3014,0.0046115270940943,0.0046115270940939,0.0046115270940645,38.623702209539,0.00022418961767631,0.00022418961767631,0.00022418961767631,3531051.2765912,0.013931029450492
7419200,0.84018115543567,0.015010102111397,0.0050033673704765,0.0050033673704761,0.0050033673704439,-0.0011697003578831,0.0011697006593688,3.3248676911037e-10,3.3246236373829e-10,1.6070861146223e-10,3.1734582547934e-10,-0.0013174273277896,0.0013174287380196,-0.0013174273345834,0.0013174287448471,-0.0013174273200977,0.0013174288427847,-0.0013174273281372,0.0013174288507919,-0.0011825894502465,0.0011825897869161,-0.0011825896270166,0.0011825899636047,1.6070877125337e-10,3.1734587760275e-10,2.1572979877621e-09,-1.4923484988384e-09,-0.0011697003578828,0.0011697006593689,-0.0013174267160893,0.0013174293445283,-0.0013174279462833,0.0013174281383389,-0.001317426709047,0.0013174294499428,-0.001317427939187,0.0013174282436347,-0.0011825876619717,0.001182591572823,-0.0011825914152893,0.0011825881776965,-0.0011825901838782,0.0011825889037056,-0.0011825903251582,0.0011825893748783,1.2066345524956e-09,1.2066096030225e-09,-0.0011696994908077,0.0011697015264305,-6.1764069353019e-10,3.0303750037708e-09,-0.001317427138693,0.0013174290308139,-0.0013174258860136,0.0013174302116547,-0.0013174271027511,0.0013174289949177,-0.0013174258982239,0.0013174302238416,-0.0011825881588385,0.0011825914227474,-0.0011825879354072,0.0011825911993976,0.68603447731308,125301,3014,0.0048621065488138,0.0048621065488134,0.0048621065487852,40.762297224583,0.00024129837779666,0.00024129837779666,0.00024129837779666,3565882.3102359,0.014693638870636
7919200,0.88525808944349,0.015677620397133,0.0052258734657218,0.0052258734657214,0.0052258734656898,-0.0012056872466367,0.0012056903700736,1.4112952356052e-09,1.4112710688729e-09,1.1937168861803e-09,1.3898367656173e-09,-0.0013712305099687,0.001371234399646,-0.0013712303075354,0.0013712341972459,-0.0013712303079888,0.0013712343177415,-0.0013712301109109,0.001371234120631,-0.0012183037331486,0.0012183063496407,-0.0012183038482801,0.0012183064646919,1.1937193018072e-09,1.389833643198e-09,3.4681230016691e-09,-6.4555713998322e-10,-0.0012056872466367,0.0012056903700733,-0.001371229805679,0.0013712350802067,-0.0013712310118238,0.0013712335166867,-0.0013712296064055,0.0013712350010048,-0.001371230812496,0.0013712334373661,-0.0012183017069691,0.0012183083477142,-0.0012183058744601,0.0012183044666145,-0.0012183045708844,0.0012183053279681,-0.0012183046534171,0.0012183058019093,2.3126264760251e-09,2.3126015957852e-09,-0.0012056863543125,0.0012056912623844,2.261148378175e-10,4.3624438779811e-09,-0.001371230394214,0.0013712346435199,-0.0013712287613191,0.0013712357775876,-0.0013712301447782,0.0013712343941291,-0.0013712285698684,0.001371235586113,-0.0012183022751206,0.0012183080277593,-0.0012183021041612,0.0012183078568802,0.66517730246306,125301,3014,0.0050113689160633,0.0050113689160629,0.0050113689160355,40.956004918922,0.00024284803935138,0.00024284803935138,0.00024284803935138,3586141.2133993,0.015148183012337
8419200,0.91882682812156,0.016166252367002,0.0053887507890115,0.0053887507890111,0.0053887507889799,-0.0012287404841794,0.0012287438162865,1.5118709292633e-09,1.5118469792302e-09,1.2826110661712e-09,1.490330816946e-09,-0.0014096991666131,0.0014097033162824,-0.0014096989440633,0.0014097030937654,-0.001409698941593,0.0014097032182879,-0.001409698724082,0.0014097030007443,-0.0012416321945218,0.0012416350101337,-0.0012416323291505,0.0012416351446834,1.2826116559786e-09,1.4903302257177e-09,3.7985972401663e-09,-7.7487917001111e-10,-0.0012287404841792,0.0012287438162865,-0.0014096983874058,0.0014097040737527,-0.0014096997232699,0.0014097023362956,-0.0014096981649325,0.0014097039783042,-0.001409699500742,0.0014097022407283,-0.0012416299442115,0.0012416372349175,-0.0012416345794595,0.0012416329198979,-0.0012416331200736,0.0012416338951873,-0.0012416332146574,0.0012416344058981,2.4288000882363e-09,2.4287752264664e-09,-0.0012287395776424,0.0012287447228104,1.1353590890886e-10,4.7093126470548e-09,-0.0014096991171349,0.0014097034974859,-0.0014096973092963,0.0014097047626251,-0.0014096988457632,0.0014097032261587,-0.0014096970967624,0.0014097045500669,-0.0012416306662753,0.0012416367991496,-0.0012416304724633,0.0012416366054173,0.65392244204943,125301,3014,0.0051069906179325,0.005106990617932,0.0051069906179053,41.43219089926,0.00024665752719408,0.00024665752719408,0.00024665752719408,3550240.0330516,0.015439514659831
8919200,0.94330321289772,0.016508279030181,0.0055027596767376,0.0055027596767372,0.0055027596767063,-0.0012415194342433,0.0012415231872417,1.686294442627e-09,1.6862708400539e-09,1.4468479652584e-09,1.6643505713501e-09,-0.0014354675529267,0.0014354721140649,-0.0014354672987564,0.0014354718599273,-0.0014354672953824,0.0014354719878296,-0.0014354670460887,0.0014354717385031,-0.0012546351527524,0.0012546383303123,-0.0012546352913642,0.001254638468846,1.4468477325537e-09,1.6643511367079e-09,4.182451680462e-09,-8.0988597928714e-10,-0.0012415194342428,0.0012415231872419,-0.0014354667046478,0.0014354729415341,-0.0014354681470349,0.0014354710324583,-0.0014354664495687,0.0014354728177643,-0.0014354678919011,0.0014354709085698,-0.0012546326979389,0.0012546407609035,-0.0012546377461749,0.0012546360382535,-0.0012546361566143,0.00125463713191,-0.0012546362505679,0.0012546376607547,2.6134895709229e-09,2.6134645189235e-09,-0.0012415185185049,0.0012415241029673,8.8966186996997e-11,5.1038270894388e-09,-0.0014354675678834,0.0014354722344468,-0.0014354655873113,0.0014354736062074,-0.0014354672634559,0.0014354719300632,-0.0014354653425516,0.001435473361423,-0.0012546335503295,0.0012546402028905,-0.0012546333497822,0.0012546400024229,0.62734198666742,125301,3014,0.0051600122531846,0.0051600122531842,0.005160012253158,41.891214544798,0.00025032971635839,0.00025032971635839,0.00025032971635839,3487445.8147674,0.015601122659419
9419200,0.96005944133861,0.016738653378425,0.0055795511261524,0.0055795511261519,0.0055795511261212,-0.0012456449799142,0.0012456511295676,2.6146267120663e-09,2.6146036528296e-09,2.3367143813914e-09,2.5870256200255e-09,-0.0014484763497755,0.0014484830586119,-0.0014484759009792,0.0014484826098483,-0.0014484759109872,0.0014484827560658,-0.0014484754692184,0.0014484823142645,-0.0012590702640891,0.0012590754035625,-0.0012590703592976,0.0012590754986938,2.3367114736263e-09,2.5870303877842e-09,5.6212599608443e-09,-3.9202801210245e-10,-0.0012456449799132,0.0012456511295684,-0.0014484753233265,0.001448484054595,-0.0014484769274291,0.001448481613864,-0.0014484748880766,0.0014484837555923,-0.0014484764921245,0.0014484813147427,-0.0012590673038153,0.0012590783261022,-0.0012590733195656,0.0012590725761567,-0.0012590714580889,0.0012590739839322,-0.0012590715128759,0.0012590745230383,3.6129590297582e-09,3.6129335280078e-09,-0.0012456439938777,0.0012456521155915,5.6083238345566e-10,6.6107434980592e-09,-0.0014484764830379,0.0014484830828118,-0.0014484739558679,0.0014484846024887,-0.0014484759792698,0.0014484825790872,-0.0014484735202277,0.0014484841668235,-0.0012590683779021,0.0012590774726889,-0.0012590682129187,0.0012590773077852,0.61542000508932,125301,3014,0.0051771517350629,0.0051771517350625,0.0051771517350367,41.151422363837,0.00024441137891069,0.00024441137891069,0.00024441137891069,3439027.3701295,0.015653390893473
9919200,0.97133120326516,0.016893228374599,0.0056310761248767,0.0056310761248763,0.0056310761248456,-0.0012453961812173,0.0012454037480229,3.1703210546915e-09,3.170297854165e-09,2.8703318587438e-09,3.1396543861842e-09,-0.0014551992882556,0.0014552072821886,-0.0014551987252838,0.0014552067192494,-0.0014551987412805,0.0014552068745894,-0.0014551981848846,0.001455206318161,-0.001259277868097,0.0012592841794097,-0.0012592779455893,0.0012592842568253,2.8703308354409e-09,3.1396559331701e-09,6.8319089690443e-09,-4.9128910962968e-10,-0.0012453961812167,0.0012454037480232,-0.0014551980452728,0.0014552084968343,-0.0014551999682665,0.0014552055046034,-0.0014551975016121,0.001455208092551,-0.001455199424551,0.0014552051002014,-0.0012592742677141,0.001259287744943,-0.0012592815459678,0.0012592806912921,-0.0012592792906145,0.0012592825121867,-0.001259279329596,0.0012592830645072,4.2527708150061e-09,4.2527455390724e-09,-0.0012453951115422,0.0012454048176855,5.4823984085507e-10,7.9062400195004e-09,-0.0014551995674247,0.0014552071744297,-0.0014551964860519,0.001455209011074,-0.0014551989450388,0.0014552065520874,-0.0014551959363273,0.0014552084613245,-0.0012592756646028,0.0012592865312509,-0.0012592755121548,0.0012592863788822,0.61191532491674,125301,3014,0.0051761523420774,0.005176152342077,0.0051761523420514,39.828570631376,0.00023382856505101,0.00023382856505101,0.00023382856505101,3388254.5879713,0.015650390152257
10419200,0.97890603140858,0.016998949520258,0.0056663165067633,0.0056663165067628,0.0056663165067322,-0.0012426947342635,0.0012427033425495,3.5804653082426e-09,3.5804421896547e-09,3.2660748981832e-09,3.547730637029e-09,-0.0014579019319589,0.0014579108668827,-0.0014579012913635,0.0014579102263197,-0.0014579013086334,0.001457910384683,-0.0014579006700698,0.0014579097460867,-0.0012571279217144,0.0012571350976647,-0.00125712798756,0.0012571351634337,3.2660758015747e-09,3.5477284861388e-09,8.622314510504e-09,-1.4614081993321e-09,-0.0012426947342636,0.001242703342549,-0.0014579002462656,0.0014579125449309,-0.0014579029770552,0.0014579085482725,-0.0014578996239847,0.0014579120637727,-0.0014579023547195,0.0014579080669959,-0.0012571229813209,0.0012571400314439,-0.001257132927954,0.0012571302296495,-0.0012571298056995,0.0012571329508274,-0.0012571298361861,0.0012571335128983,4.845170226846e-09,4.8451449243837e-09,-0.0012426934823351,0.0012427045944654,-2.0562643631234e-10,9.8854856161413e-09,-0.0014579024985674,0.0014579104853994,-0.0014578984258067,0.001457913142928,-0.00145790179093,0.0014579097778056,-0.0014578977936637,0.0014579125107602,-0.0012571250715768,0.0012571380753394,-0.0012571249257758,0.0012571379296177,0.62047456211763,125301,3014,0.0051649808226769,0.0051649808226765,0.0051649808226511,38.100565495866,0.00022000452396693,0.00022000452396693,0.00022000452396693,3342204.5251027,0.01561639129685
10919200,0.98446060562392,0.017073758320438,0.0056912527734897,0.0056912527734893,0.0056912527734587,-0.0012420043292758,0.0012420102266356,2.5446677702052e-09,2.5446447972599e-09,2.2688531540347e-09,2.5191469689658e-09,-0.0014621085741374,0.0014621151230188,-0.0014621081553105,0.0014621147042245,-0.0014621081527841,0.001462114842019,-0.0014621077324872,0.0014621144216897,-0.0012568655361798,0.0012568705154551,-0.0012568656572467,0.0012568706364458,2.2688548882967e-09,2.5191446378826e-09,7.2899696087358e-09,-2.2006574526855e-09,-0.0012420043292758,0.0012420102266353,-0.0014621070008131,0.0014621167046333,-0.0014621097286336,0.0014621131226111,-0.0014621065787533,0.0014621164229241,-0.001462109306519,0.0014621128407834,-0.0012568608951281,0.0012568751721513,-0.0012568702982983,0.0012568659797461,-0.0012568673048152,0.0012568685187705,-0.0012568673789614,0.0012568690824498,3.7380445513637e-09,3.7380191333167e-09,-0.001242003149051,0.001242011406848,-9.8943665238945e-10,8.4870072034027e-09,-0.0014621090934408,0.0014621147637013,-0.0014621054555783,0.0014621174383442,-0.0014621086118096,0.0014621142821134,-0.0014621050389042,0.0014621170216451,-0.0012568629136816,0.0012568733788907,-0.0012568627191711,0.0012568731844597,0.59839954981649,125301,3014,0.0051621371607294,0.0051621371607289,0.0051621371607037,37.94630941383,0.00021877047531064,0.00021877047531064,0.00021877047531064,3289540.5416247,0.015607768823058
11419200,0.98850793354248,0.017128116812888,0.0057093722709731,0.0057093722709727,0.0057093722709422,-0.0012405630054415,0.0012405692952746,2.6958499711633e-09,2.6958269976298e-09,2.4112001721957e-09,2.6694162924587e-09,-0.0014627665013303,0.001462773415533,-0.0014627660482029,0.0014627729624381,-0.0014627660481737,0.0014627731051497,-0.0014627655952585,0.0014627726522019,-0.0012557736456345,0.0012557789453857,-0.0012557737654511,0.0012557790651265,2.4112014138686e-09,2.6694146530493e-09,7.2118669808825e-09,-1.820190137938e-09,-0.0012405630054414,0.0012405692952744,-0.0014627649978128,0.0014627749195635,-0.0014627675517197,0.0014627714584087,-0.0014627645447904,0.0014627746093122,-0.0014627670986425,0.001462771148039,-0.0012557692247788,0.0012557833710616,-0.001255778186306,0.0012557746394479,-0.0012557753450429,0.001255777013036,-0.0012557754170801,0.0012557775879455,3.8679054117918e-09,3.8678800112736e-09,-0.0012405618472615,0.0012405704534423,-6.4327641440593e-10,8.3850362288401e-09,-0.0014627669694532,0.0014627731101216,-0.0014627634452921,0.0014627756035147,-0.0014627664540478,0.0014627725947595,-0.0014627629963841,0.0014627751545816,-0.0012557711187906,0.0012557817106889,-0.0012557709238385,0.0012557815158162,0.59529609868198,125301,3014,0.005156170997352,0.0051561709973515,0.0051561709973264,37.628643303938,0.00021622914643151,0.00021622914643151,0.00021622914643151,3268624.6444262,0.015589597222558
11919200,0.99144124144466,0.017168388043393,0.0057227960144749,0.0057227960144745,0.005722796014444,-0.0012387037501515,0.0012387105316334,2.8890749916245e-09,2.8890520874419e-09,2.5983108796215e-09,2.8617582311916e-09,-0.0014634648265572,0.001463472181069,-0.0014634643350229,0.0014634716895672,-0.0014634643375744,0.0014634718353457,-0.0014634638473535,0.0014634713450924,-0.0012542438806992,0.0012542495883092,-0.0012542439954813,0.0012542497030156,2.5983125255418e-09,2.8617559952783e-09,7.3467586250597e-09,-1.5686318590398e-09,-0.0012387037501515,0.0012387105316331,-0.0014634633382063,0.00146347366488,-0.0014634658233727,0.0014634702057572,-0.0014634628499086,0.0014634733198391,-0.0014634653350203,0.001463469860598,-0.0012542395141801,0.0012542539527626,-0.001254248362,0.0012542453385589,-0.0012542455648175,0.0012542476678467,-0.0012542456321714,0.0012542482454989,4.0420032877506e-09,4.0419778347634e-09,-0.0012387026113986,0.001238711670374,-4.193454723719e-10,8.4991861036398e-09,-0.0014634652972306,0.0014634718756112,-0.0014634617701712,0.0014634742953728,-0.0014634647435603,0.0014634713219841,-0.001463461284171,0.0014634738093476,-0.0012542413866969,0.0012542523107158,-0.0012542411957515,0.0012542521198498,0.60696177318419,125301,3014,0.0051484772987052,0.0051484772987048,0.0051484772986798,37.105276413129,0.00021204221130504,0.00021204221130504,0.00021204221130504,3239283.920201,0.015566178431995
12419200,0.99360079828702,0.017198350661696,0.005732783553909,0.0057327835539086,0.0057327835538781,-0.0012370473059597,0.0012370537473127,2.7622830341494e-09,2.7622600883798e-09,2.4788515939618e-09,2.7362068173482e-09,-0.0014646816209883,0.0014646886693409,-0.0014646811597233,0.0014646882081084,-0.0014646811593978,0.0014646883500621,-0.001464680699532,0.0014646878901639,-0.0012529282768808,0.0012529337144746,-0.0012529283981756,0.0012529338356935,2.4788529941548e-09,2.7362049955582e-09,7.0519572678586e-09,-1.5274144482685e-09,-0.0012370473059596,0.0012370537473125,-0.0014646801882841,0.0014646900970994,-0.0014646825924266,0.0014646867803507,-0.0014646797274213,0.0014646897785462,-0.0014646821315091,0.0014646864616791,-0.0012529240747146,0.001252937914168,-0.0012529326003418,0.0012529296359974,-0.0012529299024325,0.0012529318605237,-0.0012529299743217,0.0012529324334907,3.8709419778503e-09,3.8709165872142e-09,-0.0012370462115668,0.0012370548416934,-4.2302231701741e-10,8.1600029827454e-09,-0.0014646820759295,0.001464688374076,-0.0014646786925018,0.0014646907140223,-0.0014646815541675,0.0014646878523571,-0.0014646782363169,0.0014646902578123,-0.0012529258890989,0.0012529363441909,-0.001252925693217,0.001252936148388,0.6122962955464,125301,3014,0.0051416259013434,0.005141625901343,0.0051416259013181,36.802579052282,0.00020962063241825,0.00020962063241825,0.00020962063241825,3202639.9386813,0.015545335325914
12919200,0.99517194642762,0.01721946378676,0.0057398212622639,0.0057398212622635,0.005739821262233,-0.0012343752315218,0.001234382432884,3.0577331562922e-09,3.0577101784647e-09,2.7653873221979e-09,3.0300715860989e-09,-0.0014640789537485,0.0014640866707255,-0.001464078434814,0.0014640861518233,-0.0014640784382395,0.001464086297626,-0.0014640779211141,0.0014640857804681,-0.0012505827343492,0.0012505887971347,-0.0012505828446313,0.0012505889073412,2.7653884450364e-09,3.0300701072065e-09,7.538455064456e-09,-1.4230121077129e-09,-0.0012343752315217,0.0012343824328838,-0.0014640774557449,0.0014640881618902,-0.0014640799328169,0.0014640846606593,-0.0014640769411683,0.0014640877897215,-0.0014640794181857,0.0014640842883723,-0.0012505783439827,0.0012505931822348,-0.0012505872349976,0.0012505845222383,-0.0012505844272774,0.0012505868681866,-0.0012505844905796,0.0012505874419921,4.1813714525606e-09,4.1813461101583e-09,-0.0012343741222129,0.0012343835421807,-3.0688629880482e-10,8.6608273967269e-09,-0.0014640794619877,0.0014640863276618,-0.001464075890945,0.001464088737395,-0.0014640788813116,0.0014640857470289,-0.0014640753778354,0.0014640882242604,-0.0012505802571753,0.001250591494396,-0.001250580070562,0.0012505913078618,0.59298586671534,125301,3014,0.0051305620860782,0.0051305620860778,0.0051305620860529,36.137130093973,0.00020429704075179,0.00020429704075179,0.00020429704075179,3175749.8208873,0.015511648110972
13419200,0.99629135972196,0.017234335843429,0.0057447786144866,0.0057447786144862,0.0057447786144557,-0.0012304416599595,0.0012304502302509,3.5862195175142e-09,3.5861965733328e-09,3.2722808066558e-09,3.555142347724e-09,-0.00146050308846,0.0014605120308957,-0.0014605024609325,0.0014605114034005,-0.0014605024718802,0.0014605115590244,-0.0014605018462307,0.0014605109333424,-0.0012469221979512,0.0012469293804444,-0.0012469222895405,0.0012469294719582,3.2722821474953e-09,3.5551405548817e-09,8.5992205583595e-09,-1.4268048481668e-09,-0.0012304416599594,0.0012304502302506,-0.0014605014127923,0.0014605136993875,-0.0014605041365993,0.0014605097349094,-0.0014605007971796,0.0014605132284813,-0.0014605035209319,0.0014605092638849,-0.0012469172860842,0.0012469342863877,-0.0012469272014064,0.001246924566011,-0.00124692407708,0.0012469272451204,-0.001246924126138,0.0012469278309869,4.7946510837594e-09,4.7946257157697e-09,-0.0012304404660951,0.001230451424103,-2.2659843583803e-10,9.8062537725609e-09,-0.0014605037008101,0.0014605115980234,-0.0014604996620789,0.0014605142501216,-0.0014605030074722,0.0014605109047288,-0.0014604990413902,0.0014605136294079,-0.0012469194417663,0.0012469323193613,-0.0012469192690304,0.0012469321467045,0.58571222054267,125301,3014,0.0051142588909114,0.005114258890911,0.0051142588908861,34.796596107633,0.00019357276886106,0.00019357276886106,0.00019357276886106,3172409.1302925,0.015461975871339
13919200,0.99711566127328,0.017245151078924,0.005748383692985,0.0057483836929846,0.0057483836929541,-0.001227455695199,0.0012274636076184,3.3346274712433e-09,3.3346045525317e-09,3.0290760021015e-09,3.3053009824415e-09,-0.0014583756835653,0.001458384052527,-0.0014583751085386,0.0014583834775327,-0.0014583751152961,0.0014583836291755,-0.0014583745419288,0.0014583830557757,-0.0012441147412231,0.0012441213901642,-0.0012441148467302,0.001244121495596,3.0290774878751e-09,3.3052989824291e-09,8.1419895718406e-09,-1.4727579080249e-09,-0.001227455695199,0.0012274636076181,-0.0014583740773264,0.001458385652578,-0.0014583767147765,0.0014583818774824,-0.0014583735099151,0.001458385230082,-0.0014583761473105,0.0014583814548682,-0.0012441100314414,0.0012441260957921,-0.0012441195565116,0.0012441167899649,-0.0012441165491822,0.0012441193346607,-0.0012441166086682,0.0012441199226461,4.5135375374676e-09,4.513512146008e-09,-0.0012274545310875,0.0012274647717178,-3.0033804020256e-10,9.3198991135972e-09,-0.0014583762523911,0.0014583836569888,-0.0014583724056213,0.0014583862252852,-0.001458375613133,0.0014583830177739,-0.0014583718366871,0.001458385656326,-0.001244112096895,0.0012441242454021,-0.0012441119117475,0.0012441240603338,0.57829083929706,125301,3014,0.0051018834125753,0.0051018834125748,0.00510188341255,33.82954914555,0.0001858363931644,0.0001858363931644,0.0001858363931644,3161717.5487698,0.015424283448215
14419200,0.99772358477078,0.017252951538192,0.0057509838460745,0.0057509838460741,0.0057509838460436,-0.001224056999666,0.0012240653668436,3.511269588889e-09,3.5112466252964e-09,3.199252761436e-09,3.4809301980895e-09,-0.0014556624430597,0.001455671219457,-0.0014556618327957,0.0014556706092253,-0.001455661841787,0.00145567076372,-0.0014556612332478,0.0014556701551483,-0.0012408767316237,0.0012408837540751,-0.0012408768323162,0.0012408838546924,3.1992538134873e-09,3.4809287618282e-09,8.4819305937406e-09,-1.4594146095207e-09,-0.0012240569996658,0.0012240653668434,-0.0014556607821082,0.0014556728739099,-0.0014556634937464,0.001455668954773,-0.0014556601817258,0.0014556724190615,-0.0014556628933093,0.0014556684998063,-0.0012408718616853,0.001240888619243,-0.0012408817022539,0.0012408789895219,-0.0012408785967799,0.0012408816354914,-0.0012408786528,0.001240882227826,4.7118539852716e-09,4.711828638693e-09,-0.001224055814017,0.0012240665524804,-2.6591683636436e-10,9.6813777612608e-09,-0.0014556630481627,0.0014556707918058,-0.0014556590558771,0.001455673432829,-0.0014556623725101,0.0014556701161965,-0.0014556584519997,0.0014556728289266,-0.0012408740069682,0.0012408866802569,-0.0012408738251492,0.0012408864985171,0.56553166013809,125301,3014,0.0050877981740419,0.0050877981740414,0.0050877981740167,32.643518243127,0.00017634814594501,0.00017634814594501,0.00017634814594501,3153501.4874645,0.015381382676288
14919200,0.99815964265582,0.017258601103274,0.0057528670344351,0.0057528670344346,0.0057528670344042,-0.0012189806000609,0.0012189906877503,4.1781103343031e-09,4.1780874025919e-09,3.841637823425e-09,4.1438426733331e-09,-0.001450845769466,0.0014508560776063,-0.0014508450219076,0.0014508553300808,-0.0014508450420608,0.0014508554974188,-0.0014508442989049,0.00145085475423,-0.0012359555840804,0.0012359640192989,-0.001235955657267,0.0012359640924096,3.8416389748934e-09,4.143841280611e-09,9.2307694560674e-09,-8.7457237391885e-10,-0.0012189806000612,0.0012189906877502,-0.0014508440710117,0.0014508577574338,-0.0014508467203614,0.0014508536502544,-0.001450843345836,0.0014508571794731,-0.001450845995131,0.0014508530721755,-0.0012359506274833,0.0012359689553043,-0.0012359606138635,0.001235959156402,-0.0012359574890383,0.0012359618421747,-0.0012359575215471,0.0012359624396687,5.3956706301425e-09,5.3956452610351e-09,-0.001218979397682,0.0012189918901171,3.1539603466176e-10,1.0443487766676e-08,-0.0014508463970236,0.0014508556416682,-0.0014508422024422,0.0014508582065288,-0.0014508455821417,0.0014508548268293,-0.001450841465423,0.0014508574694842,-0.00123595278606,0.0012359669622177,-0.0012359526275228,0.0012359668037597,0.57027522552647,125301,3014,0.0050667575963967,0.0050667575963971,0.0050667575963715,30.580728506945,0.00015984582805556,0.00015984582805556,0.00015984582805556,3153393.6430023,0.015317292270679
15419200,0.9984567690529,0.017262731748682,0.0057542439162377,0.0057542439162373,0.0057542439162068,-0.0012109163144232,0.0012109291784611,5.2563624253243e-09,5.2563394482615e-09,4.8860208696516e-09,5.2159543878209e-09,-0.0014440736456031,0.00144408640358,-0.0014440726815621,0.0014440854395706,-0.0014440727187965,0.001444085624204,-0.0014440717629103,0.0014440846682856,-0.0012280826163685,0.0012280933326108,-0.0012280826480782,0.0012280933642458,4.8860218954201e-09,5.2159528643858e-09,1.0515896353502e-08,-3.1944326063253e-12,-0.001210916314423,0.0012109291784611,-0.0014440718637976,0.0014440881497009,-0.0014440744633664,0.0014440836934509,-0.0014440709410959,0.001444087374429,-0.001444073540611,0.0014440829180607,-0.001228077448044,0.0012280984573696,-0.0012280878164016,0.0012280882394844,-0.0012280846059596,0.0012280910438237,-0.0012280846056267,0.0012280916443431,6.4890636326191e-09,6.4890383291568e-09,-0.0012109150968846,0.0012109303959876,1.1730700076636e-09,1.1738339891391e-08,-0.0014440743439123,0.00144408591729,-0.0014440697802393,0.0014440884126343,-0.0014440733097266,0.0014440848831476,-0.0014440688325298,0.0014440874648995,-0.0012280796903243,0.0012280963186274,-0.0012280795677874,0.0012280961961694,0.60998273192118,125301,3014,0.0050333390370075,0.0050333390370071,0.0050333390369822,27.073081016789,0.00013178464813431,0.00013178464813431,0.00013178464813431,3144241.8247649,0.015215523890399
15919200,0.99868507799902,0.017266153230122,0.0057553844100513,0.0057553844100508,0.0057553844100204,-0.0012061997223249,0.0012062092421675,3.9680783937524e-09,3.9680547344164e-09,3.6501031964999e-09,3.9361314544154e-09,-0.0014423152307125,0.0014423250056088,-0.0014423145415578,0.001442324316486,-0.0014423145548871,0.001442324472633,-0.0014423138678216,0.0014423237855346,-0.0012235878738505,0.001223595858252,-0.0012235879661213,0.0012235959504458,3.6501045165216e-09,3.9361296522314e-09,9.2577180291108e-09,-1.3215853031075e-09,-0.0012061997223249,0.0012062092421672,-0.0014423134620563,0.0014423267660818,-0.0014423163102131,0.0014423225560136,-0.0014423127873036,0.0014423262341766,-0.0014423156354057,0.0014423220239902,-0.0012235826905521,0.0012236010342788,-0.0012235931494191,0.0012235907744158,-0.001223589846108,0.0012235936278117,-0.0012235898978012,0.0012235942175146,5.1592648992929e-09,5.1592402831037e-09,-0.0012061985458241,0.0012062104186563,-1.4042018414212e-10,1.0447167640465e-08,-0.0014423159548011,0.0014423244633812,-0.0014423116689544,0.0014423272382696,-0.0014423151993003,0.0014423237079241,-0.0014423109865933,0.001442326555884,-0.0012235850438497,0.0012235988736263,-0.0012235848696261,0.00122359869948,0.65577890558506,125301,3014,0.0050137980147763,0.0050137980147759,0.0050137980147512,25.355161845496,0.00011804129476397,0.00011804129476397,0.00011804129476397,3107343.8694528,0.015156056573056
16419200,0.99887032641074,0.017268688139973,0.0057562293800015,0.0057562293800011,0.0057562293799706,-0.0012025890111813,0.0012025970634802,3.4017340970054e-09,3.4017101895593e-09,3.1076141248158e-09,3.3738500252565e-09,-0.0014415693615048,0.0014415778140988,-0.0014415687935304,0.0014415772461561,-0.0014415687967313,0.0014415773898026,-0.0014415682290335,0.0014415768220717,-0.0012203157566803,0.0012203225447032,-0.001220315865157,0.0012203226531023,3.107614477609e-09,3.3738494319952e-09,8.54752212457e-09,-1.7440780203678e-09,-0.0012025890111811,0.0012025970634801,-0.0014415676478993,0.0014415795278071,-0.0014415705071354,0.0014415755324479,-0.0014415670832916,0.0014415791036759,-0.0014415699424729,0.0014415751081985,-0.0012203107188506,0.0012203275871757,-0.0012203209029855,0.0012203176106274,-0.0012203176696695,0.0012203203948879,-0.0012203177321203,0.0012203209665743,4.5401424895281e-09,4.5401181663888e-09,-0.0012025878871951,0.0012025981874544,-6.0149617202836e-10,9.6870328540311e-09,-0.0014415700779911,0.0014415772646957,-0.0014415660178805,0.001441580061808,-0.0014415694464703,0.0014415766332187,-0.001441565453414,0.0014415794973171,-0.0012203130440247,0.0012203254762204,-0.0012203128581617,0.0012203252904341,0.60060693122995,125301,3014,0.0049988456316294,0.004998845631629,0.0049988456316043,24.412733962254,0.00011050187169804,0.00011050187169804,0.00011050187169804,3068282.6203305,0.015110562112001
16919200,0.99902428051662,0.017271049588872,0.0057570165296343,0.0057570165296339,0.0057570165296034,-0.0011999487231738,0.00119995620791,3.1757493058622e-09,3.1757254417088e-09,2.8785573541664e-09,3.1481695009357e-09,-0.0014368463750293,0.0014368543610565,-0.0014368458444826,0.0014368538305415,-0.0014368458453249,0.0014368539759125,-0.0014368453144548,0.0014368534450094,-0.001218078056063,0.0012180843690776,-0.0012180781764437,0.0012180844893798,2.8785575544506e-09,3.1481694812635e-09,8.2497718799288e-09,-1.8982967560372e-09,-0.0011999487231733,0.0011999562079101,-0.0014368446874737,0.0014368560513476,-0.0014368475320366,0.0014368521402498,-0.0014368441576355,0.0014368556660696,-0.0014368470021432,0.0014368517548534,-0.0012180730899924,0.0012180893431816,-0.0012180831425126,0.0012180795152746,-0.0012180799481307,0.0012180822367252,-0.0012180800200209,0.0012180828272165,4.3569082190917e-09,4.356883822484e-09,-0.0011999475570407,0.0011999573740301,-7.0858416524014e-10,9.4328353766777e-09,-0.0014368470262297,0.0014368538777015,-0.0014368430523505,0.0014368566619393,-0.0014368464313867,0.0014368532829023,-0.0014368425248009,0.0014368561343647,-0.001218075337959,0.0012180873300734,-0.0012180751386895,0.0012180871308801,0.66895808068125,125301,3014,0.0049878817296455,0.0049878817296448,0.0049878817296184,23.780232334805,0.00010544185867844,0.00010544185867844,0.00010544185867844,3091807.4055382,0.015077124441314
17419200,0.99914505589971,0.017272792621247,0.005757597540426,0.0057575975404256,0.0057575975403952,-0.0011953255925913,0.0011953352609482,4.0283860729236e-09,4.0283616415523e-09,3.7175085490186e-09,3.9973430185617e-09,-0.0014363230454589,0.0014363328986695,-0.0014363223568996,0.0014363322101415,-0.0014363223691637,0.0014363323621976,-0.001436321683344,0.0014363316763445,-0.001213461633702,0.001213469749315,-0.001213461718053,0.0012134698335874,3.7175061938733e-09,3.9973453237009e-09,9.1463376793828e-09,-1.0895893189434e-09,-0.0011953255925909,0.0011953352609484,-0.0014363213314517,0.00143633460152,-0.0014363240709072,0.0014363305072899,-0.0014363206565522,0.0014363340664464,-0.0014363233959529,0.0014363299720982,-0.0012134566172244,0.001213474755043,-0.0012134667345278,0.0012134648278621,-0.0012134635455435,0.0012134675883825,-0.0012134635885869,0.0012134681568295,5.1506903369458e-09,5.1506665159088e-09,-0.0011953244847893,0.0011953363687382,1.7953628881903e-11,1.0265999476469e-08,-0.0014363237769446,0.0014363323433337,-0.0014363196063576,0.0014363350086253,-0.0014363230242751,0.0014363315907083,-0.0014363189247988,0.0014363343270425,-0.0012134589203237,0.0012134726324302,-0.0012134587562122,0.0012134724683943,0.63180123143952,125301,3014,0.0049687485469258,0.0049687485469254,0.0049687485469007,21.984172426087,9.1073379408698e-05,9.1073379408698e-05,9.1073379408698e-05,3043818.6851724,0.015018936493451
17919200,0.99923732919673,0.017274025279146,0.0057580084263923,0.0057580084263919,0.0057580084263614,-0.001188636741476,0.0011886477339077,4.5365046830724e-09,4.5364802927587e-09,4.2003569058033e-09,4.5015579647883e-09,-0.0014286460209343,0.001428657054463,-0.0014286452254937,0.0014286562590527,-0.0014286452471432,0.0014286564239696,-0.001428644456363,0.001428655633156,-0.0012072625541678,0.0012072717521091,-0.0012072626107252,0.0012072718085896,4.2003547091173e-09,4.5015584588578e-09,9.7492386639078e-09,-6.7625323762569e-10,-0.001188636741476,0.0011886477339075,-0.0014286442679612,0.0014286587875752,-0.0014286469784692,0.001428654525941,-0.0014286434965256,0.0014286581594406,-0.0014286462069779,0.0014286538976864,-0.0012072574401717,0.0012072768436053,-0.0012072677247157,0.0012072667170922,-0.0012072645101794,0.0012072695260606,-0.001207264529209,0.0012072701017804,5.7068049597317e-09,5.7067811129308e-09,-0.0011886355860519,0.0011886488893201,4.6428327978803e-10,1.0914107549683e-08,-0.0014286467482076,0.0014286565176087,-0.0014286423988276,0.0014286591427511,-0.0014286458860669,0.0014286556555128,-0.001428641613785,0.0014286583576834,-0.0012072597328624,0.0012072746860125,-0.0012072595916719,0.0012072745448971,0.58584131333647,125301,3014,0.004941009802064,0.0049410098020638,0.0049410098020397,19.50446618092,7.1235729447358e-05,7.1235729447358e-05,7.1235729447358e-05,3058262.1188528,0.014934439643725
18419200,0.99931067711606,0.017275033679163,0.0057583445597314,0.005758344559731,0.0057583445597005,-0.0011838581516443,0.0011838683381985,4.2202027058807e-09,4.2201784585626e-09,3.8845781919792e-09,4.1861012542448e-09,-0.0014220928190099,0.0014221031915826,-0.0014220920771629,0.0014221024497638,-0.0014220920950195,0.0014221026144384,-0.0014220913565793,0.0014221018759645,-0.0012026099806368,0.0012026185078446,-0.0012026100608494,0.0012026185879831,3.8845776358859e-09,4.1860948658996e-09,9.4887806263218e-09,-1.048400490205e-09,-0.001183858151645,0.0011838683381965,-0.0014220910522602,0.0014221049441349,-0.0014220938439151,0.0014221006972129,-0.0014220903299999,0.0014221043687175,-0.0014220931216009,0.0014221001216801,-0.0012026048146128,0.0012026236582926,-0.0012026152268737,0.0012026134375247,-0.0012026119563563,0.0012026162608507,-0.0012026119961488,0.0012026168630122,5.4363102123958e-09,5.4362862263051e-09,-0.001183856950894,0.0011838695389346,1.471533179495e-10,1.0701219846373e-08,-0.0014220935189212,0.0014221026814729,-0.0014220891888383,0.0014221053927565,-0.0014220927095035,0.0014221018720969,-0.0014220884559485,0.0014221046598447,-0.0012026071207609,0.0012026215284885,-0.0012026069548798,0.0012026213626867,0.60198892917307,125301,3014,0.0049211817952211,0.0049211817952185,0.0049211817951916,17.480888205064,5.5047105640509e-05,5.5047105640509e-05,5.5047105640509e-05,3085741.282482,0.014874035073775
18919200,0.99937468608274,0.01727596396848,0.0057586546561703,0.0057586546561699,0.0057586546561394,-0.0011819348753384,0.0011819424296245,3.2051968235548e-09,3.2051725951773e-09,2.9085330100777e-09,3.1777031329976e-09,-0.0014217709374476,0.0014217789876972,-0.0014217704051055,0.001421778455386,-0.0014217704053032,0.0014217785996158,-0.0014217698722427,0.0014217780665219,-0.0012006886228545,0.0012006949972848,-0.0012006887530735,0.0012006951274257,2.9085347585096e-09,3.1776993996815e-09,8.3885059169621e-09,-1.9781387587393e-09,-0.0011819348753391,0.0011819424296234,-0.0014217692149683,0.0014217807146779,-0.0014217721275852,0.001421776728406,-0.0014217686824926,0.0014217803262624,-0.0014217715950557,0.0014217763398728,-0.0012006835504759,0.0012007000795631,-0.0012006938254536,0.0012006900451418,-0.0012006905511439,0.0012006928292343,-0.0012006906328697,0.0012006934287636,4.3834408476557e-09,4.3834168435655e-09,-0.0011819337122265,0.0011819435927245,-7.8857934450115e-10,9.5691380973408e-09,-0.0014217716277779,0.0014217784645601,-0.0014217675803652,0.0014217813186054,-0.0014217710310717,0.0014217778678984,-0.0014217670503461,0.0014217807885631,-0.001200685881919,0.0012006980018429,-0.0012006856727149,0.0012006977927148,0.63537813684685,125301,3014,0.0049132126450124,0.0049132126450119,0.0049132126449877,16.87547386948,5.020379095584e-05,5.020379095584e-05,5.020379095584e-05,3065332.6445008,0.014849800972902
19419200,0.99943505406945,0.017276884173784,0.0057589613912717,0.0057589613912713,0.0057589613912408,-0.0011822601138151,0.0011822652855496,2.2866141105085e-09,2.2865899966569e-09,2.024003385733e-09,2.265452190873e-09,-0.0014242401660382,0.0014242461102266,-0.0014242398188324,0.0014242457630524,-0.0014242398059127,0.0014242458920077,-0.0014242394579879,0.00142424554405,-0.0012010991160201,0.0012011035484701,-0.0012010992759845,0.001201103708357,2.0240047776419e-09,2.26545054471e-09,6.562687394836e-09,-1.9894835034908e-09,-0.001182260113815,0.0011822652855495,-0.0014242387461113,0.0014242475347575,-0.0014242412387581,0.0014242443385217,-0.0014242383856543,0.0014242473162053,-0.0014242408782464,0.0014242441198513,-0.0012010949328316,0.0012011077437495,-0.0012011034591736,0.0012010995130771,-0.0012011007300832,0.0012011017294845,-0.0012011008301159,0.00120110230947,3.3242190068618e-09,3.324194895716e-09,-0.0011822590914468,0.0011822663079059,-9.3993688969087e-10,7.6031584437874e-09,-0.001424240676451,0.0014242457433847,-0.0014242374259238,0.0014242481844669,-0.0014242402717067,0.0014242453386843,-0.0014242370794192,0.001424247837938,-0.0012010968451292,0.0012011061422673,-0.0012010966134249,0.0012011059106391,0.66499874406132,125301,3014,0.0049145711643921,0.0049145711643918,0.0049145711643671,17.545329754308,5.556263803446e-05,5.556263803446e-05,5.556263803446e-05,3032445.2387842,0.014853972529464
19919200,0.99949326470955,0.017277756527317,0.0057592521757827,0.0057592521757823,0.0057592521757518,-0.0011831694425889,0.0011831737316688,1.9440981798998e-09,1.9440743955676e-09,1.6934273531921e-09,1.9248665606479e-09,-0.0014269046378137,0.0014269098062501,-0.0014269043574417,0.0014269095259099,-0.0014269043396168,0.0014269096491792,-0.001426904058388,0.0014269093679174,-0.0012022332323416,0.0012022369379362,-0.0012022334089119,0.0012022371144293,1.6934284804384e-09,1.9248649907105e-09,5.9219734066984e-09,-2.0338011571476e-09,-0.0011831694425888,0.0011831737316686,-0.0014269033177018,0.0014269111315815,-0.0014269056775526,0.0014269082005791,-0.0014269030191045,0.0014269109741082,-0.0014269053789006,0.0014269080429877,-0.0012022293410091,0.0012022408411649,-0.0012022373002436,0.0012022332111972,-0.0012022347428809,0.0012022352331983,-0.0012022348572272,0.0012022358138456,2.9327240699987e-09,2.9326996779791e-09,-0.001183168469207,0.0011831747050387,-1.032312184542e-09,6.9134722846085e-09,-0.0014269050912894,0.0014269094877723,-0.0014269021089533,0.0014269117991239,-0.0014269047557756,0.0014269091523022,-0.0014269018285104,0.0014269115186567,-0.001202231125925,0.0012022394014585,-0.0012022308800902,0.0012022391557002,0.65387747283039,125301,3014,0.0049183520094031,0.0049183520094027,0.0049183520093781,18.681059357053,6.4648474856425e-05,6.4648474856425e-05,6.4648474856425e-05,3001996.8739256,0.014865507467435
20419200,0.99954524523407,0.017278567018788,0.0057595223396063,0.0057595223396059,0.0057595223395754,-0.0011816611094797,0.0011816676655891,2.8220818116908e-09,2.8220580063003e-09,2.5432113894613e-09,2.798042868711e-09,-0.0014254085850105,0.0014254157256668,-0.0014254081328299,0.0014254152735179,-0.001425408128773,0.0014254154113275,-0.0014254076791312,0.0014254149616528,-0.0012010296055277,0.0012010351802069,-0.0012010297302651,0.0012010353048674,2.5432125769678e-09,2.7980410486894e-09,6.8109259753122e-09,-1.1667864960565e-09,-0.0011816611094797,0.0011816676655887,-0.0014254072481125,0.0014254170523913,-0.0014254094697272,0.0014254139467936,-0.0014254067931724,0.0014254167393475,-0.0014254090147325,0.0014254136336316,-0.0012010256958173,0.0012010390822745,-0.0012010336399752,0.0012010314027966,-0.0012010311332633,0.0012010334373834,-0.0012010312012981,0.0012010340018539,3.8212318658719e-09,3.8212074370299e-09,-0.0011816601257481,0.0011816686493086,-1.8063632212553e-10,7.8080938790035e-09,-0.0014254090454535,0.0014254154162413,-0.0014254058715478,0.0014254175718479,-0.0014254085362825,0.0014254149071137,-0.0014254054245069,0.0014254171247826,-0.0012010274304816,0.0012010376061677,-0.0012010272320823,0.0012010374078449,0.67876339970783,125301,3014,0.0049121017739359,0.0049121017739354,0.0049121017739107,18.601943328698,6.4015546629586e-05,6.4015546629586e-05,6.4015546629586e-05,2997920.5113546,0.014846466973698
20919200,0.99958848040098,0.017279216582697,0.0057597388609095,0.0057597388609091,0.0057597388608787,-0.0011777565664231,0.0011777654708196,3.7308920900429e-09,3.7308684114722e-09,3.4268039263747e-09,3.7017909390631e-09,-0.0014232116883323,0.0014232208625089,-0.0014232110591418,0.0014232202333496,-0.0014232110686423,0.001423220383553,-0.0014232104450006,0.0014232197598764,-0.0011972976190534,0.001197305116252,-0.0011972977097318,0.0011973052068524,3.4268050629683e-09,3.7017907755314e-09,7.8330045601284e-09,-3.7124019014867e-10,-0.0011777565664225,0.0011777654708213,-0.0014232103017888,0.0014232222251079,-0.0014232124456825,0.0014232188707585,-0.001423209684903,0.0014232217489488,-0.0014232118287401,0.0014232183944818,-0.0011972935908573,0.0011973091170505,-0.0011973017379286,0.0011973012060559,-0.0011972991954708,0.0011973033039841,-0.0011972992382505,0.0011973038670272,4.7313894504765e-09,4.7313648916385e-09,-0.0011777555812527,0.0011777664559783,5.9276802402023e-10,8.8267138079227e-09,-0.0014232121977772,0.0014232205189066,-0.0014232087598913,0.0014232225809711,-0.0014232115098454,0.0014232198310209,-0.0014232081403968,0.0014232219614553,-0.0011972953685946,0.0011973075483753,-0.0011972952004249,0.001197307380282,0.65509998950546,125301,3014,0.0048959295397748,0.0048959295397773,0.0048959295397506,17.278377351828,5.3427018814623e-05,5.3427018814623e-05,5.3427018814623e-05,2977721.1276053,0.01479725722054
21419200,0.99962317955403,0.017279739002735,0.0057599130009221,0.0057599130009217,0.0057599130008912,-0.0011724521821002,0.0011724624774358,4.2650658230491e-09,4.2650421686541e-09,3.9392156489012e-09,4.2321654957786e-09,-0.0014174421929547,0.0014174525944136,-0.0014174414540187,0.00141745185551,-0.0014174414724312,0.001417452016352,-0.0014174407406017,0.00141745128449,-0.0011922671252591,0.0011922757544732,-0.0011922671975654,0.0011922758267029,3.939216512687e-09,4.2321638847469e-09,8.568086803796e-09,-3.7979957762028e-11,-0.0011724521821004,0.0011724624774352,-0.0014174407334304,0.0014174540229093,-0.0014174429135431,0.0014174504270146,-0.0014174400164885,0.0014174534484268,-0.0014174421965461,0.0014174498524137,-0.0011922628959624,0.0011922799455974,-0.0011922714268617,0.0011922716355752,-0.0011922687786202,0.0011922738461558,-0.0011922688083636,0.0011922744211684,5.3041037983287e-09,5.3040792339615e-09,-0.0011724511585241,0.001172463501,9.5202622992864e-10,9.5978354450095e-09,-0.0014174427414451,0.0014174522245328,-0.0014174390524071,0.00141745431346,-0.0014174419413678,0.0014174514244996,-0.0014174383259501,0.0014174535869785,-0.001192264750557,0.0011922782733206,-0.0011922645966623,0.0011922781195025,0.65600719482059,125301,3014,0.0048739337159946,0.004873933715994,0.00487393371597,15.232935608161,3.7063484865289e-05,3.7063484865289e-05,3.7063484865289e-05,2986850.395169,0.014730277044176
21919200,0.99965268576735,0.017280177537293,0.005760059179108,0.0057600591791076,0.0057600591790772,-0.0011690391933978,0.0011690480135179,3.6949622816739e-09,3.6949386340434e-09,3.3871354897476e-09,3.6653392845185e-09,-0.0014146474155173,0.0014146565382629,-0.0014146467901275,0.0014146559129048,-0.0014146467989494,0.0014146560639868,-0.0014146461778901,0.0014146554428946,-0.00118896616066,0.0011889735788877,-0.0011889662673319,0.0011889736854834,3.3871365509269e-09,3.6653376931223e-09,8.1050162844286e-09,-7.1511596636303e-10,-0.0011690391933978,0.0011690480135176,-0.0014146459310482,0.0014146580042728,-0.0014146482745958,0.0014146544468954,-0.0014146453166737,0.0014146575321881,-0.0014146476601667,0.0014146539746926,-0.0011889618331124,0.0011889778849356,-0.0011889705948788,0.0011889693794321,-0.0011889678407431,0.0011889716570706,-0.0011889679005558,0.0011889722435902,4.7438364594642e-09,4.7438118902148e-09,-0.0011690381599288,0.0011690490469749,3.0598249500364e-10,9.1486902139998e-09,-0.0014146479811044,0.0014146561412383,-0.0014146443436829,0.0014146584069859,-0.0014146472952457,0.0014146554554233,-0.0014146437267206,0.0014146577899994,-0.0011889637774122,0.0011889761769308,-0.0011889635917251,0.001188975991321,0.64802894175588,125301,3014,0.0048597827933915,0.0048597827933912,0.0048597827933666,13.996990958,2.7175927664004e-05,2.7175927664004e-05,2.7175927664004e-05,2980851.4557266,0.014687207553344
22419200,0.99968131047219,0.017280612704221,0.0057602042347509,0.0057602042347505,0.00576020423472,-0.0011699725187521,0.0011699774504327,2.1918193166009e-09,2.1917956672057e-09,1.9303980480765e-09,2.1709089806914e-09,-0.0014156181534743,0.0014156238993739,-0.0014156178257329,0.0014156235716642,-0.001415617810521,0.0014156236989808,-0.0014156174814365,0.0014156233698635,-0.0011899767965242,0.0011899810256484,-0.0011899769793251,0.0011899812083727,1.9303992134421e-09,2.1709075385185e-09,6.4960599844994e-09,-2.1124450376096e-09,-0.0011699725187519,0.0011699774504325,-0.0014156167262799,0.0014156253338883,-0.0014156192529263,0.0014156221371506,-0.0014156163826829,0.0014156251328499,-0.0014156189092749,0.0014156219359942,-0.0011899725864469,0.0011899852494007,-0.0011899811894015,0.0011899769846178,-0.0011899784201326,0.0011899791971574,-0.001189978543118,0.001189979799716,3.2298216942231e-09,3.2297971132093e-09,-0.0011699714962044,0.0011699784729684,-1.0583830490361e-09,7.5374290494223e-09,-0.0014156186717193,0.0014156235224098,-0.0014156154236584,0.0014156260005992,-0.0014156182867619,0.0014156231374962,-0.001415615095677,0.0014156256725932,-0.0011899745400576,0.001189983652623,-0.0011899742854283,0.0011899833980705,0.66209700335917,125301,3014,0.0048636441927475,0.004863644192747,0.0048636441927225,14.849369519798,3.3994956158382e-05,3.3994956158382e-05,3.3994956158382e-05,2975405.6429554,0.014698958851244
22919200,0.99970838289253,0.017281003088835,0.0057603343629554,0.005760334362955,0.0057603343629246,-0.0011701536175127,0.0011701591601382,2.4281063563117e-09,2.4280827173867e-09,2.16105862726e-09,2.4062316406868e-09,-0.0014168986053624,0.0014169048715857,-0.0014168982319256,0.0014169044981805,-0.0014168982205569,0.0014169046286456,-0.0014168978470694,0.0014169042551255,-0.0011902027182939,0.0011902074520384,-0.0011902028811042,0.0011902076147724,2.1610596568571e-09,2.4062302665266e-09,6.6549217168122e-09,-1.7987325076142e-09,-0.0011701536175124,0.001170159160138,-0.0014168971990594,0.0014169062793914,-0.0014168996382279,0.0014169030903761,-0.0014168968142565,0.0014169060364519,-0.00141689925337,0.0014169028473185,-0.001190198581316,0.0011902115958688,-0.0011902070180803,0.0011902034709395,-0.0011902043192318,0.0011902056436526,-0.0011902044228602,0.0011902062320241,3.4468181249546e-09,3.4467935374116e-09,-0.0011701526142539,0.0011701601633849,-7.7358291680819e-10,7.6752872213027e-09,-0.0014168991198222,0.001416904501363,-0.0014168958739445,0.001416906886414,-0.0014168986893871,0.0014169040709718,-0.0014168955019859,0.0014169065144314,-0.0011902004854739,0.0011902100143607,-0.0011902002502961,0.0011902097792601,0.62916623251011,125301,3014,0.0048644038974161,0.0048644038974153,0.0048644038973909,15.357046736433,3.8056373891465e-05,3.8056373891465e-05,3.8056373891465e-05,2957523.9658277,0.014701289033578
23419200,0.99973367270702,0.017281374860476,0.0057604582868357,0.0057604582868353,0.0057604582868048,-0.0011702291724712,0.0011702350235939,2.5459194333795e-09,2.5458957318683e-09,2.2718741422162e-09,2.523143835629e-09,-0.0014157862444548,0.0014157927906318,-0.0014157858456518,0.001415792391861,-0.0014157858365229,0.0014157925260602,-0.0014157854382699,0.0014157921277725,-0.0011903818042196,0.0011903867893906,-0.0011903819636441,0.0011903869487344,2.2718757743948e-09,2.5231431971411e-09,6.7409434660736e-09,-1.6491269688741e-09,-0.0011702291724698,0.0011702350235943,-0.0014157848463621,0.0014157941874757,-0.001415787243739,0.0014157909950181,-0.001415784438732,0.0014157939232046,-0.0014157868360551,0.0014157907306304,-0.0011903776969739,0.0011903908998006,-0.0011903860708901,0.001190382838325,-0.0011903833985689,0.0011903849821399,-0.001190383499025,0.0011903855769702,3.5786418765354e-09,3.5786173580491e-09,-0.001170228155476,0.0011702360405767,-6.1469756876416e-10,7.7744089707896e-09,-0.0014157867377398,0.0014157924451596,-0.0014157834852006,0.0014157947850638,-0.001415786281402,0.0014157919888638,-0.0014157830889136,0.0014157943887548,-0.0011903795644249,0.0011903893514203,-0.0011903793312168,0.0011903891182868,0.64041032268884,125301,3014,0.0048647079192551,0.0048647079192535,0.0048647079192295,15.705476964582,4.0843815716659e-05,4.0843815716659e-05,4.0843815716659e-05,2969207.626301,0.014702187698
23919200,0.99975859605413,0.017281769619754,0.0057605898732619,0.0057605898732615,0.005760589873231,-0.0011722533683141,0.0011722574591358,1.8667229340134e-09,1.8666992331492e-09,1.6158205457915e-09,1.8479506723166e-09,-0.0014187662809419,0.0014187712924025,-0.0014187660179111,0.0014187710294032,-0.001418765997776,0.0014187711517848,-0.0014187657329953,0.0014187708869713,-0.0011923763124842,0.0011923798537894,-0.0011923765085883,0.0011923800498175,1.6158214974363e-09,1.847948997059e-09,5.9429107610619e-09,-2.2094893090918e-09,-0.0011722533683141,0.0011722574591355,-0.0014187649313545,0.0014187726511994,-0.0014187673674981,0.0014187696706067,-0.0014187646473415,0.0014187725097331,-0.0014187670834299,0.0014187695290221,-0.0011923723269495,0.0011923838560702,-0.0011923804941224,0.0011923760475333,-0.0011923778566887,0.0011923781151447,-0.0011923779887901,0.001192378716449,2.873708462532e-09,2.8736839279286e-09,-0.001172252377,0.0011722584504381,-1.1831483751881e-09,6.953968685236e-09,-0.0014187667488203,0.0014187709584317,-0.0014187637206041,0.0014187733498595,-0.0014187664304044,0.0014187706400597,-0.0014187634563217,0.0014187730855527,-0.001192374176277,0.0011923823875082,-0.0011923739102551,0.0011923821215633,0.68827840913792,125301,3014,0.0048731039515303,0.0048731039515297,0.0048731039515057,17.003548401642,5.1228387213133e-05,5.1228387213133e-05,5.1228387213133e-05,2951147.2245404,0.014727763760537
24419200,0.99978236323248,0.017282134797915,0.0057607115993153,0.0057607115993149,0.0057607115992845,-0.0011731172740632,0.0011731221331693,2.1652309457985e-09,2.1652077828003e-09,1.9088016947126e-09,2.1452578860206e-09,-0.0014220876784605,0.0014220933441113,-0.0014220873576987,0.0014220930233816,-0.0014220873424232,0.0014220931489009,-0.0014220870216513,0.0014220928280964,-0.0011932383402572,0.0011932425159995,-0.0011932385143718,0.0011932426900384,1.9087996609234e-09,2.1452604987459e-09,6.1280519142596e-09,-1.7976125400139e-09,-0.0011731172740627,0.0011731221331695,-0.0014220863600204,0.0014220946639016,-0.0014220886761395,0.0014220917035905,-0.0014220860240036,0.0014220944687146,-0.0014220883400681,0.0014220915082855,-0.0011932344615825,0.0011932464011731,-0.0011932423930431,0.0011932388048658,-0.0011932398497154,0.0011932408097907,-0.001193239961601,0.0011932413944302,3.1347309400627e-09,3.1347058751226e-09,-0.0011731163201122,0.0011731230871083,-8.219440578203e-10,7.0991371996434e-09,-0.001422088148586,0.0014220930107003,-0.0014220851334632,0.0014220952748555,-0.0014220877730808,0.0014220926352384,-0.0014220848136498,0.0014220949550175,-0.0011932362553039,0.0011932449536868,-0.0011932360109774,0.001193244709438,0.66831884012835,125301,3014,0.0048767058600028,0.0048767058600023,0.0048767058599779,17.881143824269,5.8249150594151e-05,5.8249150594151e-05,5.8249150594151e-05,2914539.0417001,0.014738773576945
24919200,0.9998043763544,0.017282455998428,0.0057608186661531,0.0057608186661527,0.0057608186661222,-0.0011729615554528,0.0011729671846535,2.4615710502823e-09,2.4615479057541e-09,2.1937244404595e-09,2.4397063145291e-09,-0.0014214321538374,0.0014214384946238,-0.0014214317735935,0.0014214381144119,-0.0014214317631607,0.0014214382457749,-0.0014214313841384,0.0014214378667199,-0.0011933637724382,0.0011933685780529,-0.0011933639351621,0.0011933687407015,2.1937233680832e-09,2.4397076202282e-09,6.4010109081333e-09,-1.4778915827667e-09,-0.0011729615554524,0.0011729671846537,-0.001421430838306,0.0014214398058536,-0.0014214330891252,0.0014214368031818,-0.0014214304482665,0.0014214395576433,-0.0014214326990308,0.0014214365548536,-0.0011933599137456,0.0011933724356086,-0.0011933677938521,0.0011933648831454,-0.0011933652798497,0.0011933668649135,-0.0011933653824951,0.001193367453368,3.440621450847e-09,3.4405963765542e-09,-0.00117296059213,0.0011729681479644,-5.0226234820062e-10,7.3797649019244e-09,-0.0014214326120946,0.0014214381791573,-0.0014214295483779,0.0014214403714899,-0.0014214321763813,0.0014214377434871,-0.0014214291710265,0.0014214399941137,-0.0011933616735567,0.0011933710060859,-0.0011933614386935,0.0011933707713004,0.63528367286598,125301,3014,0.004876056636343,0.0048760566363427,0.0048760566363182,18.351610793443,6.2012886347547e-05,6.2012886347547e-05,6.2012886347547e-05,2915067.6575019,0.014736775838473
25419200,0.99982599628031,0.017282802424004,0.0057609341413453,0.0057609341413448,0.0057609341413144,-0.0011756359614058,0.0011756395642671,1.6793388228223e-09,1.6793157000581e-09,1.4338187001759e-09,1.6619202570063e-09,-0.0014228587042876,0.0014228632934098,-0.0014228584787545,0.0014228630679089,-0.0014228584562181,0.0014228631883779,-0.0014228582296564,0.0014228629617838,-0.0011961003561169,0.0011961035018345,-0.0011961005612226,0.0011961037068652,1.4338201881164e-09,1.6619183346938e-09,5.3834729450146e-09,-2.024818738265e-09,-0.0011756359614057,0.0011756395642669,-0.0014228574758741,0.0014228645277502,-0.0014228597071671,0.0014228618335695,-0.0014228572273183,0.0014228644222298,-0.0014228594585567,0.0014228617279312,-0.0011960967335579,0.0011961071375344,-0.0011961041837817,0.0011961000711629,-0.001196101776135,0.0011961018948206,-0.0011961019135731,0.0011961024968727,2.6434338761449e-09,2.643408783088e-09,-0.0011756350133032,0.0011756405123577,-1.0467069573209e-09,6.3507248338627e-09,-0.0014228590877982,0.0014228630385209,-0.0014228563449414,0.0014228652238823,-0.0014228588090291,0.0014228627597951,-0.0014228561186908,0.0014228649976069,-0.0011960983946067,0.0011961058785131,-0.0011960981209299,0.0011961056049144,0.69486036475471,125301,3014,0.004887131544811,0.0048871315448106,0.0048871315447862,19.918987765508,7.4551902124066e-05,7.4551902124066e-05,7.4551902124066e-05,2924436.7587763,0.014770464256391
25919200,0.99984611862999,0.017283121719493,0.0057610405731746,0.0057610405731742,0.0057610405731438,-0.0011766520587669,0.0011766570349648,2.2106842260555e-09,2.2106610307053e-09,1.9533703782876e-09,2.1906384278527e-09,-0.0014269118901864,0.0014269176559483,-0.0014269115601426,0.0014269173259365,-0.0014269115460289,0.0014269174524568,-0.0014269112172443,0.0014269171236396,-0.0011969628647917,0.0011969671375767,-0.0011969630370331,0.0011969673097427,1.9533688869336e-09,2.1906402822041e-09,5.8867208937318e-09,-1.4653753679191e-09,-0.0011766520587664,0.0011766570349649,-0.001426910662285,0.0014269188793913,-0.0014269127880445,0.001426916102493,-0.0014269103187831,0.0014269186765575,-0.001426912444488,0.0014269158995411,-0.0011969592639423,0.0011969707370744,-0.0011969666378796,0.0011969637102447,-0.0011969642808038,0.0011969655262435,-0.0011969643902046,0.0011969661093495,3.1432082262051e-09,3.1431831946169e-09,-0.0011766511420221,0.0011766579516976,-5.3647787267513e-10,6.8188870791216e-09,-0.0014269123018065,0.0014269173799279,-0.0014269094658557,0.001426919449165,-0.0014269119184282,0.001426916996593,-0.0014269091381954,0.00142691912148,-0.0011969609090455,0.0011969694420187,-0.0011969606668474,0.0011969691998985,0.68893725835108,125301,3014,0.0048913704779475,0.004891370477947,0.0048913704779226,20.733852162804,8.1070817302433e-05,8.1070817302433e-05,8.1070817302433e-05,2882403.6918328,0.014783430412075
26419200,0.99986358714152,0.017283412773315,0.0057611375911154,0.005761137591115,0.0057611375910845,-0.0011747190262085,0.0011747261593894,3.0427845474325e-09,3.0427613808461e-09,2.7590441084493e-09,3.0179731332277e-09,-0.0014251161643007,0.0014251238000373,-0.001425115670313,0.0014251233060818,-0.0014251156691018,0.0014251234458292,-0.0014251151792776,0.001425122955973,-0.0011953545739477,0.0011953606152877,-0.0011953547057952,0.0011953607470599,2.7590431957571e-09,3.0179740864523e-09,6.7995974752003e-09,-7.1405097751449e-10,-0.0011747190262081,0.0011747261593894,-0.0014251148980839,0.0014251250485232,-0.00142511693653,0.001425122057596,-0.0014251144049932,0.0014251246964243,-0.0014251164433845,0.0014251217053789,-0.0011953508870559,0.0011953642829541,-0.0011953583926841,0.0011953570793927,-0.0011953560289454,0.0011953589440923,-0.0011953561046172,0.0011953595208869,3.990885664006e-09,3.9908606291237e-09,-0.0011747180939788,0.0011747270916072,2.0788025178336e-10,7.742934316201e-09,-0.0014251166002527,0.0014251235148816,-0.0014251135353434,0.0014251254812513,-0.0014251160509616,0.0014251229656336,-0.001425113048287,0.0014251249941706,-0.0011953525332277,0.0011953629220651,-0.0011953523271951,0.0011953627161096,0.72144034435462,125301,3014,0.0048833595858008,0.0048833595858,0.0048833595857759,20.399110809643,7.8392886477147e-05,7.8392886477147e-05,7.8392886477147e-05,2876953.4355043,0.014759032104197
26919200,0.99987985033517,0.017283675147139,0.0057612250490568,0.0057612250490564,0.0057612250490259,-0.0011753965390969,0.0011754014255793,2.1754933482892e-09,2.1754703091695e-09,1.9190292269744e-09,2.1554164916822e-09,-0.0014274125869674,0.0014274182819137,-0.0014274122637391,0.0014274179587176,-0.0014274122487015,0.0014274180842685,-0.001427411926339,0.0014274177618733,-0.0011961572802617,0.0011961614715605,-0.0011961574695494,0.0011961616607727,1.9190291384537e-09,2.1554157919021e-09,5.9151024726733e-09,-1.5641390626682e-09,-0.001175396539097,0.001175401425579,-0.0014274113392848,0.0014274195268629,-0.0014274135114217,0.0014274167137679,-0.0014274110014794,0.001427419329677,-0.0014274131735614,0.0014274165164643,-0.001196153617497,0.0011961651337258,-0.0011961611323135,0.0011961579986058,-0.0011961587168208,0.0011961598391346,-0.0011961588444173,0.0011961604390792,3.1103787010069e-09,3.1103535431872e-09,-0.0011753956199702,0.0011754023446941,-6.3027615293734e-10,6.8499011017527e-09,-0.0014274130166915,0.0014274179869038,-0.0014274101462052,0.001427420104332,-0.0014274126401408,0.0014274176103965,-0.0014274098248078,0.0014274197829098,-0.0011961553187396,0.0011961638169667,-0.0011961550594822,0.001196163557787,0.6995623324908,125301,3014,0.0048861763576689,0.0048861763576686,0.0048861763576442,21.286478090586,8.549182472469e-05,8.549182472469e-05,8.549182472469e-05,2850943.587174,0.014767632699013
27419200,0.99989494720193,0.017283916772013,0.0057613055906815,0.005761305590681,0.0057613055906506,-0.0011763445511396,0.0011763492775046,2.1136492132909e-09,2.1136261831121e-09,1.8572910627976e-09,2.0940553856924e-09,-0.0014278016715628,0.0014278072286665,-0.0014278013611139,0.0014278069182496,-0.0014278013452239,0.001427807043909,-0.0014278010355329,0.0014278067341855,-0.0011973285600139,0.0011973326270103,-0.0011973287431309,0.0011973328100525,1.85729150452e-09,2.0940546236201e-09,5.8163242607597e-09,-1.5890490856479e-09,-0.0011763445511394,0.0011763492775044,-0.0014278004366977,0.0014278084613233,-0.0014278025959783,0.0014278056855932,-0.0014278001107652,0.0014278082769712,-0.0014278022699914,0.0014278055011233,-0.0011973249342173,0.0011973362543389,-0.0011973323689263,0.0011973291827212,-0.0011973299847657,0.0011973310077418,-0.0011973301038597,0.0011973316007486,3.0545479894792e-09,3.0545228176011e-09,-0.0011763436261553,0.0011763502024768,-6.4805192548793e-10,6.7576065001718e-09,-0.0014278020827898,0.0014278069517273,-0.0014277992502307,0.0014278090568579,-0.0014278017190542,0.001427806588035,-0.0014277989415069,0.0014278087481097,-0.0011973265987175,0.0011973349592451,-0.001197326345614,0.0011973347062201,0.69373344276003,125301,3014,0.0048901012782785,0.0048901012782778,0.0048901012782534,22.250371512863,9.3202972102904e-05,9.3202972102904e-05,9.3202972102904e-05,2852017.71885,0.01477956024803
27919200,0.99990863053391,0.017284142652545,0.0057613808841923,0.0057613808841918,0.0057613808841614,-0.0011769655791198,0.0011769708571591,2.3262204000342e-09,2.3261974040308e-09,2.0629484157537e-09,2.3054600282493e-09,-0.0014285326667995,0.0014285387008667,-0.0014285323144033,0.0014285383485038,-0.0014285323018953,0.0014285384776781,-0.0014285319511084,0.0014285381268594,-0.0011980171033363,0.001198021623698,-0.00119801727367,0.0011980217939555,2.0629492009048e-09,2.3054587156827e-09,6.0241606778417e-09,-1.3717426023195e-09,-0.0011769655791201,0.0011769708571591,-0.0014285314302015,0.0014285399313862,-0.0014285335510008,0.0014285371179847,-0.0014285310661299,0.0014285397090287,-0.0014285331868746,0.0014285368955087,-0.0011980134802396,0.0011980252433871,-0.0011980208967668,0.0011980181742669,-0.0011980185299669,0.0011980199975635,-0.0011980186374861,0.0011980205865042,3.2683888792574e-09,3.2683636652629e-09,-0.0011769646529385,0.0011769717833295,-4.3603866943561e-10,6.9654797753742e-09,-0.0014285330785836,0.0014285384271815,-0.001428530204182,0.0014285404894892,-0.0014285326725156,0.0014285380211567,-0.0014285298547971,0.0014285401400793,-0.0011980151288981,0.0011980239428862,-0.0011980148874932,0.0011980237015594,0.71478774901176,125301,3014,0.004892677685199,0.0048926776851995,0.0048926776851761,22.918132110891,9.8545056887129e-05,9.8545056887129e-05,9.8545056887129e-05,2847064.8063158,0.014787402102684
28419200,0.99992086857829,0.017284353327959,0.00576145110933,0.0057614511093295,0.0057614511092991,-0.0011772187104489,0.0011772242649805,2.4332814453927e-09,2.4332584562127e-09,2.1683512186528e-09,2.4120518701769e-09,-0.0014300145992593,0.0014300208682657,-0.0014300142264872,0.0014300204955262,-0.0014300142154285,0.0014300206253946,-0.001430013844616,0.0014300202545497,-0.0011982959065168,0.0011983006530059,-0.0011982960729318,0.0011983008193463,2.1683521761662e-09,2.4120509184229e-09,6.1393558171532e-09,-1.2728155831053e-09,-0.0011772187104486,0.0011772242649806,-0.001430013358542,0.0014300221012872,-0.0014300154672033,0.0014300192625055,-0.0014300129757188,0.001430021859422,-0.0014300150843255,0.0014300190205226,-0.0011982922744897,0.0011983042791154,-0.0011982997049577,0.0011982971932352,-0.0011982973364995,0.0011982990222907,-0.0011982974412582,0.0011982996091498,3.3677886901908e-09,3.3677634723729e-09,-0.0011772177918791,0.0011772251835383,-3.4754781568221e-10,7.0723938673985e-09,-0.0014300150222763,0.0014300205842978,-0.0014300121209878,0.0014300226328398,-0.0014300145958817,0.0014300201579464,-0.0014300117516687,0.001430022263496,-0.0011982939327916,0.0011983029637654,-0.0011982936951414,0.0011983027261931,0.74447173284587,125301,3014,0.0048937368579455,0.0048937368579453,0.0048937368579207,23.441115281315,0.00010272892225052,0.00010272892225052,0.00010272892225052,2828149.2021328,0.014790647873199
28919200,0.99993177627479,0.01728453314623,0.0057615110487537,0.0057615110487532,0.0057615110487228,-0.0011772235598012,0.0011772290842451,2.4223361951744e-09,2.4223132277583e-09,2.1593473610086e-09,2.4014011528432e-09,-0.0014314802938732,0.0014314865316433,-0.0014314799245903,0.0014314861623926,-0.0014314799130326,0.0014314862911175,-0.0014314795456026,0.0014314859236551,-0.0011984180987282,0.0011984228217321,-0.0011984182655519,0.0011984229884809,2.1593483804468e-09,2.4013997002515e-09,6.1352425035718e-09,-1.2905932902692e-09,-0.0011772235598011,0.001177229084245,-0.001431479051286,0.0014314877670145,-0.0014314811671766,0.0014314849270221,-0.0014314786713997,0.0014314875274412,-0.0014314807872358,0.0014314846873309,-0.0011984144602361,0.0011984264548783,-0.0011984219040435,0.001198419355332,-0.0011984195299758,0.001198421191647,-0.0011984196349796,0.0011984217758441,3.348935135154e-09,3.3489099034542e-09,-0.0011772226490898,0.0011772299949447,-3.7240507122188e-10,7.0605120539386e-09,-0.0014314807260679,0.0014314862372973,-0.0014314778243516,0.001431488293841,-0.0014314803034602,0.0014314858147329,-0.0014314774582797,0.0014314879277444,-0.0011984161310979,0.0011984251275374,-0.0011984158934502,0.0011984248899677,0.71381037893477,125301,3014,0.0048937676291434,0.004893767629143,0.0048937676291187,23.983378578395,0.00010706702862716,0.00010706702862716,0.00010706702862716,2805131.1227321,0.01479076363419
29419200,0.99994158044765,0.017284679766498,0.0057615599221766,0.0057615599221761,0.0057615599221457,-0.0011779778925219,0.0011779829465908,2.2396156772196e-09,2.2395925788664e-09,1.9792077206804e-09,2.2194117957872e-09,-0.001431313280054,0.0014313191220444,-0.0014313129453001,0.0014313187873222,-0.0014313129311669,0.0014313189147536,-0.0014313125976473,0.0014313185812007,-0.0011993643242773,0.0011993686589625,-0.0011993645047455,0.0011993688393555,1.9792092320611e-09,2.2194072451064e-09,5.939536515708e-09,-1.4603286765667e-09,-0.001177977892522,0.0011779829465891,-0.0014313120442055,0.0014313203534928,-0.001431314181148,0.001431317555872,-0.0014313116959642,0.0014313201468448,-0.0014313138328508,0.0014313173491055,-0.0011993606999467,0.0011993722816411,-0.0011993681290701,0.0011993652166726,-0.0011993657504682,0.0011993670356703,-0.0011993658673686,0.0011993676310183,3.1769392611569e-09,3.1769141696881e-09,-0.0011779769712442,0.0011779838678565,-5.2672887344154e-10,6.8764705593387e-09,-0.0014313136957543,0.001431318842268,-0.0014313108391699,0.0014313209228553,-0.0014313133077355,0.0014313184542926,-0.0014313105068087,0.00143132059047,-0.0011993623646555,0.001199370984308,-0.0011993621135182,0.0011993707332496,0.64935524357648,125301,3014,0.0048968857408064,0.0048968857408033,0.0048968857407816,24.778018153293,0.00011342414522634,0.00011342414522634,0.00011342414522634,2811504.0392133,0.014800228832984
29919200,0.99995027986188,0.017284817776948,0.0057616059256599,0.0057616059256595,0.005761605925629,-0.0011793157652495,0.0011793210158386,2.3125517684838e-09,2.3125287834213e-09,2.0448512380219e-09,2.2914543173494e-09,-0.0014299621351664,0.0014299681628084,-0.0014299617828049,0.0014299678104792,-0.0014299617703051,0.0014299679417643,-0.0014299614195497,0.0014299675909765,-0.0012006962815463,0.0012007007730629,-0.0012006964621372,0.001200700953579,2.0448538526149e-09,2.2914507298671e-09,6.009356784091e-09,-1.3842768107121e-09,-0.0011793157652496,0.0011793210158382,-0.0014299608988879,0.0014299693929795,-0.0014299630190818,0.0014299665803095,-0.0014299605348587,0.0014299691727633,-0.0014299626549981,0.0014299663599755,-0.0012006926594164,0.0012007043913521,-0.001200700084268,0.0012006973352857,-0.0012006977109744,0.0012006991403993,-0.0012006978278484,0.0012006997467752,3.273703630013e-09,3.2736784138422e-09,-0.0011793148204654,0.0011793219606109,-4.2988727982692e-10,6.9695858027908e-09,-0.0014299625295488,0.0014299679080505,-0.0014299596554226,0.0014299699694092,-0.0014299621231437,0.0014299675016886,-0.0014299593062488,0.0014299696202106,-0.0012006942993799,0.0012007031205759,-0.001200694046546,0.0012007028678199,0.68704428486141,125301,3014,0.0049024123528675,0.0049024123528671,0.0049024123528428,25.46470719334,0.00011891765754672,0.00011891765754672,0.00011891765754672,2843428.7838591,0.014817003357677
30419200,0.99995794078144,0.017284927353481,0.0057616424511707,0.0057616424511702,0.0057616424511398,-0.0011802298849491,0.0011802351755878,2.3304683897904e-09,2.330445457491e-09,2.0667648269297e-09,2.3097296906964e-09,-0.0014331384046501,0.0014331444542125,-0.0014331380512013,0.0014331441007959,-0.0014331380386031,0.0014331442299484,-0.0014331376867751,0.001433143878088,-0.0012014328149395,0.0012014373433309,-0.0012014329908286,0.0012014375191452,2.0667665416353e-09,2.3097273672159e-09,6.0237673648181e-09,-1.3628537880205e-09,-0.0011802298849491,0.0011802351755876,-0.0014331371694982,0.0014331456832017,-0.0014331392863519,0.0014331428718077,-0.00143313680429,0.0014331454597736,-0.0014331389210892,0.0014331426482616,-0.0012014291962054,0.0012014409581386,-0.0012014366095624,0.0012014339043343,-0.0012014342408568,0.0012014357178825,-0.0012014343534711,0.0012014363131676,3.2693179338166e-09,3.2692926544712e-09,-0.0011802289622635,0.0011802360982616,-4.30755612947e-10,6.9616519602231e-09,-0.001433138818462,0.0014331441781593,-0.0014331359461828,0.0014331462366552,-0.001433138411549,0.0014331437712895,-0.0014331355956984,0.001433145886146,-0.0012014308511897,0.001201439663421,-0.0012014306039989,0.0012014394163082,0.62192905940692,125301,3014,0.0049062192863318,0.0049062192863314,0.0049062192863071,26.130031747817,0.00012424025398254,0.00012424025398254,0.00012424025398254,2811959.3323228,0.014828640483369
30919200,0.99996475384107,0.017285034197932,0.0057616780659879,0.0057616780659875,0.005761678065957,-0.0011823153169212,0.0011823199929032,2.091638493468e-09,2.0916157001055e-09,1.8307228193804e-09,2.0718918801253e-09,-0.0014323043740723,0.0014323099061531,-0.0014323040662923,0.0014323095984055,-0.0014323040501042,0.0014323097263294,-0.0014323037431404,0.0014323094193333,-0.0012035327306561,0.0012035367523588,-0.0012035329244601,0.0012035369460885,1.8307265915739e-09,2.071887118892e-09,5.7500205530245e-09,-1.5667671733667e-09,-0.0011823153169214,0.0011823199929027,-0.0014323031536467,0.0014323111240701,-0.0014323052867161,0.0014323083804906,-0.0014323028301164,0.0014323109446784,-0.0014323049631312,0.0014323082009811,-0.0012035291481209,0.0012035403359118,-0.0012035365069973,0.0012035333625306,-0.0012035341444841,0.0012035351407654,-0.0012035342723159,0.0012035357518068,3.0513714976365e-09,3.051346075119e-09,-0.0011823143736964,0.0011823209361162,-6.0769340082492e-10,6.7100004626212e-09,-0.0014323047539183,0.0014323096618143,-0.0014323019530029,0.001432311740213,-0.0014323043926386,0.0014323093005778,-0.0014323016471744,0.0014323114343598,-0.00120353077663,0.0012035390987498,-0.0012035305115273,0.0012035388337254,0.67884299391962,125301,3014,0.0049148419129207,0.0049148419129202,0.004914841912896,27.118977920005,0.00013215182336004,0.00013215182336004,0.00013215182336004,2844771.3144795,0.01485483709751
31419200,0.99997084908633,0.017285130733443,0.0057617102444914,0.005761710244491,0.0057617102444605,-0.00118454608815,0.0011845501319198,1.8513017436496e-09,1.8512787874097e-09,1.6031755020889e-09,1.8334844373678e-09,-0.0014376018349065,0.0014376068019262,-0.0014376015777869,0.0014376065448389,-0.0014376015576536,0.0014376066663602,-0.0014376013007696,0.0014376064094438,-0.0012055329236141,0.0012055364340194,-0.0012055331203193,0.0012055366306497,1.6031774228144e-09,1.8334818545533e-09,5.4177991750709e-09,-1.7152190388621e-09,-0.00118454608815,0.0011845501319195,-0.0014376006474806,0.0014376079895611,-0.0014376027652115,0.0014376053572052,-0.001437600370374,0.0014376078541383,-0.0014376024880504,0.0014376052216645,-0.0012055294324656,0.0012055399300036,-0.0012055366114681,0.0012055331346622,-0.0012055343006735,0.0012055348706186,-0.001205534429588,0.0012055354661893,2.7707098294813e-09,2.7706845608415e-09,-0.001184545184982,0.0011845510350759,-7.9176242799543e-10,6.3383850431584e-09,-0.0014376022182212,0.0014376065469022,-0.0014375995327671,0.0014376086143835,-0.0014376019092135,0.0014376062379376,-0.0014375992762686,0.0014376083578601,-0.0012055310432373,0.0012055387133637,-0.0012055307777728,0.0012055384479772,0.68615600204198,125301,3014,0.0049241124065009,0.0049241124065005,0.0049241124064763,28.435970070832,0.00014268776056666,0.00014268776056666,0.00014268776056666,2800488.6615895,0.014883124825369
31919200,0.99997609914209,0.01728521509258,0.0057617383642039,0.0057617383642035,0.005761738364173,-0.0011853968803574,0.0011854018351066,2.2022168929621e-09,2.2021938831944e-09,1.9435375189688e-09,2.1825412915676e-09,-0.0014389342540418,0.0014389400086577,-0.0014389339271672,0.0014389396818145,-0.0014389339125501,0.0014389398087255,-0.001438933587299,0.0014389394834418,-0.0012065497080369,0.0012065539661416,-0.0012065498850565,0.0012065541430885,1.943538763943e-09,2.1825401437754e-09,5.763771414009e-09,-1.3593599431915e-09,-0.0011853968803557,0.0011854018351063,-0.0014389330628203,0.0014389411937275,-0.0014389351183852,0.0014389384967488,-0.0014389327221674,0.0014389409946328,-0.0014389347776776,0.0014389382975358,-0.001206546218543,0.0012065574523297,-0.001206553374548,0.0012065506568947,-0.0012065510885094,0.001206552391676,-0.0012065512000589,0.0012065529806802,3.1204593666966e-09,3.1204341629959e-09,-0.0011853959783917,0.0011854027370591,-4.4772836026475e-10,6.681172837403e-09,-0.0014389346420294,0.001438939754896,-0.0014389318852161,0.0014389417531281,-0.0014389342627181,0.0014389393756286,-0.0014389315610298,0.0014389414289175,-0.0012065478096438,0.0012065562232176,-0.0012065475622992,0.001206555975951,0.69501900958754,125301,3014,0.0049276447344945,0.0049276447344903,0.0049276447344668,29.268572263222,0.00014934857810577,0.00014934857810577,0.00014934857810577,2787525.3988761,0.014893881429688
32419200,0.99998041004737,0.017285287842588,0.0057617626142064,0.005761762614206,0.0057617626141755,-0.0011846652480646,0.001184671736655,2.7922737747764e-09,2.7922507691263e-09,2.5159478478732e-09,2.7691860866777e-09,-0.0014388196830826,0.0014388267646308,-0.0014388192383686,0.0014388263199489,-0.0014388192329454,0.0014388264556021,-0.0014388187918902,0.0014388260145145,-0.0012059543069535,0.001205959818308,-0.0012059544576434,0.001205959968923,2.5159489002719e-09,2.7691846150645e-09,6.4172477122925e-09,-8.3272336025691e-10,-0.0011846652480645,0.0011846717366548,-0.0014388184626772,0.0014388279695301,-0.0014388204587732,0.0014388251150504,-0.0014388180143972,0.0014388276623569,-0.0014388200104387,0.0014388248077594,-0.0012059507503365,0.0012059633586958,-0.0012059580142598,0.0012059564285326,-0.0012059557164523,0.0012059582006556,-0.001205955806941,0.0012059587860491,3.7161676331591e-09,3.7161424365171e-09,-0.0011846643404519,0.0011846726442559,6.8727910350692e-11,7.3370467851982e-09,-0.0014388200953342,0.001438826496918,-0.0014388171707086,0.0014388284247628,-0.0014388195969225,0.0014388259985495,-0.0014388167318131,0.0014388279858426,-0.0012059523539413,0.0012059620762836,-0.0012059521301453,0.0012059618525655,0.7287175607615,125301,3014,0.0049246186713528,0.0049246186713523,0.0049246186713281,29.299081223261,0.00014959264978609,0.00014959264978609,0.00014959264978609,2776567.8147551,0.014884674413363
32919200,0.99998392219764,0.017285342845702,0.0057617809485779,0.0057617809485775,0.005761780948547,-0.0011834473103854,0.0011834541120352,2.9138715782823e-09,2.9138486751584e-09,2.6362562557104e-09,2.8903893848825e-09,-0.0014391805499783,0.0014391878939425,-0.0014391800835084,0.0014391874275048,-0.0014391800792442,0.0014391875634345,-0.0014391796165643,0.0014391871007223,-0.0012048509118894,0.0012048566807947,-0.0012048510583112,0.0012048568271419,2.6362571819072e-09,2.890388475333e-09,6.5925480092484e-09,-7.6482719602366e-10,-0.001183447310385,0.0011834541120352,-0.001439179311084,0.0014391891166966,-0.0014391813224013,0.0014391862047517,-0.0014391788422728,0.0014391887881098,-0.0014391808535357,0.0014391858760469,-0.0012048473022538,0.0012048602729492,-0.0012048546679444,0.0012048532349846,-0.0012048523393514,0.0012048550439961,-0.0012048524269882,0.0012048556263584,3.8340899159496e-09,3.8340646470745e-09,-0.0011834464063478,0.0011834550160608,1.3175848242763e-10,7.5084044889263e-09,-0.0014391809844325,0.0014391876048609,-0.0014391780016836,0.0014391895471399,-0.0014391804641761,0.0014391870846476,-0.0014391775411974,0.0014391890866286,-0.0012048489403354,0.0012048589491082,-0.0012048487207088,0.0012048587295595,0.67786408086484,125301,3014,0.0049195815885057,0.004919581588505,0.0049195815884806,29.174701563636,0.00014859761250909,0.00014859761250909,0.00014859761250909,2754180.6216254,0.01486936429047
33419200,0.99998682447483,0.017285391351353,0.0057617971171282,0.0057617971171278,0.0057617971170973,-0.0011832241541762,0.0011832304653596,2.7223672161973e-09,2.722344253487e-09,2.4450784190621e-09,2.6993321186096e-09,-0.0014371411887039,0.0014371481274542,-0.0014371407569268,0.0014371476957094,-0.0014371407501914,0.0014371478313107,-0.0014371403212432,0.0014371474023302,-0.0012048370633083,0.0012048424255219,-0.0012048372235279,0.0012048425856668,2.445079289645e-09,2.6993308966874e-09,6.5050949737771e-09,-1.0603837167151e-09,-0.0011832241541761,0.0011832304653594,-0.0014371399189797,0.0014371493854605,-0.0014371420266502,0.0014371464377037,-0.0014371394819093,0.0014371490907577,-0.0014371415895254,0.001437146142883,-0.0012048333539479,0.0012048461232311,-0.0012048409328877,0.0012048388879551,-0.0012048385255336,0.0012048407530521,-0.0012048386253414,0.0012048413505061,3.6736161253138e-09,3.6735908934375e-09,-0.0011832232192642,0.0011832314002597,-1.2549425088384e-10,7.4534913865427e-09,-0.0014371416264707,0.0014371478348092,-0.0014371386113155,0.0014371498774298,-0.0014371411401821,0.0014371473485638,-0.0014371381844387,0.0014371494505282,-0.001204835041218,0.0012048447721569,-0.0012048348072975,0.0012048445383142,0.72119042203068,125301,3014,0.0049186401462783,0.0049186401462778,0.0049186401462537,29.31600230166,0.00014972801841328,0.00014972801841328,0.00014972801841328,2774457.7227347,0.014866455031713
33919200,0.99998929051333,0.017285432117538,0.0057618107058564,0.005761810705856,0.0057618107058255,-0.0011841566030201,0.0011841617480633,2.2762508076297e-09,2.2762278326257e-09,2.0167359303958e-09,2.2563230455268e-09,-0.001440144133244,0.0014401500519991,-0.0014401437936946,0.0014401497124819,-0.0014401437793221,0.0014401498390082,-0.001440143440893,0.0014401495005468,-0.0012056672428134,0.0012056716558367,-0.0012056674224257,0.0012056718353742,2.0167368627394e-09,2.2563217149314e-09,6.0277984748212e-09,-1.4753200256319e-09,-0.00118415660302,0.0011841617480631,-0.0014401428806484,0.0014401513007116,-0.0014401450462894,0.00144014846377,-0.0014401425273144,0.0014401510883071,-0.0014401446929009,0.0014401482512476,-0.0012056635682502,0.0012056753296121,-0.0012056710969879,0.0012056681615962,-0.0012056686861351,0.0012056700171222,-0.0012056688013668,0.0012056706097451,3.2050046647781e-09,3.2049794373723e-09,-0.0011841556904463,0.0011841626606253,-5.4945580770812e-10,6.9563557275193e-09,-0.0014401445744557,0.0014401497458275,-0.0014401416793291,0.0014401518559181,-0.0014401441819164,0.0014401493533314,-0.0014401413418576,0.0014401515184219,-0.001205665274083,0.0012056739892375,-0.0012056650238312,0.0012056737390635,0.71426718581376,125301,3014,0.0049225200457289,0.0049225200457284,0.0049225200457042,30.069207948462,0.00015575366358769,0.00015575366358769,0.00015575366358769,2745108.223327,0.014878310588961
34419200,0.99999143267646,0.017285466804161,0.0057618222680642,0.0057618222680637,0.0057618222680333,-0.0011862168970417,0.0011862207777595,1.7893083408584e-09,1.7892853454433e-09,1.5434305551383e-09,1.7720683098237e-09,-0.0014421019740919,0.0014421068048337,-0.0014421017311878,0.0014421065619616,-0.0014421017092906,0.001442106681706,-0.0014421014659356,0.0014421064383188,-0.0012078951000281,0.0012078984775392,-0.0012078953059186,0.0012078986833553,1.5434317336644e-09,1.7720669773166e-09,5.4616571231837e-09,-1.883063514814e-09,-0.0011862168970415,0.0011862207777595,-0.0014421007540565,0.0014421080281747,-0.0014421029512225,0.0014421053386215,-0.0014421004890574,0.0014421079048479,-0.0014421026861688,0.0014421052151769,-0.0012078915068286,0.0012079020796843,-0.0012078988991173,0.0012078950812074,-0.0012078965111805,0.0012078968819894,-0.0012078966483762,0.0012078974835498,2.7130734463509e-09,2.713048248003e-09,-0.0011862159895423,0.001186221685247,-9.4998843441719e-10,6.3876520547909e-09,-0.0014421023869328,0.0014421065185986,-0.0014420996473105,0.0014421086687587,-0.0014421020921803,0.0014421062238895,-0.00144209940405,0.0014421084254736,-0.001207893190246,0.0012079008055439,-0.0012078929158152,0.001207900531191,0.69956538484205,125301,3014,0.0049310581211765,0.0049310581211761,0.0049310581211516,31.478311141904,0.00016702648913523,0.00016702648913523,0.00016702648913523,2738920.6210529,0.01490429641524
34919200,0.9999933181924,0.017285498119929,0.0057618327066536,0.0057618327066531,0.0057618327066227,-0.0011899540840287,0.0011899566238494,1.2743801737958e-09,1.2743572054974e-09,1.0438664837719e-09,1.2602588477808e-09,-0.0014453881870496,0.0014453918598526,-0.0014453880439086,0.0014453917167437,-0.0014453880161823,0.0014453918312841,-0.0014453878746106,0.0014453916896801,-0.0012116878460446,0.0012116901298831,-0.0012116880775411,0.001211690361305,1.0438678236151e-09,1.2602570585597e-09,3.9343121199984e-09,-1.3855748448031e-09,-0.0011899540840286,0.0011899566238493,-0.0014453872964357,0.0014453927445098,-0.0014453889345214,0.0014453908320874,-0.0014453871263811,0.0014453927167519,-0.0014453887644123,0.0014453908042117,-0.0012116852395465,0.0012116927331758,-0.0012116906840383,0.0012116877580097,-0.0012116889179492,0.0012116888918322,-0.0012116890739003,0.0012116894973313,2.0857909918699e-09,2.0857657619348e-09,-0.0011899532895249,0.0011899574183415,-5.8055119935348e-10,4.7449075868303e-09,-0.0014453883660415,0.0014453917939954,-0.0014453864000132,0.0014453933810103,-0.0014453881765135,0.0014453916045105,-0.0014453862580615,0.0014453932390338,-0.0012116864081046,0.0012116920365641,-0.0012116861118033,0.0012116917403407,0.71680103257097,125301,3014,0.0049465462315603,0.0049465462315599,0.0049465462315357,33.571146647887,0.00018376917318309,0.00018376917318309,0.00018376917318309,2736457.5977847,0.014951442129816
35419200,0.99999494839742,0.017285523574827,0.0057618411916193,0.0057618411916189,0.0057618411915884,-0.0011941685568639,0.0011941705468871,1.0630250594906e-09,1.0630020947804e-09,8.3928663189892e-10,1.0501070881846e-09,-0.0014504495251139,0.0014504527220457,-0.0014504494238373,0.0014504526208013,-0.0014504493929066,0.0014504527319173,-0.0014504492925194,0.0014504526314978,-0.0012158629446214,0.0012158647789714,-0.0012158631835414,0.0012158650178168,8.3928803913132e-10,1.0501052383734e-09,3.6879829197154e-09,-1.5619559224449e-09,-0.0011941685568638,0.0011941705468869,-0.0014504486487162,0.0014504535956076,-0.001450450300234,0.0014504517472403,-0.0014504485169816,0.0014504536059498,-0.001450450168445,0.0014504517574646,-0.0012158603738999,0.0012158673503903,-0.0012158657542625,0.0012158624463951,-0.0012158640019925,0.0012158635607809,-0.0012158641638697,0.0012158641650501,1.8673614791533e-09,1.8673362392773e-09,-0.0011941677694244,0.0011941713343149,-7.5874544275931e-10,4.4924882698612e-09,-0.0014504496962898,0.0014504526599998,-0.0014504477979555,0.0014504542642573,-0.0014504495492301,0.0014504525129832,-0.0014504476967573,0.0014504541630344,-0.0012158615332802,0.0012158666746434,-0.0012158612306266,0.0012158663720676,0.67521870121111,125301,3014,0.0049640249975859,0.0049640249975854,0.0049640249975613,35.926882053714,0.00020261505642971,0.00020261505642971,0.00020261505642971,2717020.5651711,0.015004679599777
35919200,0.99999626705003,0.017285545038285,0.0057618483461054,0.005761848346105,0.0057618483460745,-0.0011971764041192,0.0011971798118003,1.6060280647098e-09,1.6060050555303e-09,1.3641674579735e-09,1.5898219937941e-09,-0.0014518645769023,0.0014518689994166,-0.0014518643669906,0.0014518687895371,-0.0014518643443396,0.001451868909641,-0.0014518641371078,0.0014518687023768,-0.0012189316220303,0.0012189346113373,-0.001218931838742,0.0012189348279743,1.3641680910169e-09,1.5898209534766e-09,4.3235387314993e-09,-1.1115057412528e-09,-0.001197176404119,0.0011971798118002,-0.0014518636626035,0.0014518699026615,-0.0014518652812887,0.0014518678862928,-0.0014518634314083,0.0014518698142522,-0.001451865050039,0.0014518677977657,-0.0012189289561351,0.0012189372664112,-0.0012189345046359,0.0012189321728979,-0.0012189327185495,0.0012189333390723,-0.0012189328628166,0.0012189339451832,2.4274397300296e-09,2.4274145383874e-09,-0.0011971755997104,0.0011971806161973,-3.0539104536613e-10,5.1423106061173e-09,-0.0014518647706992,0.0014518689250798,-0.0014518626947989,0.0014518704866421,-0.0014518645135089,0.0014518686679328,-0.0014518624878501,0.0014518702796685,-0.001218930139382,0.0012189365327059,-0.0012189298559442,0.0012189362493457,0.70236606166543,125301,3014,0.0049764854012793,0.0049764854012788,0.0049764854012547,37.534570481373,0.00021547656385098,0.00021547656385098,0.00021547656385098,2730798.6735538,0.015042588481038
36419200,0.99999723963207,0.017285560639397,0.005761853546476,0.0057618535464756,0.0057618535464451,-0.0011965975009547,0.0011966041293617,2.842955544189e-09,2.84293253948e-09,2.5644678899722e-09,2.8195201615356e-09,-0.0014527706348129,0.0014527778386218,-0.0014527701796607,0.0014527773835018,-0.0014527701742501,0.0014527775193784,-0.0014527697223217,0.0014527770674177,-0.0012182739035531,0.001218279521287,-0.0012182740592531,0.0012182796769123,2.5644691414998e-09,2.819518488539e-09,6.617031915264e-09,-9.31144083785e-10,-0.0011965975009546,0.0011966041293615,-0.001452769366212,0.001452779093642,-0.0014527714482607,0.0014527761284824,-0.0014527689072891,0.0014527787760365,-0.0014527709892832,0.0014527758107591,-0.0012182702013081,0.0012182832083275,-0.0012182777614975,0.0012182759898687,-0.0012182753637081,0.0012182778500364,-0.0012182754603183,0.0012182784443613,3.7798710776508e-09,3.7798458818323e-09,-0.0011965965804271,0.0011966050498775,-1.3908228260232e-11,7.5502637403019e-09,-0.0014527710847695,0.0014527775340527,-0.0014527680508112,0.0014527795494287,-0.001452770575457,0.0014527770247835,-0.0014527676009689,0.0014527790995617,-0.0012182718939109,0.0012182818472412,-0.0012182716643468,0.0012182816177547,0.69281233601555,125301,3014,0.0049741030867216,0.0049741030867211,0.004974103086697,37.488423789763,0.00021510739031811,0.00021510739031811,0.00021510739031811,2711218.788448,0.015035364161603
36919200,0.99999794030557,0.017285571442594,0.0057618571475416,0.0057618571475412,0.0057618571475107,-0.0011947967822381,0.0011948045747138,3.2912937351768e-09,3.2912707325266e-09,2.9978755550184e-09,3.2653024259582e-09,-0.001450841034034,0.00145084924984,-0.0014508404890236,0.0014508487048618,-0.0014508404907589,0.001450848848135,-0.0014508399503337,0.0014508483076775,-0.0012165813483067,0.0012165879207896,-0.0012165814808461,0.0012165880532543,2.9978767843232e-09,3.2653007231131e-09,7.1810430614985e-09,-5.984788794706e-10,-0.001194796782238,0.0011948045747136,-0.0014508397217044,0.0014508505423652,-0.0014508418013523,0.0014508474123373,-0.0014508391807499,0.0014508501429788,-0.0014508412603433,0.001450847012833,-0.0012165775298563,0.0012165917166136,-0.001216585299296,0.0012165842574274,-0.0012165828536046,0.0012165861929617,-0.0012165829298574,0.0012165867830409,4.2456191897775e-09,4.2455939996647e-09,-0.0011947958443195,0.0011948055126206,3.2573338771566e-10,8.1297967704068e-09,-0.0014508415125113,0.0014508489257551,-0.0014508383061322,0.0014508509309251,-0.0014508409118854,0.0014508483251724,-0.0014508377686915,0.0014508503934598,-0.0012165792586903,0.0012165902789264,-0.0012165790498041,0.0012165900701179,0.66632586804918,125301,3014,0.004966637883097,0.0049666378830965,0.0049666378830723,36.862312618637,0.0002100985009491,0.0002100985009491,0.0002100985009491,2712554.8770707,0.015012625358573
37419200,0.99999848104656,0.017285579872296,0.0057618599574424,0.005761859957442,0.0057618599574116,-0.0011962334599303,0.0011962384843069,2.228749402765e-09,2.2287265055234e-09,1.9666848334813e-09,2.2088633488586e-09,-0.0014513194129029,0.0014513252427623,-0.0014513190816721,0.0014513249115637,-0.0014513190667209,0.0014513250393771,-0.0014513187366313,0.0014513247092553,-0.0012180467967535,0.0012180511093818,-0.0012180469850055,0.0012180512975592,1.9666859691241e-09,2.2088617455105e-09,5.9276082146081e-09,-1.4701324907227e-09,-0.0011962334599302,0.0011962384843067,-0.0014513181777288,0.0014513264739212,-0.0014513203168453,0.0014513236804055,-0.0014513178321453,0.0014513262711327,-0.0014513199712072,0.0014513234774992,-0.0012180431739076,0.0012180547315658,-0.0012180506078502,0.0012180476753723,-0.0012180482249316,0.0012180494843755,-0.0012180483470283,0.0012180500896419,3.1685311362546e-09,3.1685058333217e-09,-0.0011962325367185,0.0011962394075069,-5.3357492565228e-10,6.86720416895e-09,-0.001451319826588,0.0014513249644603,-0.0014513169747271,0.0014513270478841,-0.0014513194423481,0.0014513245802636,-0.0014513166456753,0.0014513267188075,-0.0012180448435693,0.0012180534443653,-0.0012180445839369,0.0012180531848106,0.67334138445275,125301,3014,0.004972580743526,0.0049725807435255,0.0049725807435014,37.673127208565,0.00021658501766852,0.00021658501766852,0.00021658501766852,2720966.341783,0.015030702441755
37919200,0.99999887987986,0.017285585882863,0.0057618619609646,0.0057618619609642,0.0057618619609338,-0.0011958996128577,0.001195906177868,2.8192836921714e-09,2.8192607959885e-09,2.5395426917728e-09,2.796011634058e-09,-0.0014515870792833,0.0014515942386924,-0.0014515866281523,0.0014515937875937,-0.00145158662265,0.0014515939242616,-0.0014515861747761,0.0014515934763554,-0.0012176706174864,0.0012176761864419,-0.0012176707744366,0.0012176763433175,2.5395438334229e-09,2.7960100392648e-09,6.5824287519896e-09,-9.4388447355767e-10,-0.0011958996128576,0.0011959061778678,-0.0014515858143721,0.0014515954898897,-0.0014515878930627,0.0014515925363972,-0.0014515853593952,0.0014515951771133,-0.0014515874380313,0.0014515922235031,-0.0012176669263577,0.0012176798634612,-0.0012176744655646,0.0012176726662954,-0.0012176720751425,0.0012176745178141,-0.0012176721711436,0.0012176751146889,3.7619253002938e-09,3.7618999962433e-09,-0.0011958986867628,0.0011959071039512,-2.0984656815492e-11,7.5216038981934e-09,-0.0014515875204087,0.0014515939434304,-0.0014515844978242,0.0014515959552704,-0.0014515870150151,0.00145159343808,-0.0014515840520914,0.0014515955095129,-0.0012176686071038,0.0012176785149755,-0.0012176683759783,0.0012176782839279,0.65161955766178,125301,3014,0.0049712039589209,0.0049712039589204,0.0049712039588963,37.676456440454,0.00021661165152363,0.00021661165152363,0.00021661165152363,2712257.8053001,0.015026522343163
38419200,0.99999916822544,0.017285590512446,0.005761863504159,0.0057618635041585,0.0057618635041281,-0.0011947444044428,0.0011947519212994,3.1834793953603e-09,3.1834564458261e-09,2.8897099982843e-09,3.1576127912732e-09,-0.0014497275380244,0.0014497355355705,-0.0014497270123899,0.0014497350099682,-0.0014497270118874,0.0014497351524242,-0.0014497264888709,0.0014497346293753,-0.0012165500854727,0.001216556427164,-0.0012165502298279,0.0012165565714444,2.8897110356969e-09,3.1576110347202e-09,7.4749036899032e-09,-1.1079681557194e-09,-0.0011947444044427,0.0011947519212991,-0.001449726099549,0.0014497369632434,-0.0014497284508646,0.0014497335822959,-0.0014497255747487,0.0014497365814322,-0.0014497279260099,0.001449733200367,-0.001216545878207,0.0012165606234298,-0.0012165544370933,0.0012165523751762,-0.0012165517234325,0.0012165545632,-0.001216551811495,0.0012165551679222,4.1983177262753e-09,4.1982924772231e-09,-0.0011947434060009,0.0011947529197294,-1.0817711988089e-10,8.4870982917083e-09,-0.0014497280905718,0.0014497351391039,-0.0014497246399149,0.0014497374231833,-0.0014497275072618,0.0014497345558371,-0.0014497241196318,0.0014497369028754,-0.001216547816149,0.0012165589897355,-0.0012165475944107,0.0012165587680748,0.69258612927788,125301,3014,0.0049664104377187,0.0049664104377183,0.0049664104376941,37.198496952892,0.00021278797562314,0.00021278797562314,0.00021278797562314,2721447.4007304,0.015011911683038
38880000,0.99999936958038,0.017285593790792,0.0057618645969411,0.0057618645969407,0.0057618645969102,-0.0011942489449494,0.0011942555593145,2.8406751461477e-09,2.840652208672e-09,2.5630011148988e-09,2.8175703036319e-09,-0.0014512112059549,0.0014512184049624,-0.0014512107549445,0.0014512179539843,-0.0014512107479791,0.0014512180881859,-0.0014512102981835,0.0014512176383579,-0.0012159637889068,0.0012159694010646,-0.0012159639478571,0.0012159695599401,2.5630012795293e-09,2.817570137387e-09,7.1120933550481e-09,-1.430765923643e-09,-0.0011942489449491,0.0011942555593144,-0.0014512097797438,0.0014512198268262,-0.0014512121811553,0.0014512165321207,-0.0014512093224025,0.0014512195106838,-0.0014512117237595,0.0014512162158606,-0.0012159596049682,0.0012159735834509,-0.0012159681317936,0.0012159653775517,-0.0012159654121293,0.0012159675658352,-0.0012159655113409,0.0012159681623053,3.8297072174851e-09,3.8296819530216e-09,-0.0011942479721151,0.0011942565321369,-4.4557715442379e-10,8.1007443591733e-09,-0.0014512117697602,0.0014512179881787,-0.0014512084131897,0.0014512203303532,-0.0014512112625408,0.0014512174810025,-0.0014512079651286,0.0014512198822673,-0.001215961567337,0.001215971946004,-0.0012159613339566,0.0012159717127013,0.70236788912504,125301,3014,0.0049643693486906,0.0049643693486901,0.004964369348666,37.193691634742,0.00021274953307794,0.00021274953307794,0.00021274953307794,2694952.0084798,0.015005736461285
