time,ASR_ext,ASR_strain,ASR_strain_xx,ASR_strain_yy,ASR_strain_zz,disp_x_101,disp_x_102,disp_x_103,disp_x_104,disp_x_105,disp_x_106,disp_x_p1_neg,disp_x_p1_pos,disp_x_p2_neg,disp_x_p2_pos,disp_x_p3_neg,disp_x_p3_pos,disp_x_p4_neg,disp_x_p4_pos,disp_x_p5_neg,disp_x_p5_pos,disp_x_p6_neg,disp_x_p6_pos,disp_y_101,disp_y_102,disp_y_103,disp_y_104,disp_y_105,disp_y_106,disp_y_p1_neg,disp_y_p1_pos,disp_y_p2_neg,disp_y_p2_pos,disp_y_p3_neg,disp_y_p3_pos,disp_y_p4_neg,disp_y_p4_pos,disp_y_p5_neg,disp_y_p5_pos,disp_y_p6_neg,disp_y_p6_pos,disp_y_p7_neg,disp_y_p7_pos,disp_y_p8_neg,disp_y_p8_pos,disp_z_101,disp_z_102,disp_z_103,disp_z_104,disp_z_105,disp_z_106,disp_z_p1_neg,disp_z_p1_pos,disp_z_p2_neg,disp_z_p2_pos,disp_z_p3_neg,disp_z_p3_pos,disp_z_p4_neg,disp_z_p4_pos,disp_z_p5_neg,disp_z_p5_pos,disp_z_p6_neg,disp_z_p6_pos,humidity,humidity_bc,ndof,nelem,strain_xx,strain_yy,strain_zz,temp,temp_bc,thermal_strain_xx,thermal_strain_yy,thermal_strain_zz,vonmises,vstrain
2419200,0,0,0,0,0,0,0,0,0,0,0,0,0,0,0,0,0,0,0,0,0,0,0,0,0,0,0,0,0,0,0,0,0,0,0,0,0,0,0,0,0,0,0,0,0,0,0,0,0,0,0,0,0,0,0,0,0,0,0,0,0,0,0,0,0,0,0,0,0,0,0,0,0,0,0,0,0
2505600,0.0094350757406648,0.00019056411436348,6.3521371454492e-05,6.3521371454492e-05,6.3521371454492e-05,-5.2282972131326e-05,5.2282972143206e-05,5.8064329115779e-15,5.6895192037997e-15,3.7577932902297e-15,7.5580696576306e-15,-5.1330901271039e-05,5.1330901276773e-05,-5.1330901268679e-05,5.1330901282007e-05,-5.1330901271406e-05,5.1330901281889e-05,-5.1330901266765e-05,5.1330901285143e-05,-5.2980347630072e-05,5.298034765427e-05,-5.2980347636981e-05,5.2980347652525e-05,-8.7017010807698e-16,-4.9922886654787e-15,-5.1526973680441e-15,-5.5936710289544e-16,-5.228297214064e-05,5.2282972134538e-05,-5.1330901284976e-05,5.1330901275555e-05,-5.1330901283853e-05,5.1330901274246e-05,-5.1330901288228e-05,5.1330901274574e-05,-5.1330901282511e-05,5.1330901277917e-05,-5.2980347655205e-05,5.2980347645722e-05,-5.2980347655982e-05,5.2980347656605e-05,-5.2980347652177e-05,5.2980347645901e-05,-5.2980347654543e-05,5.2980347646335e-05,5.834270296459e-16,7.0529095384549e-16,-5.2282972136812e-05,5.2282972138817e-05,2.5079868018424e-15,-1.6328839400459e-15,-5.1330901282737e-05,5.1330901282355e-05,-5.1330901279128e-05,5.1330901279852e-05,-5.1330901277954e-05,5.1330901281694e-05,-5.1330901283023e-05,5.1330901283088e-05,-5.2980347651712e-05,5.2980347644955e-05,-5.2980347646619e-05,5.2980347652066e-05,0.80706611818871,0.89000107803841,1270536,32768,0.00021782191180365,0.00021782191180499,0.00021782191180593,29.888045039371,31.134358786665,0.00015430436031497,0.00015430436031497,0.00015430436031497,299107.70850403,0.0006536796137131
2592000,0.020798897850137,0.0004199229452467,0.00013997431508208,0.00013997431508223,0.00013997431508239,-7.4077142802876e-05,7.407714280487e-05,1.0182722013068e-15,8.7230791041564e-16,-9.7966860120847e-16,2.9562672248303e-15,-7.3444904451427e-05,7.3444904451512e-05,-7.3444904451223e-05,7.3444904452111e-05,-7.3444904450613e-05,7.3444904453192e-05,-7.3444904449915e-05,7.3444904453684e-05,-7.4619088517843e-05,7.4619088523861e-05,-7.4619088517374e-05,7.461908852291e-05,1.300971285632e-15,-2.5906083586929e-15,-9.8202514686468e-16,-2.8488835567982e-16,-7.4077142804547e-05,7.4077142803276e-05,-7.3444904452621e-05,7.3444904451982e-05,-7.3444904452579e-05,7.3444904452031e-05,-7.3444904454485e-05,7.3444904450977e-05,-7.3444904453397e-05,7.3444904451396e-05,-7.4619088524508e-05,7.4619088519571e-05,-7.46190885249e-05,7.4619088523314e-05,-7.4619088520985e-05,7.4619088521527e-05,-7.4619088522907e-05,7.4619088518156e-05,6.2192952989154e-17,1.0386631224958e-16,-7.4077142803869e-05,7.4077142804039e-05,6.9385747960087e-17,-4.4282838366156e-16,-7.3444904452783e-05,7.3444904452638e-05,-7.3444904452227e-05,7.3444904452475e-05,-7.3444904452025e-05,7.344490445276e-05,-7.3444904452921e-05,7.3444904453069e-05,-7.4619088521155e-05,7.4619088521086e-05,-7.461908852122e-05,7.4619088523598e-05,0.8094778815112,0.89156329086413,1270536,32768,0.00030860708282949,0.00030860708282965,0.00030860708282982,31.683708465734,31.842440124136,0.00016866966772587,0.00016866966772587,0.00016866966772587,170090.177918,0.00092625013629192
2678400,0.03328388866517,0.00067279179847197,0.0002242639328239,0.00022426393282398,0.0002242639328241,-9.586260213673e-05,9.5862602138373e-05,7.9672198421969e-16,6.4732948923433e-16,-1.154082390634e-15,2.6096096164528e-15,-9.5171764306981e-05,9.517176430685e-05,-9.5171764306744e-05,9.5171764307432e-05,-9.5171764306244e-05,9.5171764308469e-05,-9.5171764305426e-05,9.5171764308979e-05,-9.6518001737826e-05,9.6518001743103e-05,-9.6518001738552e-05,9.6518001743132e-05,1.2989823758036e-15,-2.4049375602201e-15,-8.3391202456007e-16,-1.574437196142e-16,-9.5862602138081e-05,9.5862602137081e-05,-9.5171764307768e-05,9.5171764307382e-05,-9.5171764307688e-05,9.5171764307523e-05,-9.517176430952e-05,9.5171764306336e-05,-9.5171764308453e-05,9.5171764306802e-05,-9.651800174391e-05,9.6518001740513e-05,-9.6518001744402e-05,9.6518001742895e-05,-9.6518001741671e-05,9.6518001742497e-05,-9.651800174435e-05,9.6518001739564e-05,-1.1674275711832e-17,2.4819094734869e-17,-9.586260213751e-05,9.5862602137703e-05,2.0188353847883e-16,-2.9578875797413e-16,-9.5171764307919e-05,9.5171764307828e-05,-9.5171764307415e-05,9.5171764307687e-05,-9.5171764307263e-05,9.5171764307955e-05,-9.5171764308105e-05,9.5171764308181e-05,-9.6518001742165e-05,9.6518001741233e-05,-9.6518001741991e-05,9.6518001742877e-05,0.81139579127874,0.89127806232602,1270536,32768,0.00039934768629157,0.0003993476862917,0.0003993476862918,32.491670326727,32.550521461607,0.00017513336261381,0.00017513336261381,0.00017513336261381,173300.85944974,0.0011987612512763
2764800,0.046400312228214,0.00093894840949101,0.00031298280316356,0.00031298280316368,0.00031298280316377,-0.00011781211711039,0.0001178121171116,5.7955030984174e-16,4.2533259461649e-16,-1.1195981499862e-15,2.1478093858976e-15,-0.00011703322666331,0.00011703322666293,-0.00011703322666306,0.00011703322666351,-0.00011703322666272,0.00011703322666435,-0.00011703322666193,0.00011703322666486,-0.00011860445123892,0.00011860445124368,-0.00011860445123969,0.00011860445124369,1.2152753741715e-15,-1.9778366372719e-15,-7.0705560581894e-16,1.7852395798033e-17,-0.00011781211711136,0.00011781211711069,-0.00011703322666388,0.00011703322666368,-0.00011703322666381,0.00011703322666384,-0.00011703322666547,0.00011703322666283,-0.00011703322666439,0.00011703322666323,-0.00011860445124448,0.00011860445124154,-0.00011860445124482,0.00011860445124388,-0.00011860445124247,0.0001186044512432,-0.0001186044512446,0.00011860445124072,-4.9233790059156e-17,-1.6394719740801e-17,-0.000117812117111,0.00011781211711111,1.8119667044845e-16,-3.6280509302404e-16,-0.00011703322666412,0.00011703322666401,-0.00011703322666365,0.00011703322666384,-0.00011703322666347,0.00011703322666408,-0.00011703322666432,0.00011703322666433,-0.00011860445124293,0.00011860445124185,-0.0001186044512427,0.00011860445124359,0.81303560511023,0.89099283378791,1270536,32768,0.0004907632771548,0.00049076327715493,0.00049076327715504,32.830269396958,32.854492038584,0.00017784215517566,0.00017784215517566,0.00017784215517566,187551.36234516,0.0014733745428739
2851200,0.059656511126518,0.0012083469472071,0.00040278231573559,0.00040278231573572,0.0004027823157358,-0.00013918949985718,0.00013918949985817,4.6388656387802e-16,3.0751266452271e-16,-1.1093631685402e-15,1.8978501102172e-15,-0.0001383280330598,0.0001383280330593,-0.00013832803305954,0.00013832803305986,-0.00013832803305929,0.00013832803306061,-0.00013832803305851,0.0001383280330611,-0.0001401157254462,0.00014011572545069,-0.000140115725447,0.00014011572545073,1.170228956191e-15,-1.7540346507396e-15,-6.2723819124499e-16,1.2884165221126e-16,-0.00013918949985795,0.00013918949985747,-0.00013832803306019,0.00013832803306011,-0.00013832803306011,0.00013832803306029,-0.0001383280330617,0.00013832803305935,-0.00013832803306061,0.00013832803305974,-0.00014011572545155,0.00014011572544887,-0.00014011572545184,0.00014011572545117,-0.00014011572544975,0.00014011572545038,-0.00014011572545162,0.00014011572544819,-6.5148745044677e-17,-3.4932756357684e-17,-0.00013918949985769,0.00013918949985777,1.8687480580884e-16,-3.8538528556759e-16,-0.00013832803306048,0.00013832803306035,-0.00013832803306003,0.00013832803306019,-0.00013832803305984,0.00013832803306043,-0.00013832803306069,0.00013832803306067,-0.00014011572545016,0.00014011572544904,-0.00014011572544998,0.00014011572545077,0.81447324723967,0.89070760524979,1270536,32768,0.00057978800582794,0.00057978800582809,0.00057978800582819,32.734779413274,32.729407863211,0.00017707823530619,0.00017707823530619,0.00017707823530619,200995.79876177,0.0017408780821354
2937600,0.073012191120452,0.0014801336902621,0.00049337789675393,0.00049337789675407,0.00049337789675414,-0.00016070843199353,0.00016070843199436,3.8358387001137e-16,2.2550414041507e-16,-1.1170761682075e-15,1.747481542109e-15,-0.00015975311037994,0.00015975311037935,-0.00015975311037969,0.00015975311037989,-0.00015975311037948,0.00015975311038059,-0.0001597531103787,0.00015975311038107,-0.00016177596303606,0.00016177596304037,-0.00016177596303687,0.00016177596304042,1.1555161703624e-15,-1.6186490807934e-15,-5.7497508196475e-16,1.9737632322999e-16,-0.00016070843199416,0.0001607084319938,-0.00015975311038022,0.00015975311038022,-0.00015975311038013,0.00015975311038041,-0.00015975311038168,0.0001597531103795,-0.00015975311038057,0.00015975311037988,-0.00016177596304128,0.00016177596303876,-0.00016177596304154,0.00016177596304103,-0.0001617759630396,0.00016177596304017,-0.0001617759630413,0.00016177596303813,-7.5714598735687e-17,-4.7164000348635e-17,-0.00016070843199397,0.00016070843199404,1.882111620429e-16,-3.9878193513268e-16,-0.00015975311038054,0.00015975311038041,-0.0001597531103801,0.00015975311038025,-0.00015975311037991,0.00015975311038049,-0.00015975311038076,0.00015975311038073,-0.00016177596303996,0.00016177596303883,-0.00016177596303981,0.00016177596304055,0.81575735048257,0.89042237671169,1270536,32768,0.00066939419425306,0.00066939419425321,0.0006693941942533,32.612468298897,32.604323687838,0.00017609974639118,0.00017609974639118,0.00017609974639118,218242.16571261,0.0020102009990833
3024000,0.086453897700296,0.0017536340296433,0.00058454467654767,0.00058454467654781,0.00058454467654787,-0.00018236226480445,0.00018236226480516,3.2482463565388e-16,1.6575964203907e-16,-1.120429006957e-15,1.6349096134571e-15,-0.00018132114642492,0.00018132114642427,-0.00018132114642466,0.0001813211464248,-0.0001813211464245,0.00018132114642546,-0.00018132114642372,0.00018132114642593,-0.00018355546315672,0.00018355546316092,-0.00018355546315753,0.00018355546316096,1.1333918462453e-15,-1.5255931000604e-15,-5.4660094877504e-16,2.4274993709723e-16,-0.00018236226480499,0.00018236226480471,-0.00018132114642512,0.00018132114642518,-0.00018132114642503,0.00018132114642538,-0.00018132114642656,0.0001813211464245,-0.00018132114642543,0.00018132114642487,-0.00018355546316186,0.00018355546315942,-0.00018355546316207,0.00018355546316169,-0.00018355546316024,0.00018355546316076,-0.00018355546316182,0.00018355546315884,-7.9953439830237e-17,-5.2325607370966e-17,-0.00018236226480484,0.0001823622648049,1.9362643778641e-16,-4.1017864579452e-16,-0.00018132114642545,0.00018132114642533,-0.00018132114642504,0.00018132114642518,-0.00018132114642484,0.00018132114642542,-0.00018132114642569,0.00018132114642565,-0.00018355546316056,0.00018355546315943,-0.00018355546316043,0.00018355546316114,0.81582381340548,0.87677430802203,1270536,32768,0.00075955400829044,0.00075955400829061,0.00075955400829068,32.48765767297,32.479239512465,0.00017510126138376,0.00017510126138376,0.00017510126138376,232417.33505847,0.0022812610093151
3110400,0.099971046299356,0.0020281357576946,0.00067604525256474,0.00067604525256489,0.00067604525256494,-0.00020410076899605,0.00020410076899668,2.8177080386006e-16,1.2347784548364e-16,-1.1366785105459e-15,1.5531363762792e-15,-0.00020299349862846,0.00020299349862775,-0.00020299349862819,0.00020299349862827,-0.00020299349862806,0.00020299349862891,-0.00020299349862727,0.00020299349862937,-0.00020538524069605,0.00020538524070018,-0.00020538524069686,0.0002053852407002,1.1234877370444e-15,-1.4659184524916e-15,-5.2034439795347e-16,2.6760947177316e-16,-0.00020410076899652,0.00020410076899629,-0.00020299349862864,0.00020299349862874,-0.00020299349862855,0.00020299349862894,-0.00020299349863006,0.00020299349862808,-0.00020299349862893,0.00020299349862844,-0.00020538524070108,0.00020538524069871,-0.0002053852407013,0.00020538524070096,-0.00020538524069945,0.00020538524069995,-0.00020538524070098,0.00020538524069813,-7.9416691521647e-17,-5.2505748926588e-17,-0.00020410076899639,0.00020410076899645,1.9646091001876e-16,-4.0616406255493e-16,-0.00020299349862898,0.00020299349862886,-0.00020299349862857,0.00020299349862871,-0.00020299349862838,0.00020299349862895,-0.00020299349862922,0.00020299349862919,-0.00020538524069974,0.00020538524069864,-0.00020538524069965,0.00020538524070034,0.81434651518991,0.84958561210054,1270536,32768,0.00085005819392835,0.00085005819392851,0.00085005819392858,32.362598223498,32.354155337091,0.00017410078578798,0.00017410078578798,0.00017410078578798,239633.88219358,0.0025534300887299
3196800,0.11355338200185,0.0023033443579829,0.00076778145266087,0.00076778145266101,0.00076778145266106,-0.0002259003742808,0.00022590037428138,2.5620908475304e-16,9.8188176889183e-17,-1.130730162852e-15,1.5094943271609e-15,-0.00022474686196332,0.00022474686196259,-0.00022474686196306,0.00022474686196311,-0.00022474686196295,0.00022474686196374,-0.00022474686196216,0.00022474686196419,-0.00022724276593343,0.00022724276593751,-0.00022724276593425,0.00022724276593755,1.1178040871465e-15,-1.418530194288e-15,-5.0849181886515e-16,2.8776326785323e-16,-0.00022590037428122,0.00022590037428103,-0.00022474686196344,0.00022474686196356,-0.00022474686196334,0.00022474686196378,-0.00022474686196484,0.00022474686196291,-0.0002247468619637,0.00022474686196328,-0.00022724276593846,0.00022724276593612,-0.00022724276593864,0.00022724276593834,-0.00022724276593689,0.00022724276593734,-0.00022724276593833,0.00022724276593557,-7.9379927938867e-17,-5.2685890482211e-17,-0.00022590037428111,0.00022590037428117,1.9773660634123e-16,-4.1317855414938e-16,-0.0002247468619638,0.00022474686196367,-0.00022474686196338,0.00022474686196352,-0.00022474686196319,0.00022474686196375,-0.00022474686196403,0.00022474686196399,-0.00022724276593714,0.00022724276593602,-0.00022724276593705,0.00022724276593772,0.81256081313726,0.82666567875123,1270536,32768,0.00094080854263822,0.00094080854263838,0.00094080854263843,32.237513609258,32.229071161718,0.00017310010887406,0.00017310010887406,0.00017310010887406,240208.73916591,0.0028264136307056
3283200,0.12719044260709,0.0025778531776594,0.00085928439255301,0.00085928439255316,0.00085928439255319,-0.00024764579890119,0.00024764579890171,2.3133852100227e-16,7.3152177015912e-17,-1.1361344095207e-15,1.4583120672144e-15,-0.00024649670669326,0.00024649670669251,-0.00024649670669301,0.00024649670669302,-0.00024649670669292,0.00024649670669363,-0.00024649670669212,0.00024649670669408,-0.00024896291212887,0.0002489629121329,-0.00024896291212968,0.00024896291213293,1.1095543391707e-15,-1.3781637803955e-15,-4.8342640812566e-16,3.0366719376391e-16,-0.00024764579890157,0.00024764579890141,-0.00024649670669336,0.00024649670669351,-0.00024649670669327,0.00024649670669373,-0.00024649670669475,0.00024649670669288,-0.00024649670669361,0.00024649670669324,-0.00024896291213385,0.00024896291213158,-0.00024896291213403,0.00024896291213379,-0.00024896291213231,0.00024896291213272,-0.00024896291213371,0.00024896291213103,-8.0993849222915e-17,-5.4369662573541e-17,-0.00024764579890147,0.00024764579890153,1.9601239430884e-16,-4.0764931129924e-16,-0.00024649670669373,0.00024649670669361,-0.00024649670669331,0.00024649670669347,-0.00024649670669313,0.00024649670669368,-0.00024649670669397,0.00024649670669393,-0.00024896291213254,0.00024896291213144,-0.00024896291213247,0.00024896291213314,0.80716316996265,0.76479338888033,1270536,32768,0.0010313251611451,0.0010313251611453,0.0010313251611453,32.112426439971,32.103986986345,0.00017209941151977,0.00017209941151977,0.00017209941151977,225304.1908637,0.0030987680384235
3369600,0.14087226809715,0.0028519195566943,0.00095063985223134,0.00095063985223149,0.00095063985223152,-0.00026935824459002,0.00026935824459051,2.1382067380754e-16,5.835115858863e-17,-1.1278478979621e-15,1.4320775745425e-15,-0.00026824919975158,0.00026824919975081,-0.00026824919975132,0.00026824919975131,-0.00026824919975125,0.00026824919975192,-0.00026824919975044,0.00026824919975236,-0.00027059498036476,0.00027059498036878,-0.00027059498036566,0.00027059498036884,1.0979958687446e-15,-1.3537380559963e-15,-5.7508537271309e-16,4.0481116270862e-16,-0.00026935824459038,0.00026935824459023,-0.00026824919975172,0.00026824919975181,-0.00026824919975155,0.0002682491997521,-0.0002682491997531,0.0002682491997512,-0.00026824919975189,0.00026824919975161,-0.00027059498036978,0.00027059498036733,-0.00027059498036973,0.0002705949803697,-0.0002705949803681,0.00027059498036853,-0.00027059498036941,0.00027059498036685,-1.2230508719295e-16,-9.7691868521652e-17,-0.00026935824459033,0.00026935824459031,2.5787815141125e-16,-5.4021143808785e-16,-0.00026824919975206,0.00026824919975193,-0.0002682491997517,0.00026824919975174,-0.00026824919975146,0.000268249199752,-0.00026824919975236,0.00026824919975219,-0.00027059498036839,0.00027059498036712,-0.00027059498036833,0.00027059498036879,0.8030732689309,0.73261215393987,1270536,32768,0.0011216963462923,0.0011216963462925,0.0011216963462925,31.987339011309,31.978902810972,0.00017109871209047,0.00017109871209047,0.00017109871209047,202519.54468486,0.0033707585701162
3456000,0.15458807767995,0.0031252100340284,0.0010417366780094,0.0010417366780095,0.0010417366780095,-0.00029100513376625,0.00029100513376657,1.3624583778318e-16,-1.9624400488036e-17,-9.7914655833299e-16,1.1075102839681e-15,-0.00028997667213641,0.00028997667213565,-0.00028997667213616,0.00028997667213614,-0.00028997667213626,0.00028997667213659,-0.00028997667213545,0.00028997667213702,-0.00029210073773007,0.00029210073773372,-0.00029210073773084,0.00029210073773382,9.4830926509702e-16,-1.029806775404e-15,-5.1932237035218e-16,5.2273403083418e-16,-0.00029100513376643,0.00029100513376646,-0.00028997667213654,0.00028997667213662,-0.00028997667213636,0.00028997667213694,-0.00028997667213776,0.00028997667213618,-0.00028997667213653,0.0002899766721366,-0.00029210073773484,0.00029210073773264,-0.00029210073773471,0.0002921007377351,-0.0002921007377334,0.00029210073773353,-0.00029210073773424,0.00029210073773229,-1.2641525574777e-16,-1.0123955425993e-16,-0.00029100513376647,0.00029100513376644,2.8521555156656e-16,-5.766882649223e-16,-0.00028997667213687,0.00028997667213675,-0.00028997667213653,0.00028997667213654,-0.00028997667213628,0.00028997667213682,-0.00028997667213719,0.000289976672137,-0.00029210073773359,0.00029210073773226,-0.0002921007377335,0.00029210073773405,0.79863056836175,0.70043091899941,1270536,32768,0.0012117865611635,0.0012117865611636,0.0012117865611637,31.862251556598,31.853818635599,0.00017009801245278,0.00017009801245278,0.00017009801245278,174288.86840528,0.0036419767972036
3542400,0.16846496323179,0.0034000716075266,0.0011333572025088,0.0011333572025089,0.0011333572025089,-0.00031302298105033,0.00031302298105065,1.2894459024304e-16,-2.774179956589e-17,-9.8214646668785e-16,1.1048044842755e-15,-0.00031210775130968,0.00031210775130892,-0.00031210775130943,0.0003121077513094,-0.00031210775130953,0.00031210775130987,-0.00031210775130871,0.0003121077513103,-0.00031392576098522,0.00031392576098888,-0.00031392576098605,0.00031392576098896,9.4455937965344e-16,-1.0326008076953e-15,-5.178812379072e-16,5.0710215543606e-16,-0.00031302298105052,0.00031302298105054,-0.0003121077513098,0.00031210775130987,-0.00031210775130961,0.00031210775131018,-0.00031210775131102,0.00031210775130943,-0.00031210775130978,0.00031210775130984,-0.00031392576099001,0.00031392576098782,-0.0003139257609899,0.00031392576099024,-0.0003139257609886,0.00031392576098874,-0.00031392576098947,0.00031392576098753,-1.2050367163673e-16,-9.5460319046897e-17,-0.00031302298105055,0.00031302298105052,2.817487457104e-16,-5.6102697865797e-16,-0.00031210775131012,0.00031210775131001,-0.00031210775130977,0.00031210775130981,-0.00031210775130952,0.00031210775131006,-0.00031210775131044,0.00031210775131025,-0.00031392576098878,0.00031392576098749,-0.00031392576098869,0.00031392576098919,0.79386600852374,0.66824968405895,1270536,32768,0.0013034123238412,0.0013034123238414,0.0013034123238414,31.866077898626,31.866037061444,0.00017012862318901,0.00017012862318901,0.00017012862318901,156252.70552993,0.0039178929491545
3628800,0.18263452845768,0.0036791854038433,0.0012263951346143,0.0012263951346145,0.0012263951346145,-0.00033563373811753,0.00033563373811781,1.0283509375259e-16,-5.1961647901442e-17,-9.6392643506202e-16,1.043387242883e-15,-0.00033487158042998,0.00033487158042922,-0.00033487158042973,0.0003348715804297,-0.00033487158042986,0.00033487158043014,-0.00033487158042904,0.00033487158043057,-0.00033629237806973,0.00033629237807332,-0.00033629237807059,0.00033629237807342,9.1976601942652e-16,-9.7642605320726e-16,-4.8770568916127e-16,4.7898536732582e-16,-0.00033563373811769,0.00033563373811773,-0.00033487158043001,0.00033487158043009,-0.00033487158042984,0.00033487158043039,-0.0003348715804312,0.00033487158042967,-0.00033487158042998,0.00033487158043006,-0.00033629237807463,0.00033629237807255,-0.00033629237807458,0.00033629237807485,-0.00033629237807338,0.00033629237807347,-0.00033629237807417,0.00033629237807234,-1.207757221493e-16,-9.8813157796446e-17,-0.00033563373811772,0.00033563373811771,2.6416104770838e-16,-5.187341530277e-16,-0.00033487158043036,0.00033487158043025,-0.00033487158042998,0.00033487158043006,-0.00033487158042975,0.00033487158043028,-0.00033487158043066,0.0003348715804305,-0.00033629237807357,0.0003362923780723,-0.00033629237807346,0.00033629237807395,0.78971703043305,0.64735214500615,1270536,32768,0.0013974967088045,0.0013974967088047,0.0013974967088047,32.003033557051,32.011945642157,0.00017122426845641,0.00017122426845641,0.00017122426845641,174898.05068212,0.0042012917510481
3715200,0.19709572015315,0.0039632455484571,0.0013210818494856,0.0013210818494858,0.0013210818494858,-0.00035865677576999,0.00035865677577027,1.0206305851421e-16,-4.4314822683174e-17,-9.5152975494856e-16,1.0187188788375e-15,-0.00035807491353152,0.00035807491353076,-0.00035807491353127,0.00035807491353124,-0.00035807491353142,0.00035807491353168,-0.00035807491353058,0.0003580749135321,-0.00035904779891338,0.00035904779891693,-0.0003590477989141,0.00035904779891696,8.8835521429917e-16,-9.676910259387e-16,-5.0617571315e-16,4.9001444215986e-16,-0.00035865677577015,0.00035865677577019,-0.00035807491353167,0.00035807491353173,-0.00035807491353147,0.00035807491353205,-0.00035807491353283,0.00035807491353135,-0.00035807491353159,0.00035807491353173,-0.00035904779891797,0.00035904779891583,-0.00035904779891797,0.0003590477989184,-0.0003590477989166,0.00035904779891664,-0.00035904779891741,0.00035904779891553,-1.0519531576708e-16,-9.3651550774115e-17,-0.00035865677577019,0.00035865677577017,2.5068351826118e-16,-5.5954172991365e-16,-0.00035807491353201,0.00035807491353191,-0.00035807491353163,0.00035807491353172,-0.00035807491353139,0.00035807491353192,-0.0003580749135323,0.00035807491353213,-0.00035904779891671,0.00035904779891549,-0.00035904779891658,0.00035904779891719,0.78774359615128,0.65446358265355,1270536,32768,0.0014932875108404,0.0014932875108406,0.0014932875108406,32.148102199376,32.15785422287,0.00017238481759501,0.00017238481759501,0.00017238481759501,198332.10457167,0.004489912794944
3801600,0.21183876128015,0.0042521809542134,0.0014173936514044,0.0014173936514045,0.0014173936514045,-0.00038208016348715,0.0003820801634874,9.9144030041467e-17,-5.0571984472353e-17,-9.293833726818e-16,9.5505905889545e-16,-0.00038169852507703,0.00038169852507628,-0.00038169852507678,0.00038169852507673,-0.00038169852507695,0.00038169852507718,-0.00038169852507612,0.00038169852507759,-0.00038218482722513,0.00038218482722868,-0.0003821848272259,0.00038218482722878,8.5982667406179e-16,-9.0688406002036e-16,-4.5544196891342e-16,5.0914621063864e-16,-0.00038208016348727,0.00038208016348735,-0.00038169852507717,0.00038169852507723,-0.00038169852507696,0.00038169852507755,-0.00038169852507831,0.00038169852507687,-0.00038169852507708,0.00038169852507724,-0.0003821848272297,0.00038218482722774,-0.00038218482722972,0.00038218482723019,-0.00038218482722853,0.00038218482722846,-0.00038218482722925,0.00038218482722751,-1.0256304324002e-16,-9.2151596596685e-17,-0.00038208016348732,0.00038208016348731,2.4011766457017e-16,-5.3673360315685e-16,-0.00038169852507751,0.0003816985250774,-0.00038169852507712,0.00038169852507723,-0.00038169852507687,0.0003816985250774,-0.00038169852507777,0.00038169852507763,-0.00038218482722862,0.00038218482722733,-0.00038218482722852,0.00038218482722911,0.78616655821803,0.66157502030094,1270536,32768,0.0015907346022479,0.001590734602248,0.0015907346022481,32.293923186594,32.303762803583,0.00017355138549275,0.00017355138549275,0.00017355138549275,220665.04820114,0.0047836094563206
3888000,0.22685171240098,0.0045458513727704,0.0015152837909234,0.0015152837909235,0.0015152837909235,-0.00040588641100557,0.00040588641100578,7.1894862484831e-17,-8.0504893571939e-17,-8.8635527539593e-16,8.7681144930621e-16,-0.00040572700976626,0.00040572700976551,-0.000405727009766,0.00040572700976596,-0.00040572700976621,0.00040572700976635,-0.00040572700976538,0.00040572700976677,-0.00040568535461757,0.00040568535462102,-0.00040568535461834,0.00040568535462108,8.2638651916498e-16,-8.1621035945144e-16,-4.6622105138455e-16,5.270280173029e-16,-0.00040588641100565,0.00040588641100576,-0.00040572700976635,0.0004057270097664,-0.00040572700976614,0.00040572700976673,-0.00040572700976745,0.00040572700976609,-0.00040572700976622,0.00040572700976646,-0.00040568535462216,0.00040568535462019,-0.00040568535462208,0.00040568535462261,-0.00040568535462099,0.00040568535462094,-0.00040568535462157,0.00040568535462004,-1.0832757301994e-16,-9.9129324608355e-17,-0.00040588641100572,0.00040588641100571,2.6699919629901e-16,-5.3673360315685e-16,-0.00040572700976669,0.00040572700976658,-0.00040572700976632,0.0004057270097664,-0.00040572700976606,0.00040572700976659,-0.00040572700976698,0.00040572700976681,-0.00040568535462107,0.0004056853546198,-0.00040568535462094,0.00040568535462152,0.78491051205993,0.66868645794834,1270536,32768,0.0016897647423006,0.0016897647423007,0.0016897647423008,32.439818897467,32.449671384295,0.00017471855117973,0.00017471855117973,0.00017471855117973,243672.90214128,0.0050821653101337
3974400,0.24212129245173,0.0048440777232599,0.0016146925744199,0.00161469257442,0.00161469257442,-0.0004300612484956,0.00043006124849588,1.0142337217384e-16,-5.2329283729244e-17,-9.27309906613e-16,9.8005094246938e-16,-0.00043014423952321,0.00043014423952246,-0.00043014423952295,0.00043014423952292,-0.00043014423952311,0.00043014423952337,-0.00043014423952227,0.00043014423952379,-0.00042954216784031,0.00042954216784389,-0.00042954216784111,0.00042954216784396,8.7319391276064e-16,-9.13398566889e-16,-5.0867563677905e-16,5.3245432212125e-16,-0.00043006124849573,0.0004300612484958,-0.00043014423952331,0.00043014423952335,-0.00043014423952308,0.00043014423952371,-0.00043014423952445,0.00043014423952299,-0.0004301442395232,0.00043014423952337,-0.00042954216784501,0.00042954216784291,-0.00042954216784491,0.00042954216784539,-0.00042954216784375,0.00042954216784377,-0.00042954216784445,0.00042954216784274,-1.1759934859709e-16,-1.0998193424505e-16,-0.00043006124849579,0.00043006124849577,2.8060172192766e-16,-5.6879144734113e-16,-0.00043014423952365,0.00043014423952354,-0.00043014423952328,0.00043014423952335,-0.00043014423952301,0.00043014423952354,-0.00043014423952395,0.00043014423952376,-0.00042954216784391,0.00042954216784258,-0.00042954216784377,0.0004295421678443,0.7839218577378,0.67579789559573,1270536,32768,0.001790318107668,0.0017903181076681,0.0017903181076681,32.585722157324,32.595579965008,0.00017588577725859,0.00017588577725859,0.00017588577725859,268296.67927658,0.0053854042056705
4060800,0.25763296054609,0.0051466478422638,0.0017155492807545,0.0017155492807546,0.0017155492807546,-0.00045458782490398,0.00045458782490423,9.1864840651e-17,-6.2314272812328e-17,-9.1926603470071e-16,9.5185327447702e-16,-0.00045493630678264,0.00045493630678187,-0.00045493630678237,0.00045493630678233,-0.00045493630678254,0.00045493630678278,-0.00045493630678169,0.00045493630678318,-0.00045374185872651,0.00045374185873004,-0.0004537418587273,0.00045374185873012,8.6101781414386e-16,-8.8950223808191e-16,-5.0523456543083e-16,5.4138052002026e-16,-0.00045458782490408,0.00045458782490417,-0.00045493630678276,0.00045493630678279,-0.00045493630678251,0.00045493630678315,-0.00045493630678389,0.00045493630678245,-0.00045493630678264,0.00045493630678282,-0.00045374185873114,0.0004537418587291,-0.00045374185873106,0.00045374185873159,-0.00045374185872983,0.00045374185872985,-0.00045374185873051,0.00045374185872885,-1.1552588252829e-16,-1.0921725172322e-16,-0.00045458782490415,0.00045458782490414,2.819325636243e-16,-5.7149724703375e-16,-0.00045493630678309,0.000454936306783,-0.00045493630678272,0.0004549363067828,-0.00045493630678246,0.00045493630678299,-0.00045493630678339,0.00045493630678321,-0.00045374185873001,0.00045374185872865,-0.00045374185872984,0.00045374185873039,0.78316151542334,0.68290933324313,1270536,32768,0.0018923241569662,0.0018923241569663,0.0018923241569664,32.731626183142,32.741488545721,0.00017705300946513,0.00017705300946513,0.00017705300946513,293744.53663901,0.0056931175032623
4147200,0.27337072420783,0.0054533017847879,0.0018177672615959,0.001817767261596,0.001817767261596,-0.00047944535686572,0.00047944535686599,9.937931697126e-17,-5.4152757435138e-17,-9.1994248462386e-16,9.6861011550821e-16,-0.00048008223064732,0.00048008223064656,-0.00048008223064704,0.00048008223064701,-0.00048008223064721,0.00048008223064746,-0.00048008223064637,0.00048008223064788,-0.00047826466498948,0.00047826466499305,-0.00047826466499029,0.00047826466499312,8.6682646022313e-16,-9.0189891819537e-16,-5.039698981832e-16,5.3660125425884e-16,-0.00047944535686583,0.00047944535686591,-0.00048008223064742,0.00048008223064745,-0.00048008223064718,0.00048008223064781,-0.00048008223064855,0.0004800822306471,-0.00048008223064729,0.00048008223064749,-0.00047826466499413,0.00047826466499208,-0.00047826466499405,0.00047826466499456,-0.00047826466499289,0.00047826466499291,-0.00047826466499357,0.00047826466499188,-1.1445973862767e-16,-1.0853344908351e-16,-0.0004794453568659,0.00047944535686588,2.7892530255288e-16,-5.6785029962196e-16,-0.00048008223064776,0.00048008223064767,-0.00048008223064739,0.00048008223064747,-0.00048008223064712,0.00048008223064765,-0.00048008223064807,0.00048008223064788,-0.00047826466499303,0.00047826466499171,-0.00047826466499289,0.00047826466499345,0.78260015515497,0.69002077089052,1270536,32768,0.0019956960197682,0.0019956960197682,0.0019956960197683,32.877530286369,32.887397126434,0.00017822024229095,0.00017822024229095,0.00017822024229095,318546.00390293,0.0060050470801617
4233600,0.28931775108289,0.0057637789392236,0.0019212596464078,0.0019212596464079,0.0019212596464079,-0.00050461300819025,0.00050461300819052,9.6835277042874e-17,-5.6549743032403e-17,-9.3091273772546e-16,9.7594077391456e-16,-0.0005055601828057,0.00050556018280492,-0.00050556018280541,0.00050556018280539,-0.00050556018280559,0.00050556018280584,-0.00050556018280473,0.00050556018280625,-0.00050309049279389,0.00050309049279745,-0.00050309049279468,0.00050309049279751,8.7654675151019e-16,-9.1097217042551e-16,-5.0142585825481e-16,5.309396625107e-16,-0.00050461300819036,0.00050461300819044,-0.00050556018280579,0.00050556018280584,-0.00050556018280556,0.00050556018280619,-0.00050556018280694,0.00050556018280548,-0.00050556018280569,0.00050556018280585,-0.00050309049279852,0.00050309049279648,-0.00050309049279847,0.00050309049279897,-0.00050309049279727,0.00050309049279733,-0.00050309049279799,0.0005030904927963,-1.1680525520904e-16,-1.1043780267152e-16,-0.00050461300819044,0.00050461300819041,2.7058732197835e-16,-5.6818852458354e-16,-0.00050556018280615,0.00050556018280604,-0.00050556018280578,0.00050556018280584,-0.00050556018280551,0.00050556018280603,-0.00050556018280644,0.00050556018280625,-0.00050309049279745,0.00050309049279611,-0.00050309049279729,0.00050309049279785,0.78221515918343,0.69713220853792,1270536,32768,0.0021003466367176,0.0021003466367177,0.0021003466367178,33.023434396979,33.033305707146,0.00017938747517583,0.00017938747517583,0.00017938747517583,341653.20071702,0.0063209339705216
4320000,0.30554392564285,0.006079487406803,0.0020264958022676,0.0020264958022677,0.0020264958022677,-0.00053035326132834,0.00053035326132859,8.9864901747761e-17,-6.3336300413616e-17,-9.4944158344664e-16,9.8069798152631e-16,-0.00053162715634501,0.00053162715634422,-0.00053162715634472,0.00053162715634467,-0.00053162715634489,0.00053162715634513,-0.00053162715634404,0.00053162715634555,-0.00052848442397036,0.00052848442397392,-0.00052848442397115,0.00052848442397397,8.9811962188558e-16,-9.1345738862145e-16,-4.9113205507637e-16,5.40821713562e-16,-0.00053035326132843,0.00053035326132853,-0.00053162715634507,0.00053162715634514,-0.00053162715634484,0.0005316271563455,-0.00053162715634622,0.00053162715634477,-0.00053162715634496,0.00053162715634514,-0.00052848442397499,0.00052848442397296,-0.00052848442397494,0.00052848442397544,-0.00052848442397371,0.00052848442397382,-0.00052848442397444,0.00052848442397275,-1.1518030485016e-16,-1.0854080180007e-16,-0.00053035326132851,0.00053035326132849,2.7085201977436e-16,-5.6746795836105e-16,-0.00053162715634543,0.00053162715634533,-0.00053162715634506,0.00053162715634513,-0.00053162715634479,0.00053162715634532,-0.00053162715634573,0.00053162715634554,-0.00052848442397391,0.00052848442397258,-0.00052848442397374,0.00052848442397432,0.78192779165745,0.70348514477375,1270536,32768,0.0022073668717848,0.0022073668717848,0.0022073668717849,33.247050919845,33.262008750992,0.00018117640735876,0.00018117640735876,0.00018117640735876,363143.22970636,0.0066440761689651
4406400,0.3221147262912,0.0064016834673327,0.0021338944891109,0.0021338944891109,0.002133894489111,-0.00055675920745117,0.00055675920745141,8.5026814253895e-17,-6.8019980859805e-17,-9.5694135433379e-16,9.8099944290511e-16,-0.00055837861555599,0.00055837861555521,-0.00055837861555572,0.00055837861555566,-0.00055837861555589,0.00055837861555613,-0.00055837861555503,0.00055837861555655,-0.00055453603268071,0.00055453603268423,-0.00055453603268148,0.00055453603268429,8.9617850471478e-16,-9.2367766463433e-16,-4.9801419777282e-16,5.3671889772374e-16,-0.00055675920745126,0.00055675920745135,-0.00055837861555602,0.00055837861555606,-0.00055837861555577,0.00055837861555645,-0.00055837861555717,0.0005583786155557,-0.00055837861555591,0.00055837861555608,-0.00055453603268527,0.00055453603268324,-0.00055453603268523,0.00055453603268572,-0.00055453603268406,0.00055453603268419,-0.00055453603268482,0.00055453603268309,-1.1805521702357e-16,-1.1132012865825e-16,-0.00055675920745134,0.00055675920745132,2.6959470524328e-16,-5.7160018506553e-16,-0.00055837861555638,0.00055837861555627,-0.000558378615556,0.00055837861555607,-0.00055837861555574,0.00055837861555626,-0.00055837861555669,0.00055837861555648,-0.00055453603268427,0.00055453603268293,-0.0005545360326841,0.00055453603268467,0.78157267411006,0.70739061052005,1270536,32768,0.0023171429450869,0.0023171429450869,0.002317142945087,33.544652209033,33.564636033845,0.00018355721767226,0.00018355721767226,0.00018355721767226,382975.52711623,0.006975647343559
4492800,0.33901552505673,0.0067301164166958,0.0022433721388986,0.0022433721388986,0.0022433721388987,-0.0005836760978645,0.00058367609786477,1.0008517776064e-16,-5.2674861407377e-17,-9.4650049682423e-16,1.0025281969812e-15,-0.00058566111138654,0.00058566111138576,-0.00058566111138625,0.00058566111138621,-0.00058566111138642,0.0005856611113867,-0.00058566111138556,0.00058566111138709,-0.00058108964901904,0.00058108964902261,-0.00058108964901983,0.00058108964902268,9.1394266791415e-16,-9.1750138272726e-16,-4.8660278167786e-16,5.4830677901604e-16,-0.0005836760978646,0.00058367609786471,-0.00058566111138655,0.00058566111138664,-0.00058566111138635,0.000585661111387,-0.00058566111138772,0.00058566111138627,-0.00058566111138647,0.00058566111138663,-0.00058108964902361,0.00058108964902158,-0.00058108964902355,0.00058108964902406,-0.00058108964902242,0.00058108964902254,-0.00058108964902317,0.00058108964902146,-1.1474649457336e-16,-1.0777611927824e-16,-0.00058367609786468,0.00058367609786466,2.7294754399283e-16,-5.6827675718221e-16,-0.00058566111138694,0.00058566111138683,-0.00058566111138657,0.00058566111138663,-0.00058566111138629,0.00058566111138681,-0.00058566111138723,0.00058566111138705,-0.00058108964902262,0.00058108964902129,-0.00058108964902246,0.00058108964902302,0.78128683770149,0.71129607626636,1270536,32768,0.0024290307266384,0.0024290307266384,0.0024290307266385,33.846790614786,33.867263316698,0.00018597432491829,0.00018597432491829,0.00018597432491829,401070.13064014,0.007313709228935
4579200,0.35622468463262,0.0070643975753622,0.0023547991917874,0.0023547991917874,0.0023547991917875,-0.00061106631104935,0.00061106631104961,9.4702989241627e-17,-5.7733530397923e-17,-9.573236955947e-16,1.0008664830395e-15,-0.0006134326371548,0.000613432637154,-0.00061343263715451,0.00061343263715446,-0.00061343263715468,0.00061343263715494,-0.00061343263715383,0.00061343263715535,-0.00060811130127561,0.00060811130127917,-0.0006081113012764,0.00060811130127924,9.3344207222073e-16,-9.0797226207065e-16,-4.7198558116448e-16,5.6242399480361e-16,-0.00061106631104942,0.00061106631104957,-0.00061343263715489,0.000613432637155,-0.00061343263715466,0.00061343263715536,-0.00061343263715607,0.00061343263715463,-0.00061343263715481,0.000613432637155,-0.00060811130128022,0.00060811130127824,-0.00060811130128018,0.0006081113012807,-0.00060811130127898,0.00060811130127915,-0.00060811130127974,0.00060811130127807,-1.2190804049893e-16,-1.1521706843294e-16,-0.00061106631104953,0.0006110663110495,2.6393311349514e-16,-5.7654121059118e-16,-0.0006134326371553,0.00061343263715516,-0.00061343263715493,0.00061343263715497,-0.00061343263715464,0.00061343263715514,-0.00061343263715559,0.00061343263715539,-0.0006081113012792,0.00060811130127788,-0.00060811130127905,0.00060811130127961,0.78106940497176,0.71520154201266,1270536,32768,0.0025428731489428,0.0025428731489428,0.0025428731489429,34.149351707659,34.169890599551,0.00018839481366127,0.00018839481366127,0.00018839481366127,416696.91593035,0.0076577934747916
4665600,0.37371781350139,0.0074040868470154,0.0024680289490051,0.0024680289490051,0.0024680289490052,-0.00063889397147646,0.0006388939714767,8.2865115586423e-17,-6.9394938855782e-17,-9.7279381122859e-16,9.9413874739073e-16,-0.00064165494712845,0.00064165494712761,-0.00064165494712815,0.00064165494712808,-0.0006416549471283,0.00064165494712856,-0.00064165494712745,0.00064165494712901,-0.00063556745440624,0.00063556745440975,-0.00063556745440705,0.00063556745440984,9.2517761881176e-16,-9.2573642527001e-16,-4.8551457962757e-16,5.4898322893919e-16,-0.00063889397147654,0.00063889397147666,-0.00064165494712846,0.00064165494712855,-0.00064165494712824,0.00064165494712891,-0.00064165494712964,0.00064165494712818,-0.00064165494712837,0.00064165494712856,-0.00063556745441086,0.00063556745440884,-0.00063556745441081,0.00063556745441132,-0.00063556745440953,0.00063556745440973,-0.00063556745441032,0.00063556745440859,-1.1430533157999e-16,-1.0712908022131e-16,-0.00063889397147663,0.00063889397147661,2.7446220360337e-16,-5.6627681827897e-16,-0.00064165494712883,0.00064165494712872,-0.00064165494712847,0.00064165494712853,-0.00064165494712818,0.00064165494712872,-0.00064165494712913,0.00064165494712897,-0.0006355674544098,0.00063556745440843,-0.0006355674544096,0.00063556745441019,0.78091825599857,0.71910700775897,1270536,32768,0.0026585204595183,0.0026585204595183,0.0026585204595184,34.451954974957,34.472517882404,0.00019081563979966,0.00019081563979966,0.00019081563979966,429780.03202124,0.008007453316368
4752000,0.39146817091781,0.0077486975352843,0.0025828991784281,0.0025828991784281,0.0025828991784282,-0.00066712010198966,0.00066712010198992,8.9835490881537e-17,-6.2042222299755e-17,-9.6691163798376e-16,1.0031899414712e-15,-0.00067028621216678,0.00067028621216597,-0.00067028621216649,0.00067028621216642,-0.00067028621216664,0.00067028621216693,-0.00067028621216582,0.00067028621216732,-0.00066342125236841,0.000663421252372,-0.00066342125236928,0.00066342125237207,9.303539312672e-16,-9.2432470369126e-16,-4.8351464072433e-16,5.5348309147148e-16,-0.00066712010198974,0.00066712010198986,-0.00067028621216687,0.00067028621216697,-0.00067028621216666,0.00067028621216733,-0.00067028621216804,0.00067028621216658,-0.00067028621216681,0.00067028621216695,-0.0006634212523731,0.00066342125237109,-0.00066342125237308,0.00066342125237358,-0.00066342125237184,0.000663421252372,-0.0006634212523726,0.00066342125237091,-1.1030545377352e-16,-1.0312920241483e-16,-0.00066712010198983,0.00066712010198982,2.8081495070778e-16,-5.6268869259963e-16,-0.00067028621216725,0.00067028621216716,-0.0006702862121669,0.00067028621216697,-0.00067028621216661,0.00067028621216716,-0.00067028621216754,0.00067028621216737,-0.00066342125237207,0.00066342125237075,-0.0006634212523719,0.00066342125237246,0.78083076178335,0.72301247350527,1270536,32768,0.0027758100771367,0.0027758100771368,0.0027758100771369,34.754562520242,34.775145165257,0.00019323650016193,0.00019323650016193,0.00019323650016193,440357.04904096,0.0083622026495759
4838400,0.40944682302941,0.0080977023069446,0.0026992341023148,0.0026992341023149,0.0026992341023149,-0.00069570251111361,0.00069570251111384,7.7527043366748e-17,-7.4365375247656e-17,-9.8405817299242e-16,9.9907242019983e-16,-0.00069928165300665,0.0006992816530058,-0.00069928165300636,0.00069928165300627,-0.00069928165300648,0.00069928165300674,-0.00069928165300563,0.00069928165300717,-0.00069163235555302,0.0006916323555565,-0.00069163235555381,0.00069163235555658,9.3300090922737e-16,-9.353537785253e-16,-4.8810273585529e-16,5.504537722504e-16,-0.00069570251111368,0.00069570251111379,-0.00069928165300673,0.00069928165300679,-0.0006992816530065,0.00069928165300716,-0.0006992816530079,0.00069928165300645,-0.00069928165300666,0.0006992816530068,-0.0006916323555576,0.0006916323555556,-0.0006916323555576,0.00069163235555809,-0.00069163235555636,0.00069163235555653,-0.00069163235555714,0.0006916323555554,-1.273637561835e-16,-1.2014338852548e-16,-0.00069570251111378,0.00069570251111374,2.6294784947663e-16,-5.8133518178571e-16,-0.00069928165300711,0.00069928165300699,-0.00069928165300675,0.00069928165300681,-0.00069928165300649,0.00069928165300697,-0.00069928165300742,0.00069928165300717,-0.00069163235555661,0.00069163235555528,-0.00069163235555641,0.00069163235555697,0.78080415403806,0.72691793925158,1270536,32768,0.0028945661339445,0.0028945661339445,0.0028945661339446,35.057170497807,35.07777244811,0.00019565736398245,0.00019565736398245,0.00019565736398245,448490.04787367,0.0087215145520542
4924800,0.4276227412121,0.0084505339503837,0.0028168446501279,0.0028168446501279,0.002816844650128,-0.00072459579350887,0.0007245957935091,8.2232781962605e-17,-6.9541993186903e-17,-9.7938184526279e-16,1.0039987402924e-15,-0.00072859353247513,0.00072859353247428,-0.00072859353247482,0.00072859353247475,-0.00072859353247497,0.00072859353247521,-0.00072859353247411,0.00072859353247563,-0.0007201571995782,0.00072015719958174,-0.000720157199579,0.0007201571995818,9.5061801809561e-16,-9.1829547611531e-16,-4.7057385958572e-16,5.6701208993457e-16,-0.00072459579350894,0.00072459579350908,-0.00072859353247508,0.00072859353247519,-0.00072859353247485,0.00072859353247557,-0.00072859353247624,0.00072859353247483,-0.00072859353247501,0.00072859353247518,-0.00072015719958278,0.00072015719958078,-0.00072015719958277,0.00072015719958327,-0.0007201571995815,0.0007201571995817,-0.0007201571995823,0.00072015719958059,-1.2914311359006e-16,-1.2196686223137e-16,-0.00072459579350905,0.000724595793509,2.5972735962509e-16,-5.8404098147833e-16,-0.00072859353247548,0.00072859353247536,-0.00072859353247511,0.00072859353247515,-0.00072859353247484,0.00072859353247534,-0.00072859353247577,0.00072859353247556,-0.00072015719958174,0.00072015719958041,-0.0007201571995816,0.00072015719958215,0.78083570909129,0.73082340499788,1270536,32768,0.0030145994878155,0.0030145994878156,0.0030145994878157,35.359778515173,35.380399730963,0.00019807822812138,0.00019807822812138,0.00019807822812138,454246.72981038,0.0090848212248188
5011200,0.44596293550463,0.008806370218846,0.0029354567396153,0.0029354567396153,0.0029354567396154,-0.0007537338490625,0.00075373384906274,8.3306278579785e-17,-6.8365558537938e-17,-9.8205823408918e-16,1.0069986486472e-15,-0.00075815935383889,0.00075815935383805,-0.0007581593538386,0.00075815935383851,-0.00075815935383874,0.00075815935383899,-0.0007581593538379,0.00075815935383941,-0.00074892173297952,0.00074892173298303,-0.0007489217329803,0.00074892173298309,9.5114741368764e-16,-9.2373648636677e-16,-4.7280908541875e-16,5.6492391843266e-16,-0.00075373384906257,0.00075373384906271,-0.00075815935383891,0.00075815935383903,-0.00075815935383868,0.00075815935383939,-0.00075815935384008,0.00075815935383865,-0.00075815935383884,0.00075815935383902,-0.00074892173298409,0.00074892173298207,-0.00074892173298404,0.00074892173298456,-0.00074892173298278,0.00074892173298301,-0.0007489217329836,0.00074892173298188,-1.2483442168823e-16,-1.1765817032954e-16,-0.00075373384906268,0.00075373384906264,2.6355077223423e-16,-5.800999254043e-16,-0.0007581593538393,0.00075815935383919,-0.00075815935383894,0.00075815935383899,-0.00075815935383867,0.00075815935383918,-0.00075815935383961,0.00075815935383939,-0.00074892173298306,0.00074892173298171,-0.00074892173298289,0.00074892173298343,0.78044999570515,0.72885757449027,1270536,32768,0.0031356351170543,0.0031356351170543,0.0031356351170544,35.662386532186,35.683027013817,0.00020049909225749,0.00020049909225749,0.00020049909225749,459236.27810287,0.0094512940489049
5097600,0.46431715130274,0.0091605241290374,0.0030535080430124,0.0030535080430125,0.0030535080430126,-0.00078254167224186,0.00078254167224212,9.1967778682785e-17,-5.9762880167387e-17,-9.7555843265365e-16,1.0143807760695e-15,-0.00078745687435832,0.00078745687435749,-0.00078745687435801,0.00078745687435795,-0.00078745687435818,0.00078745687435844,-0.00078745687435733,0.00078745687435886,-0.00077726859542757,0.00077726859543108,-0.00077726859542833,0.00077726859543112,9.5273560046374e-16,-9.2320709077474e-16,-4.7119148777643e-16,5.6627681827897e-16,-0.00078254167224194,0.00078254167224208,-0.0007874568743583,0.00078745687435844,-0.00078745687435808,0.0007874568743588,-0.00078745687435946,0.00078745687435806,-0.00078745687435825,0.00078745687435842,-0.00077726859543213,0.00077726859543011,-0.00077726859543207,0.00077726859543262,-0.00077726859543083,0.00077726859543105,-0.00077726859543164,0.00077726859542992,-1.272461127186e-16,-1.1996692332814e-16,-0.00078254167224205,0.00078254167224201,2.6218316695481e-16,-5.8157046871551e-16,-0.00078745687435871,0.00078745687435858,-0.00078745687435835,0.00078745687435841,-0.00078745687435807,0.00078745687435859,-0.00078745687435901,0.00078745687435879,-0.0007772685954311,0.00077726859542975,-0.00077726859543094,0.00077726859543148,0.77619996492973,0.68033219149736,1270536,32768,0.0032552845288292,0.0032552845288293,0.0032552845288294,35.864769846595,35.878820791791,0.00020211815877276,0.00020211815877276,0.00020211815877276,476811.53440357,0.0098137007970881
5184000,0.4825522413374,0.009512028465061,0.0031706761550203,0.0031706761550203,0.0031706761550204,-0.00081093262306091,0.00081093262306117,9.6467641215073e-17,-5.7027669608545e-17,-1.0060869117943e-15,1.0560706789421e-15,-0.00081637029700374,0.00081637029700291,-0.00081637029700345,0.00081637029700337,-0.00081637029700357,0.00081637029700387,-0.00081637029700273,0.00081637029700429,-0.00080517985117072,0.00080517985117427,-0.00080517985117152,0.00080517985117434,9.8385229692885e-16,-9.6485287734808e-16,-4.7854420433246e-16,5.5115963303978e-16,-0.000810932623061,0.00081093262306112,-0.00081637029700374,0.00081637029700388,-0.00081637029700352,0.00081637029700424,-0.00081637029700494,0.00081637029700348,-0.0008163702970037,0.00081637029700383,-0.00080517985117534,0.00080517985117327,-0.00080517985117529,0.00080517985117575,-0.00080517985117397,0.00080517985117425,-0.00080517985117485,0.00080517985117306,-1.3095188186284e-16,-1.2171686986847e-16,-0.00081093262306111,0.00081093262306106,2.5584512528351e-16,-5.7971758414339e-16,-0.00081637029700415,0.00081637029700403,-0.00081637029700379,0.00081637029700383,-0.00081637029700351,0.00081637029700402,-0.00081637029700445,0.00081637029700423,-0.00080517985117427,0.00080517985117292,-0.00080517985117411,0.00080517985117464,0.77556700394722,0.68861650922473,1270536,32768,0.0033731884841144,0.0033731884841144,0.0033731884841145,35.979150756499,35.987182183576,0.00020303320605199,0.00020303320605199,0.00020303320605199,498897.12277266,0.010170948114976
5270400,0.50063334102948,0.0098641191586724,0.0032880397195574,0.0032880397195574,0.0032880397195575,-0.00083941186343708,0.00083941186343432,-1.4210448233502e-15,-1.5873044501151e-15,-2.5468339606766e-15,-5.083668226837e-16,-0.00084524858765067,0.00084524858764717,-0.0008452485876514,0.00084524858764994,-0.0008452485876521,0.00084524858764886,-0.00084524858765014,0.00084524858764966,-0.00083338275897365,0.00083338275897459,-0.00083338275897477,0.00083338275897534,7.8521130645123e-16,-1.1488472564461e-15,-6.822144529344e-16,3.7269449679189e-16,-0.00083941186343602,0.00083941186343571,-0.00084524858765575,0.00084524858765517,-0.00084524858765491,0.00084524858765596,-0.00084524858765746,0.00084524858765572,-0.00084524858765422,0.00084524858765396,-0.00083338275897533,0.00083338275897299,-0.00083338275897637,0.0008333827589732,-0.00083338275897316,0.00083338275897225,-0.00083338275897362,0.00083338275897189,-1.5903925910686e-16,-1.5533348996262e-16,-0.00083941186343573,0.00083941186343554,2.4149262256615e-16,-6.0786378311986e-16,-0.00084524858765542,0.00084524858765419,-0.00084524858765573,0.00084524858765538,-0.00084524858765644,0.00084524858765599,-0.00084524858765643,0.00084524858765549,-0.00083338275897325,0.0008333827589733,-0.00083338275897343,0.00083338275897412,0.78361525640413,0.80400170950033,1270536,32768,0.0034914452694814,0.0034914452694821,0.0034914452694812,36.088078773555,36.095543575362,0.00020390463018844,0.00020390463018844,0.00020390463018844,485555.82614854,0.010529390912759
5356800,0.51853341895724,0.010211457049482,0.0034038190164939,0.0034038190164943,0.0034038190164943,-0.00086758894949215,0.00086758894949187,-1.6242150872263e-16,-3.0518185337445e-16,-9.162073046134e-16,4.4520698746743e-16,-0.00087380672999472,0.00087380672999354,-0.00087380672999446,0.00087380672999418,-0.00087380672999492,0.0008738067299943,-0.00087380672999393,0.00087380672999476,-0.0008612629318992,0.00086126293190209,-0.00086126293190007,0.00086126293190228,7.0144915944497e-16,-5.3977762781105e-16,-6.3998044903658e-16,8.5650324617846e-16,-0.000867588949492,0.00086758894949226,-0.00087380672999501,0.00087380672999484,-0.00087380672999451,0.00087380672999539,-0.00087380672999606,0.00087380672999485,-0.00087380672999446,0.00087380672999518,-0.00086126293190389,0.00086126293190156,-0.00086126293190332,0.00086126293190452,-0.00086126293190259,0.00086126293190238,-0.0008612629319027,0.00086126293190192,-1.8500905398275e-16,-1.8605313973371e-16,-0.00086758894949219,0.00086758894949204,4.2060479787096e-16,-8.7403212244803e-16,-0.00087380672999514,0.00087380672999502,-0.00087380672999501,0.00087380672999476,-0.00087380672999468,0.00087380672999513,-0.00087380672999562,0.0008738067299952,-0.00086126293190275,0.00086126293190122,-0.00086126293190271,0.00086126293190299,0.78069784954796,0.74770296004574,1270536,32768,0.0036084335820907,0.0036084335820912,0.0036084335820912,36.196494955941,36.203904967147,0.00020477195964753,0.00020477195964753,0.00020477195964753,468017.78956398,0.010884114272676
5443200,0.53622569888637,0.010552278179294,0.0035174260597644,0.0035174260597649,0.0035174260597648,-0.00089512586692212,0.00089512586692184,-1.6978893071177e-16,-3.1128460811596e-16,-9.3494202639816e-16,4.5207442473076e-16,-0.00090184423718071,0.00090184423717952,-0.00090184423718044,0.00090184423718015,-0.0009018442371809,0.00090184423718028,-0.00090184423717991,0.00090184423718074,-0.00088834201319158,0.0008883420131944,-0.00088834201319241,0.00088834201319459,7.2433081336732e-16,-5.4127758198848e-16,-6.030404010591e-16,8.4997403387671e-16,-0.00089512586692195,0.00089512586692224,-0.00090184423718098,0.00090184423718085,-0.0009018442371805,0.0009018442371814,-0.00090184423718203,0.00090184423718085,-0.00090184423718044,0.00090184423718118,-0.00088834201319609,0.00088834201319384,-0.00088834201319558,0.00088834201319675,-0.00088834201319474,0.00088834201319453,-0.0008883420131949,0.00088834201319406,-1.8199444019478e-16,-1.8405320083047e-16,-0.00089512586692216,0.000895125866922,4.0341414656297e-16,-8.477682189099e-16,-0.00090184423718114,0.00090184423718101,-0.000901844237181,0.00090184423718075,-0.00090184423718068,0.00090184423718112,-0.00090184423718161,0.0009018442371812,-0.0008883420131949,0.00088834201319338,-0.00088834201319481,0.00088834201319512,0.77488302591419,0.67633392771571,1270536,32768,0.0037227506373116,0.0037227506373121,0.0037227506373121,36.304859727728,36.312266358933,0.00020563887782182,0.00020563887782182,0.00020563887782182,484880.71602876,0.011230858799246
5529600,0.55368362384844,0.010885194430778,0.0036283981435925,0.0036283981435929,0.0036283981435929,-0.00092199949936614,0.00092199949936586,-1.6712724731849e-16,-3.0896114968425e-16,-9.4605933383087e-16,4.7397081463461e-16,-0.00092932374109077,0.0009293237410896,-0.00092932374109052,0.0009293237410902,-0.00092932374109093,0.00092932374109034,-0.00092932374108995,0.00092932374109081,-0.00091461153118792,0.00091461153119071,-0.00091461153118874,0.00091461153119092,7.4974180178495e-16,-5.488655854743e-16,-5.8177634477907e-16,8.4641531906359e-16,-0.00092199949936597,0.00092199949936628,-0.00092932374109098,0.0009293237410909,-0.00092932374109051,0.00092932374109143,-0.00092932374109205,0.00092932374109087,-0.00092932374109047,0.00092932374109121,-0.00091461153119237,0.00091461153119015,-0.00091461153119187,0.00091461153119303,-0.00091461153119103,0.00091461153119088,-0.00091461153119121,0.00091461153119035,-1.8253854121992e-16,-1.8512669744765e-16,-0.00092199949936619,0.00092199949936603,3.9012043502968e-16,-8.3585681808914e-16,-0.00092932374109119,0.00092932374109103,-0.00092932374109104,0.00092932374109078,-0.00092932374109071,0.00092932374109114,-0.00092932374109162,0.00092932374109124,-0.0009146115311912,0.00091461153118968,-0.0009146115311911,0.00091461153119141,0.76724846412388,0.60141412576628,1270536,32768,0.0038343013616727,0.0038343013616732,0.0038343013616732,36.413219247992,36.420627750718,0.00020650575398393,0.00020650575398393,0.00020650575398393,521507.63793477,0.011569327864364
5616000,0.57088240503183,0.011209955277511,0.0037366517591702,0.0037366517591707,0.0037366517591706,-0.00094818782628547,0.00094818782628517,-1.8520022461321e-16,-3.1493155552774e-16,-9.8067592337665e-16,4.9566132847489e-16,-0.00095622311260125,0.00095622311260005,-0.00095622311260098,0.00095622311260064,-0.00095622311260142,0.00095622311260079,-0.00095622311260043,0.00095622311260128,-0.00094006787476733,0.00094006787477012,-0.00094006787476816,0.00094006787477035,7.884759126021e-16,-5.6668857040611e-16,-5.4980673319347e-16,8.3903319164134e-16,-0.00094818782628528,0.00094818782628561,-0.00095622311260135,0.00095622311260129,-0.00095622311260091,0.00095622311260184,-0.00095622311260241,0.0009562231126013,-0.00095622311260091,0.0009562231126016,-0.00094006787477191,0.00094006787476972,-0.00094006787477146,0.00094006787477255,-0.00094006787477054,0.00094006787477051,-0.0009400678747708,0.0009400678747699,-1.7961216003063e-16,-1.9525874086185e-16,-0.00094818782628552,0.00094818782628534,3.618418871552e-16,-8.255630149107e-16,-0.00095622311260157,0.00095622311260144,-0.00095622311260143,0.00095622311260118,-0.00095622311260112,0.00095622311260153,-0.00095622311260201,0.00095622311260161,-0.00094006787477091,0.00094006787476928,-0.00094006787477075,0.00094006787477104,0.76011180722645,0.54799038503428,1270536,32768,0.003942995274266,0.0039429952742665,0.0039429952742665,36.521578229158,36.528989142504,0.00020737262583326,0.00020737262583326,0.00020737262583326,573188.95000013,0.011899238469762
5702400,0.58779885264705,0.011526308145883,0.0038421027152941,0.0038421027152946,0.0038421027152946,-0.00097369633995176,0.0009736963399515,-1.8892069919056e-16,-2.8919704758165e-16,-9.6247059718392e-16,5.1391077096695e-16,-0.00098253319375824,0.00098253319375703,-0.00098253319375794,0.00098253319375764,-0.00098253319375838,0.00098253319375779,-0.00098253319375739,0.00098253319375827,-0.0009647423160362,0.00096474231603897,-0.00096474231603702,0.00096474231603918,7.9226991434501e-16,-5.6330632079033e-16,-5.2916030510415e-16,8.0709299092196e-16,-0.00097369633995159,0.00097369633995193,-0.00098253319375839,0.00098253319375839,-0.00098253319375796,0.00098253319375889,-0.00098253319375944,0.00098253319375834,-0.00098253319375795,0.00098253319375865,-0.00096474231604066,0.00096474231603852,-0.00096474231604026,0.00096474231604132,-0.00096474231603919,0.00096474231603917,-0.00096474231603944,0.00096474231603848,-1.5598052901956e-16,-2.0175854229738e-16,-0.00097369633995183,0.00097369633995167,3.486658190868e-16,-7.8618186503662e-16,-0.00098253319375863,0.00098253319375849,-0.00098253319375845,0.00098253319375824,-0.00098253319375818,0.00098253319375855,-0.00098253319375907,0.00098253319375868,-0.00096474231603948,0.00096474231603797,-0.00096474231603933,0.00096474231603967,0.7533290130481,0.50714110322116,1270536,32768,0.0040488560842904,0.004048856084291,0.0040488560842909,36.629937154662,36.637350534289,0.00020823949723729,0.00020823949723729,0.00020823949723729,632299.59010666,0.012220654231883
5788800,0.60441151488547,0.011833759383935,0.0039445864613113,0.0039445864613119,0.0039445864613118,-0.00099848181636744,0.00099848181636723,-1.5192182948063e-16,-2.6137436813364e-16,-1.009851502671e-15,6.2367212371532e-16,-0.0010082160922813,0.0010082160922801,-0.001008216092281,0.0010082160922807,-0.0010082160922814,0.0010082160922809,-0.0010082160922804,0.0010082160922814,-0.00098858991073194,0.00098858991073485,-0.0009885899107328,0.0009885899107351,8.4938581655223e-16,-6.6359737461454e-16,-5.6462980977042e-16,8.1979848513078e-16,-0.00099848181636731,0.00099848181636761,-0.0010082160922813,0.0010082160922813,-0.0010082160922809,0.0010082160922818,-0.0010082160922824,0.0010082160922812,-0.0010082160922809,0.0010082160922816,-0.00098858991073669,0.00098858991073448,-0.00098858991073626,0.00098858991073725,-0.00098858991073546,0.00098858991073553,-0.00098858991073586,0.00098858991073477,-1.8777367540782e-16,-2.2480195598397e-16,-0.00099848181636755,0.00099848181636735,3.5615088454083e-16,-8.2665121696099e-16,-0.0010082160922816,0.0010082160922814,-0.0010082160922814,0.0010082160922811,-0.0010082160922811,0.0010082160922815,-0.001008216092282,0.0010082160922816,-0.00098858991073582,0.00098858991073422,-0.0009885899107357,0.00098858991073593,0.74613538755858,0.46629182140805,1270536,32768,0.0041517053030427,0.0041517053030432,0.0041517053030432,36.738296074237,36.745711926074,0.00020910636859389,0.00020910636859389,0.00020910636859389,698079.97067434,0.012533024954974
5875200,0.62064143854251,0.012133074060402,0.0040443580201337,0.0040443580201342,0.0040443580201341,-0.0010224816479465,0.0010224816479463,-1.0926136802256e-16,-2.1916977510205e-16,-1.0922313389647e-15,7.6697656939228e-16,-0.0010331509160356,0.0010331509160344,-0.0010331509160353,0.001033150916035,-0.0010331509160356,0.0010331509160353,-0.0010331509160346,0.0010331509160358,-0.0010116501901652,0.0010116501901682,-0.001011650190166,0.0010116501901684,9.2703050338387e-16,-8.1162226432048e-16,-6.1177542832766e-16,7.9659331167996e-16,-0.0010224816479464,0.0010224816479466,-0.0010331509160357,0.0010331509160357,-0.0010331509160352,0.0010331509160362,-0.0010331509160369,0.0010331509160355,-0.0010331509160354,0.0010331509160359,-0.0010116501901699,0.0010116501901674,-0.0010116501901694,0.0010116501901703,-0.0010116501901682,0.0010116501901685,-0.0010116501901689,0.0010116501901675,-1.862884266635e-16,-2.2359611046878e-16,-0.0010224816479466,0.0010224816479464,3.4737174097294e-16,-8.5932668933598e-16,-0.001033150916036,0.0010331509160358,-0.0010331509160358,0.0010331509160355,-0.0010331509160355,0.0010331509160358,-0.0010331509160364,0.0010331509160359,-0.0010116501901687,0.0010116501901671,-0.0010116501901685,0.0010116501901688,0.74415151511521,0.49184196051334,1270536,32768,0.0042512842254157,0.0042512842254162,0.0042512842254162,36.784579614672,36.787895818362,0.00020947663691737,0.00020947663691737,0.00020947663691737,758243.13075213,0.012835555622484
5961600,0.63642937288519,0.01242105758856,0.0041403525295196,0.0041403525295201,0.0041403525295201,-0.0010455845167804,0.0010455845167803,-1.0327625674595e-16,-2.1134648468644e-16,-1.0820257683849e-15,7.7950559840375e-16,-0.0010572117284068,0.0010572117284057,-0.0010572117284065,0.0010572117284062,-0.0010572117284068,0.0010572117284065,-0.0010572117284059,0.001057211728407,-0.0010337757386281,0.0010337757386312,-0.0010337757386289,0.0010337757386314,9.2755989897591e-16,-8.1362220322371e-16,-6.032756879889e-16,7.8668184976243e-16,-0.0010455845167803,0.0010455845167806,-0.0010572117284069,0.0010572117284069,-0.0010572117284065,0.0010572117284074,-0.0010572117284081,0.0010572117284067,-0.0010572117284066,0.0010572117284071,-0.0010337757386328,0.0010337757386304,-0.0010337757386324,0.0010337757386333,-0.0010337757386313,0.0010337757386315,-0.0010337757386319,0.0010337757386305,-1.9265587920102e-16,-2.3196350190954e-16,-0.0010455845167806,0.0010455845167803,3.3975432662089e-16,-8.4888583182642e-16,-0.0010572117284072,0.001057211728407,-0.001057211728407,0.0010572117284067,-0.0010572117284067,0.0010572117284071,-0.0010572117284076,0.0010572117284072,-0.0010337757386317,0.0010337757386301,-0.0010337757386316,0.0010337757386318,0.73662275026636,0.44077103288462,1270536,32768,0.0043471318868821,0.0043471318868827,0.0043471318868826,36.780618277264,36.78047504981,0.00020944494621811,0.00020944494621811,0.00020944494621811,808095.27309383,0.013126836875388
6048000,0.65176571942991,0.012698710868516,0.0042329036228385,0.004232903622839,0.004232903622839,-0.0010676941364192,0.0010676941364191,-9.1350150492078e-17,-1.9697927653596e-16,-1.0904666869912e-15,8.1551920409517e-16,-0.0010804003895075,0.0010804003895063,-0.0010804003895072,0.0010804003895069,-0.0010804003895075,0.0010804003895072,-0.0010804003895065,0.0010804003895077,-0.0010548060112914,0.0010548060112945,-0.0010548060112922,0.0010548060112947,9.4155947129858e-16,-8.4468007795637e-16,-6.2009870346909e-16,7.8850532346833e-16,-0.0010676941364192,0.0010676941364194,-0.0010804003895076,0.0010804003895076,-0.0010804003895071,0.0010804003895081,-0.0010804003895088,0.0010804003895074,-0.0010804003895073,0.0010804003895077,-0.0010548060112961,0.0010548060112937,-0.0010548060112957,0.0010548060112966,-0.0010548060112945,0.0010548060112948,-0.0010548060112952,0.0010548060112938,-2.0090562717688e-16,-2.4334550713827e-16,-0.0010676941364194,0.0010676941364192,3.3896023323284e-16,-8.68385236133e-16,-0.0010804003895079,0.0010804003895077,-0.0010804003895077,0.0010804003895074,-0.0010804003895074,0.0010804003895077,-0.0010804003895083,0.0010804003895078,-0.001054806011295,0.0010548060112934,-0.0010548060112949,0.0010548060112951,0.73159504785794,0.42834657677503,1270536,32768,0.0044388499514662,0.0044388499514668,0.0044388499514667,36.773525376704,36.773054281258,0.00020938820301363,0.00020938820301363,0.00020938820301363,875956.55260068,0.013405647817284
6134400,0.66664509179741,0.012967031305235,0.0043223437684112,0.0043223437684117,0.0043223437684117,-0.0010891281117214,0.0010891281117213,-9.1335445058966e-17,-1.9643517551082e-16,-1.0780847123109e-15,8.0247548492478e-16,-0.001102891341343,0.0011028913413418,-0.0011028913413427,0.0011028913413424,-0.001102891341343,0.0011028913413427,-0.001102891341342,0.0011028913413432,-0.0010752115388661,0.0010752115388691,-0.0010752115388668,0.0010752115388693,9.3385382434787e-16,-8.2679827129211e-16,-6.0904021776882e-16,7.8515248471878e-16,-0.0010891281117214,0.0010891281117216,-0.0011028913413431,0.0011028913413431,-0.0011028913413426,0.0011028913413436,-0.0011028913413442,0.0011028913413429,-0.0011028913413428,0.0011028913413432,-0.0010752115388708,0.0010752115388683,-0.0010752115388703,0.0010752115388712,-0.0010752115388692,0.0010752115388694,-0.0010752115388699,0.0010752115388684,-2.0290556608012e-16,-2.4628659376068e-16,-0.0010891281117216,0.0010891281117214,3.2837232139216e-16,-8.6462064525632e-16,-0.0011028913413433,0.0011028913413432,-0.0011028913413432,0.0011028913413429,-0.0011028913413429,0.0011028913413432,-0.0011028913413438,0.0011028913413433,-0.0010752115388696,0.001075211538868,-0.0010752115388695,0.0010752115388698,0.72934858208713,0.44713313593456,1270536,32768,0.0045277570746626,0.0045277570746631,0.0045277570746631,36.766137658209,36.765633512706,0.00020932910126567,0.00020932910126567,0.00020932910126567,926663.24047513,0.013675987658336
6220800,0.68106467856454,0.013226357673094,0.004408785891031,0.0044087858910315,0.0044087858910314,-0.0011099247122922,0.0011099247122921,-9.2585406873491e-17,-1.9746455582866e-16,-1.0675556222027e-15,7.9056408410401e-16,-0.0011246991284829,0.0011246991284818,-0.0011246991284826,0.0011246991284823,-0.0011246991284829,0.0011246991284827,-0.001124699128482,0.0011246991284831,-0.0010950494572886,0.0010950494572916,-0.0010950494572893,0.0010950494572918,9.2714814684877e-16,-8.1103404699599e-16,-5.8774675062257e-16,7.7538807713237e-16,-0.0011099247122921,0.0011099247122924,-0.001124699128483,0.001124699128483,-0.0011246991284825,0.0011246991284835,-0.0011246991284842,0.0011246991284828,-0.0011246991284827,0.0011246991284832,-0.0010950494572932,0.0010950494572909,-0.0010950494572928,0.0010950494572937,-0.0010950494572917,0.0010950494572919,-0.0010950494572924,0.0010950494572909,-2.0193500749472e-16,-2.4550720580574e-16,-0.0011099247122924,0.0011099247122921,3.1425510560459e-16,-8.4773880804368e-16,-0.0011246991284833,0.0011246991284831,-0.0011246991284831,0.0011246991284828,-0.0011246991284828,0.0011246991284831,-0.0011246991284837,0.0011246991284832,-0.0010950494572921,0.0010950494572905,-0.001095049457292,0.0010950494572923,0.7278273175735,0.46591969509408,1270536,32768,0.0046140127641955,0.0046140127641961,0.004614012764196,36.758720262575,36.758212744154,0.0002092697621006,0.0002092697621006,0.0002092697621006,959552.2283932,0.013938334626988
6307200,0.69502329316287,0.01347698014421,0.0044923267147363,0.0044923267147369,0.0044923267147368,-0.0011300374691608,0.0011300374691607,-9.1953073249673e-17,-1.9496463219961e-16,-1.0610852316334e-15,7.8831415283787e-16,-0.0011457978872159,0.0011457978872148,-0.0011457978872156,0.0011457978872153,-0.0011457978872159,0.0011457978872156,-0.0011457978872149,0.0011457978872161,-0.001114251657757,0.0011142516577601,-0.0011142516577578,0.0011142516577603,9.2597171219981e-16,-8.0379897390486e-16,-5.7909995595268e-16,7.7203523838283e-16,-0.0011300374691607,0.001130037469161,-0.0011457978872159,0.001145797887216,-0.0011457978872155,0.0011457978872165,-0.0011457978872171,0.0011457978872158,-0.0011457978872157,0.0011457978872161,-0.0011142516577617,0.0011142516577593,-0.0011142516577613,0.0011142516577621,-0.0011142516577602,0.0011142516577604,-0.0011142516577608,0.0011142516577594,-2.0334672907348e-16,-2.4934532384798e-16,-0.001130037469161,0.0011300374691607,3.0619652825918e-16,-8.437389302372e-16,-0.0011457978872162,0.001145797887216,-0.0011457978872161,0.0011457978872158,-0.0011457978872158,0.0011457978872161,-0.0011457978872167,0.0011457978872162,-0.0011142516577606,0.001114251657759,-0.0011142516577605,0.0011142516577607,0.72689646178959,0.4847062542536,1270536,32768,0.0046974250033917,0.0046974250033922,0.0046974250033922,36.751299830316,36.750791975602,0.00020921039864253,0.00020921039864253,0.00020921039864253,983658.34708018,0.014192098179781
6393600,0.70852115802419,0.013718607929536,0.004572869309845,0.0045728693098455,0.0045728693098455,-0.0011494384806308,0.0011494384806307,-9.5702958693246e-17,-1.9534697346052e-16,-1.0536736933449e-15,7.7507926303702e-16,-0.0011661675443251,0.001166167544324,-0.0011661675443248,0.0011661675443245,-0.0011661675443251,0.0011661675443248,-0.0011661675443242,0.0011661675443253,-0.0011327707616568,0.0011327707616598,-0.0011327707616575,0.0011327707616601,9.2026600415233e-16,-7.8903471906036e-16,-5.6186518834535e-16,7.6444723489701e-16,-0.0011494384806308,0.001149438480631,-0.0011661675443252,0.0011661675443252,-0.0011661675443247,0.0011661675443257,-0.0011661675443263,0.001166167544325,-0.0011661675443249,0.0011661675443254,-0.0011327707616614,0.0011327707616591,-0.001132770761661,0.0011327707616619,-0.0011327707616599,0.0011327707616601,-0.0011327707616606,0.0011327707616592,-2.0087621631066e-16,-2.5016882810226e-16,-0.001149438480631,0.0011494384806307,2.9550567838672e-16,-8.2979817964697e-16,-0.0011661675443255,0.0011661675443253,-0.0011661675443253,0.001166167544325,-0.001166167544325,0.0011661675443253,-0.0011661675443259,0.0011661675443254,-0.0011327707616603,0.0011327707616587,-0.0011327707616602,0.0011327707616605,0.72492483315134,0.48538089711844,1270536,32768,0.0047778787704307,0.0047778787704313,0.0047778787704313,36.743879085966,36.743371207051,0.00020915103268773,0.00020915103268773,0.00020915103268773,1002209.5686573,0.014436921909155
6480000,0.7215599066975,0.013953394213471,0.0046511314044899,0.0046511314044904,0.0046511314044904,-0.0011682575905687,0.0011682575905686,-9.6644106412418e-17,-1.9675869503928e-16,-1.049614993806e-15,7.7024117554316e-16,-0.0011859000421315,0.0011859000421304,-0.0011859000421312,0.0011859000421309,-0.0011859000421315,0.0011859000421312,-0.0011859000421306,0.0011859000421317,-0.0011508102984734,0.0011508102984764,-0.0011508102984742,0.0011508102984767,9.1808960005175e-16,-7.8197611116657e-16,-5.5398307619729e-16,7.6144732654215e-16,-0.0011682575905686,0.0011682575905689,-0.0011859000421315,0.0011859000421316,-0.0011859000421311,0.0011859000421321,-0.0011859000421327,0.0011859000421314,-0.0011859000421313,0.0011859000421318,-0.001150810298478,0.0011508102984757,-0.0011508102984776,0.0011508102984785,-0.0011508102984766,0.0011508102984768,-0.0011508102984772,0.0011508102984758,-2.0258204655165e-16,-2.5172760401214e-16,-0.0011682575905689,0.0011682575905686,2.882853107287e-16,-8.2615123223518e-16,-0.0011859000421318,0.0011859000421316,-0.0011859000421317,0.0011859000421314,-0.0011859000421314,0.0011859000421317,-0.0011859000421323,0.0011859000421318,-0.001150810298477,0.0011508102984754,-0.0011508102984769,0.0011508102984771,0.72928160379373,0.56135094059269,1270536,32768,0.0048559134027169,0.0048559134027174,0.0048559134027174,36.736458309501,36.735950438499,0.00020909166647601,0.00020909166647601,0.00020909166647601,1011962.3025437,0.014674440093712
6566400,0.73414297692507,0.014181386369007,0.0047271287896686,0.0047271287896691,0.0047271287896691,-0.0011867524642924,0.0011867524642923,-9.623235428528e-17,-1.9508227566451e-16,-1.048967954749e-15,7.7185877318548e-16,-0.0012051224674843,0.0012051224674832,-0.001205122467484,0.0012051224674837,-0.0012051224674843,0.001205122467484,-0.0012051224674834,0.0012051224674845,-0.0011687308451378,0.0011687308451408,-0.0011687308451385,0.001168730845141,9.1956014336295e-16,-7.8168200250433e-16,-5.4551274672475e-16,7.5444754038081e-16,-0.0011867524642924,0.0011867524642926,-0.0012051224674843,0.0012051224674844,-0.0012051224674839,0.0012051224674849,-0.0012051224674855,0.0012051224674842,-0.0012051224674841,0.0012051224674845,-0.0011687308451424,0.0011687308451401,-0.001168730845142,0.0011687308451428,-0.0011687308451409,0.0011687308451411,-0.0011687308451416,0.0011687308451402,-2.0161148796626e-16,-2.5246287566774e-16,-0.0011867524642926,0.0011867524642924,2.8116788110247e-16,-8.1821029835468e-16,-0.0012051224674846,0.0012051224674844,-0.0012051224674845,0.0012051224674842,-0.0012051224674842,0.0012051224674845,-0.0012051224674851,0.0012051224674846,-0.0011687308451413,0.0011687308451397,-0.0011687308451412,0.0011687308451415,0.73382037766305,0.61978136300686,1270536,32768,0.0049325978663233,0.0049325978663238,0.0049325978663238,36.729623143346,36.729153963061,0.00020903698514677,0.00020903698514677,0.00020903698514677,988763.30734346,0.014907902053844
6652800,0.74658369740534,0.014408576149771,0.0048028587165901,0.0048028587165906,0.0048028587165906,-0.0012060125030186,0.0012060125030185,-9.6702928144866e-17,-1.977586644909e-16,-1.0454386508021e-15,7.6552073151419e-16,-0.0012250370365945,0.0012250370365934,-0.0012250370365942,0.0012250370365939,-0.0012250370365945,0.0012250370365942,-0.0012250370365936,0.0012250370365947,-0.0011875109774015,0.0011875109774045,-0.0011875109774022,0.0011875109774047,9.1626612634585e-16,-7.7509396847013e-16,-5.4039525600175e-16,7.5397696652122e-16,-0.0012060125030185,0.0012060125030188,-0.0012250370365945,0.0012250370365946,-0.0012250370365941,0.0012250370365951,-0.0012250370365956,0.0012250370365944,-0.0012250370365942,0.0012250370365947,-0.0011875109774061,0.0011875109774038,-0.0011875109774057,0.0011875109774065,-0.0011875109774047,0.0011875109774049,-0.0011875109774053,0.0011875109774039,-2.053172571105e-16,-2.5384518638027e-16,-0.0012060125030188,0.0012060125030185,2.760798012457e-16,-8.1756325929775e-16,-0.0012250370365948,0.0012250370365946,-0.0012250370365946,0.0012250370365943,-0.0012250370365944,0.0012250370365946,-0.0012250370365952,0.0012250370365948,-0.0011875109774051,0.0011875109774035,-0.001187510977405,0.0011875109774052,0.73934880830063,0.67821178542102,1270536,32768,0.0050124489067382,0.0050124489067388,0.0050124489067387,37.168829067482,37.197859537707,0.00021255063253985,0.00021255063253985,0.00021255063253985,959212.10203978,0.01515106045809
6739200,0.75887518185189,0.014635113982486,0.004878371327495,0.0048783713274955,0.0048783713274955,-0.0012252771255036,0.0012252771255035,-6.9703752951135e-17,-2.0111150324045e-16,-1.0583794319407e-15,7.9157875898875e-16,-0.0012448861949863,0.0012448861949852,-0.001244886194986,0.0012448861949857,-0.0012448861949863,0.0012448861949861,-0.0012448861949854,0.0012448861949865,-0.001206392163654,0.001206392163657,-0.0012063921636548,0.0012063921636573,9.3208917237442e-16,-7.9856383971697e-16,-4.615153127887e-16,6.7115596723414e-16,-0.0012252771255036,0.0012252771255038,-0.0012448861949863,0.0012448861949864,-0.001244886194986,0.0012448861949869,-0.0012448861949875,0.0012448861949863,-0.0012448861949861,0.0012448861949865,-0.0012063921636585,0.0012063921636563,-0.0012063921636583,0.0012063921636589,-0.0012063921636572,0.0012063921636574,-0.0012063921636579,0.0012063921636564,-2.0028799898617e-16,-2.1869920124246e-16,-0.0012252771255038,0.0012252771255036,2.239931571628e-16,-7.0844894560631e-16,-0.0012448861949867,0.0012448861949865,-0.0012448861949865,0.0012448861949862,-0.0012448861949862,0.0012448861949865,-0.001244886194987,0.0012448861949867,-0.0012063921636575,0.001206392163656,-0.0012063921636575,0.0012063921636577,0.74579716482665,0.73664220783519,1270536,32768,0.0050923127813865,0.0050923127813871,0.005092312781387,37.634716470876,37.666565112353,0.00021627773176701,0.00021627773176701,0.00021627773176701,922465.76708277,0.015394315370045
6825600,0.770992903512,0.014862843910365,0.0049542813034546,0.0049542813034551,0.0049542813034551,-0.0012446432949539,0.0012446432949538,-8.4379775196965e-17,-2.077583590071e-16,-1.0522031500337e-15,7.8360841424201e-16,-0.0012646956731425,0.0012646956731414,-0.0012646956731422,0.0012646956731419,-0.0012646956731424,0.0012646956731422,-0.0012646956731415,0.0012646956731426,-0.0012255723707291,0.001225572370732,-0.0012255723707298,0.0012255723707323,9.2650110779184e-16,-7.8968175811729e-16,-3.789296004314e-16,5.849821291975e-16,-0.0012446432949539,0.0012446432949541,-0.0012646956731424,0.0012646956731426,-0.0012646956731421,0.001264695673143,-0.0012646956731436,0.0012646956731424,-0.0012646956731423,0.0012646956731426,-0.0012255723707334,0.0012255723707314,-0.0012255723707334,0.0012255723707338,-0.0012255723707322,0.0012255723707323,-0.0012255723707328,0.0012255723707313,-1.7149476095277e-16,-1.9740573409621e-16,-0.0012446432949541,0.0012446432949539,1.6537730077816e-16,-5.9898170152018e-16,-0.0012646956731428,0.0012646956731426,-0.0012646956731425,0.0012646956731424,-0.0012646956731423,0.0012646956731426,-0.0012646956731431,0.0012646956731429,-0.0012255723707324,0.001225572370731,-0.0012255723707324,0.0012255723707327,0.75994437182142,0.88014327974572,1270536,32768,0.005172591704095,0.0051725917040955,0.0051725917040955,38.103096235434,38.135270687,0.00022002476988347,0.00022002476988347,0.00022002476988347,871690.31649232,0.01563889110291
6912000,0.78291133499581,0.015083352186001,0.0050277840619999,0.0050277840620004,0.0050277840620004,-0.0012636008765685,0.0012636008765686,-2.5828622718011e-16,2.134934779208e-16,-1.3046660257014e-15,1.0376447712527e-15,-0.0012840845512146,0.0012840845512134,-0.0012840845512141,0.001284084551214,-0.0012840845512145,0.0012840845512142,-0.0012840845512134,0.0012840845512149,-0.001244246652229,0.0012442466522314,-0.0012442466522294,0.0012442466522332,1.1250244548046e-15,-1.0990840707949e-15,-1.675478227055e-15,1.4973660212018e-15,-0.0012636008765686,0.0012636008765687,-0.0012840845512142,0.0012840845512136,-0.0012840845512132,0.0012840845512147,-0.0012840845512155,0.0012840845512133,-0.0012840845512134,0.0012840845512143,-0.0012442466522357,0.0012442466522311,-0.001244246652234,0.0012442466522352,-0.0012442466522325,0.0012442466522349,-0.0012442466522351,0.0012442466522334,-2.9725562492706e-16,-9.3014805520363e-16,-0.0012636008765691,0.0012636008765682,9.310892029228e-16,-2.0408788290233e-15,-0.0012840845512141,0.001284084551214,-0.0012840845512146,0.0012840845512132,-0.0012840845512139,0.001284084551214,-0.0012840845512152,0.0012840845512134,-0.0012442466522359,0.0012442466522315,-0.001244246652235,0.0012442466522344,0.74777387418205,0.66927950108049,1270536,32768,0.005251170214427,0.0052511702144275,0.0052511702144275,38.571726799631,38.603976261646,0.00022377381439705,0.00022377381439705,0.00022377381439705,821095.04470499,0.015878345405921
6998400,0.7946055267971,0.01529837459037,0.0050994581967896,0.0050994581967901,0.00509945819679,-0.0012813966865648,0.0012813966865648,-3.0293192210831e-16,1.7367116505336e-16,-1.1884931041162e-15,1.0672909244066e-15,-0.0013026859217797,0.0013026859217784,-0.0013026859217792,0.0013026859217791,-0.0013026859217795,0.0013026859217794,-0.0013026859217784,0.00130268592178,-0.0012613853258348,0.0012613853258374,-0.0012613853258349,0.0012613853258383,1.0633792791988e-15,-1.0725554694608e-15,-1.4810135795812e-15,1.5344825343766e-15,-0.0012813966865649,0.001281396686565,-0.0013026859217798,0.0013026859217793,-0.0013026859217788,0.0013026859217804,-0.0013026859217811,0.001302685921779,-0.0013026859217791,0.0013026859217799,-0.0012613853258402,0.0012613853258358,-0.0012613853258381,0.0012613853258402,-0.0012613853258373,0.0012613853258384,-0.0012613853258384,0.001261385325837,-2.3908093153577e-16,-8.6588531250395e-16,-0.0012813966865654,0.0012813966865645,8.1159285345425e-16,-1.9957037385031e-15,-0.0013026859217798,0.0013026859217797,-0.0013026859217802,0.0013026859217789,-0.0013026859217795,0.0013026859217795,-0.0013026859217809,0.0013026859217791,-0.0012613853258391,0.0012613853258357,-0.0012613853258384,0.001261385325838,0.74269820129398,0.61390026052372,1270536,32768,0.005324927176541,0.0053249271765415,0.0053249271765415,39.040383075758,39.072681836293,0.00022752306460607,0.00022752306460607,0.00022752306460607,840050.83023593,0.016103159567974
7084800,0.8060512324994,0.015507877583229,0.0051692925277426,0.005169292527743,0.005169292527743,-0.001299001695014,0.001299001695014,-3.0357896116524e-16,1.6361264880471e-16,-1.1735523840743e-15,1.0510414208178e-15,-0.0013209874633859,0.0013209874633846,-0.0013209874633854,0.0013209874633853,-0.0013209874633858,0.0013209874633856,-0.0013209874633847,0.0013209874633862,-0.0012784294343478,0.0012784294343504,-0.0012784294343479,0.0012784294343513,1.0503796763278e-15,-1.0547324845289e-15,-1.4091922442619e-15,1.4653081770175e-15,-0.0012990016950141,0.0012990016950142,-0.001320987463386,0.0013209874633856,-0.0013209874633851,0.0013209874633866,-0.0013209874633873,0.0013209874633853,-0.0013209874633854,0.0013209874633861,-0.0012784294343531,0.0012784294343489,-0.0012784294343512,0.0012784294343532,-0.0012784294343503,0.0012784294343514,-0.0012784294343514,0.0012784294343499,-2.349634102644e-16,-8.5226808144219e-16,-0.0012990016950146,0.0012990016950137,7.4303612428586e-16,-1.9234706510566e-15,-0.001320987463386,0.0013209874633859,-0.0013209874633864,0.0013209874633851,-0.0013209874633858,0.0013209874633858,-0.0013209874633871,0.0013209874633854,-0.001278429434352,0.0012784294343487,-0.0012784294343514,0.001278429434351,0.7394956372671,0.59419810702723,1270536,32768,0.0053978879845062,0.0053978879845067,0.0053978879845067,39.509041989354,39.541387410939,0.00023127233591483,0.00023127233591483,0.00023127233591483,837696.24740298,0.016325596214392
7171200,0.8172259665836,0.015710529553495,0.0052368431844981,0.0052368431844986,0.0052368431844986,-0.0013161250670848,0.0013161250670849,-3.0616711739296e-16,1.6123036864056e-16,-1.1554941122127e-15,1.0197335537223e-15,-0.001338807107009,0.0013388071070078,-0.0013388071070085,0.0013388071070084,-0.0013388071070089,0.0013388071070087,-0.0013388071070078,0.0013388071070093,-0.001294965703785,0.0012949657037875,-0.0012949657037851,0.0012949657037884,1.0324978696635e-15,-1.0229099272745e-15,-1.343723656047e-15,1.4177213954669e-15,-0.0013161250670849,0.001316125067085,-0.0013388071070091,0.0013388071070087,-0.0013388071070082,0.0013388071070097,-0.0013388071070104,0.0013388071070084,-0.0013388071070085,0.0013388071070092,-0.0012949657037902,0.0012949657037861,-0.0012949657037884,0.0012949657037903,-0.0012949657037875,0.0012949657037885,-0.0012949657037886,0.0012949657037871,-2.3205173450821e-16,-8.4979756867937e-16,-0.0013161250670854,0.0013161250670845,6.9447878414985e-16,-1.8590020322934e-15,-0.0013388071070091,0.001338807107009,-0.0013388071070095,0.0013388071070083,-0.0013388071070089,0.0013388071070089,-0.0013388071070102,0.0013388071070085,-0.0012949657037892,0.0012949657037859,-0.0012949657037886,0.0012949657037882,0.73265914952993,0.53332239675741,1270536,32768,0.0054688474067603,0.0054688474067608,0.0054688474067608,39.977701159414,40.010092985586,0.00023502160927531,0.00023502160927531,0.00023502160927531,833397.87579302,0.016541978951251
7257600,0.82810857736543,0.015905664986745,0.0053018883289147,0.0053018883289151,0.0053018883289151,-0.0013325200949985,0.0013325200949985,-3.1657856403629e-16,1.5173065885017e-16,-1.1282008283568e-15,9.6614695546194e-16,-0.0013560003634885,0.0013560003634872,-0.001356000363488,0.0013560003634879,-0.0013560003634884,0.0013560003634882,-0.0013560003634873,0.0013560003634888,-0.001310653804503,0.0013106538045054,-0.0013106538045031,0.0013106538045064,1.0036752207639e-15,-9.7120562445248e-16,-1.2769021679859e-15,1.3767814696829e-15,-0.0013325200949985,0.0013325200949987,-0.0013560003634886,0.0013560003634882,-0.0013560003634877,0.0013560003634892,-0.0013560003634898,0.0013560003634879,-0.001356000363488,0.0013560003634887,-0.0013106538045081,0.0013106538045042,-0.0013106538045063,0.0013106538045082,-0.0013106538045055,0.0013106538045064,-0.0013106538045065,0.0013106538045051,-2.2834596536397e-16,-8.4700353638808e-16,-0.0013325200949991,0.0013325200949982,6.4445090070265e-16,-1.8016508431564e-15,-0.0013560003634886,0.0013560003634885,-0.0013560003634889,0.0013560003634878,-0.0013560003634884,0.0013560003634883,-0.0013560003634897,0.001356000363488,-0.0013106538045071,0.0013106538045039,-0.0013106538045065,0.0013106538045062,0.7244182322488,0.46898638272369,1270536,32768,0.005536783500697,0.0055367835006974,0.0055367835006974,40.446360339555,40.478798560232,0.00023877088271644,0.00023877088271644,0.00023877088271644,842942.78906663,0.016749186974313
7344000,0.83858072618623,0.016091534789413,0.005363844929804,0.0053638449298044,0.0053638449298044,-0.0013477786712344,0.0013477786712345,-2.7849149227608e-16,2.0952301098054e-16,-1.2002574506058e-15,1.1176129165161e-15,-0.0013721143743865,0.0013721143743852,-0.001372114374386,0.0013721143743859,-0.0013721143743863,0.0013721143743862,-0.0013721143743852,0.0013721143743868,-0.0013251436494135,0.001325143649416,-0.0013251436494135,0.001325143649417,1.0842021724855e-15,-1.1138483256394e-15,-1.3430177952577e-15,1.3588408412862e-15,-0.0013477786712345,0.0013477786712346,-0.0013721143743865,0.0013721143743861,-0.0013721143743857,0.0013721143743871,-0.0013721143743878,0.0013721143743858,-0.001372114374386,0.0013721143743866,-0.0013251436494187,0.0013251436494146,-0.0013251436494169,0.0013251436494187,-0.001325143649416,0.0013251436494171,-0.0013251436494172,0.0013251436494156,-2.3958091626158e-16,-8.7814964371941e-16,-0.001347778671235,0.0013477786712341,6.5189184985735e-16,-1.8418260864185e-15,-0.0013721143743866,0.0013721143743864,-0.0013721143743869,0.0013721143743857,-0.0013721143743864,0.0013721143743863,-0.0013721143743877,0.0013721143743859,-0.0013251436494177,0.0013251436494144,-0.0013251436494171,0.0013251436494167,0.717146316997,0.42818194048028,1270536,32768,0.005600006014406,0.0056000060144064,0.0056000060144064,40.737777711934,40.75839951913,0.00024110222169547,0.00024110222169547,0.00024110222169547,858348.67363946,0.016942057717763
7430400,0.8485093183902,0.016266173569896,0.0054220578566318,0.0054220578566323,0.0054220578566322,-0.0013617007782738,0.0013617007782739,-3.0240252651628e-16,1.9467052353737e-16,-1.164846767672e-15,1.0659674354266e-15,-0.0013868837461932,0.001386883746192,-0.0013868837461927,0.0013868837461926,-0.0013868837461931,0.0013868837461929,-0.001386883746192,0.0013868837461936,-0.0013383040569763,0.0013383040569788,-0.0013383040569763,0.0013383040569798,1.0443798596181e-15,-1.0666144744835e-15,-1.2884312275457e-15,1.3292535098648e-15,-0.0013617007782739,0.001361700778274,-0.0013868837461933,0.0013868837461929,-0.0013868837461924,0.0013868837461939,-0.0013868837461946,0.0013868837461926,-0.0013868837461928,0.0013868837461934,-0.0013383040569814,0.0013383040569774,-0.0013383040569797,0.0013383040569814,-0.0013383040569788,0.0013383040569797,-0.0013383040569799,0.0013383040569783,-2.3408108427767e-16,-8.8197305632854e-16,-0.0013617007782745,0.0013617007782735,6.0745203099272e-16,-1.8018861300862e-15,-0.0013868837461934,0.0013868837461932,-0.0013868837461937,0.0013868837461925,-0.0013868837461931,0.001386883746193,-0.0013868837461944,0.0013868837461927,-0.0013383040569804,0.0013383040569771,-0.0013383040569798,0.0013383040569794,0.71080934206826,0.40318419993588,1270536,32768,0.0056576872443625,0.005657687244363,0.0056576872443629,40.784539751006,40.788401559428,0.00024147631800804,0.00024147631800804,0.00024147631800804,871271.91686244,0.017118057002217
7516800,0.85790506434906,0.016429981532504,0.0054766605108345,0.005476660510835,0.0054766605108349,-0.0013747585869982,0.0013747585869983,-3.0693179991479e-16,1.903177153362e-16,-1.1489060781785e-15,1.0423505098486e-15,-0.0014007648643538,0.0014007648643526,-0.0014007648643533,0.0014007648643532,-0.0014007648643536,0.0014007648643535,-0.0014007648643526,0.0014007648643541,-0.0013506206544873,0.0013506206544898,-0.0013506206544874,0.0013506206544908,1.0311449698172e-15,-1.0403799818116e-15,-1.2099042147273e-15,1.2644319607068e-15,-0.0013747585869983,0.0013747585869984,-0.0014007648643538,0.0014007648643535,-0.001400764864353,0.0014007648643544,-0.0014007648643551,0.0014007648643532,-0.0014007648643533,0.0014007648643539,-0.0013506206544923,0.0013506206544885,-0.0013506206544908,0.0013506206544924,-0.0013506206544899,0.0013506206544907,-0.0013506206544909,0.0013506206544893,-2.1640515367698e-16,-8.6438535832652e-16,-0.0013747585869988,0.0013747585869979,5.5257135461853e-16,-1.7141241052734e-15,-0.0014007648643539,0.0014007648643538,-0.0014007648643542,0.0014007648643531,-0.0014007648643537,0.0014007648643536,-0.0014007648643549,0.0014007648643533,-0.0013506206544914,0.0013506206544882,-0.0013506206544908,0.0013506206544905,0.70466712896686,0.38129582520854,1270536,32768,0.0057117843667603,0.0057117843667608,0.0057117843667607,40.816142556518,40.818403599726,0.00024172914045214,0.00024172914045214,0.00024172914045214,881046.33502079,0.017283148836593
7603200,0.86678733358357,0.016583603762853,0.0055278679209506,0.0055278679209511,0.005527867920951,-0.0013869964301292,0.0013869964301292,-3.2001963538452e-16,1.8455318555628e-16,-1.1254950286642e-15,9.9741070625816e-16,-0.0014138161197045,0.0014138161197033,-0.001413816119704,0.0014138161197039,-0.0014138161197044,0.0014138161197042,-0.0014138161197033,0.0014138161197048,-0.0013621293540849,0.0013621293540873,-0.0013621293540849,0.0013621293540883,1.0087338897544e-15,-9.9455785223442e-16,-1.1400828183113e-15,1.216551070494e-15,-0.0013869964301292,0.0013869964301294,-0.0014138161197045,0.0014138161197042,-0.0014138161197038,0.0014138161197051,-0.0014138161197057,0.001413816119704,-0.001413816119704,0.0014138161197046,-0.0013621293540898,0.0013621293540861,-0.0013621293540883,0.0013621293540899,-0.0013621293540874,0.0013621293540882,-0.0013621293540884,0.0013621293540869,-1.9893509913986e-16,-8.5417978774676e-16,-0.0013869964301297,0.0013869964301289,5.075139075632e-16,-1.6415969091648e-15,-0.0014138161197047,0.0014138161197045,-0.0014138161197049,0.0014138161197038,-0.0014138161197044,0.0014138161197043,-0.0014138161197056,0.001413816119704,-0.0013621293540889,0.0013621293540858,-0.0013621293540883,0.0013621293540881,0.69915767607868,0.36716775327241,1270536,32768,0.005762481633495,0.0057624816334955,0.0057624816334955,40.846307502584,40.848405640024,0.00024197046002067,0.00024197046002067,0.00024197046002067,889961.28079689,0.017437890221302
7689600,0.87517646502515,0.016727781254105,0.0055759270847014,0.0055759270847018,0.0055759270847018,-0.0013984991591211,0.0013984991591211,-3.237842262612e-16,1.781122058532e-16,-1.1161423732049e-15,9.8185235802561e-16,-0.0014261022660507,0.0014261022660495,-0.0014261022660502,0.0014261022660501,-0.0014261022660506,0.0014261022660504,-0.0014261022660495,0.001426102266051,-0.0013729378731157,0.0013729378731181,-0.0013729378731157,0.0013729378731191,1.0005576689441e-15,-9.7761719328934e-16,-1.0784376427056e-15,1.1652585197991e-15,-0.0013984991591211,0.0013984991591213,-0.0014261022660507,0.0014261022660504,-0.00142610226605,0.0014261022660513,-0.0014261022660519,0.0014261022660502,-0.0014261022660502,0.0014261022660508,-0.0013729378731205,0.001372937873117,-0.0013729378731192,0.0013729378731206,-0.0013729378731183,0.001372937873119,-0.0013729378731192,0.0013729378731177,-1.8590608540258e-16,-8.3844497431686e-16,-0.0013984991591216,0.0013984991591208,4.6666221437792e-16,-1.5699520390429e-15,-0.0014261022660508,0.0014261022660506,-0.001426102266051,0.0014261022660501,-0.0014261022660506,0.0014261022660505,-0.0014261022660518,0.0014261022660502,-0.0013729378731197,0.0013729378731166,-0.0013729378731191,0.0013729378731189,0.69483418393973,0.3653920339003,1270536,32768,0.0058101311175102,0.0058101311175107,0.0058101311175106,40.876326232517,40.878407680322,0.00024221060986013,0.00024221060986013,0.00024221060986013,895877.67782295,0.017583350990767
7776000,0.88309296149524,0.016863045088915,0.0056210150296381,0.0056210150296386,0.0056210150296385,-0.0014093358584486,0.0014093358584486,-3.2507830437506e-16,1.7317118032755e-16,-1.1079661523946e-15,9.6549991640501e-16,-0.0014376756126737,0.0014376756126725,-0.0014376756126732,0.0014376756126731,-0.0014376756126736,0.0014376756126734,-0.0014376756126725,0.001437675612674,-0.0013831293053353,0.0013831293053377,-0.0013831293053353,0.0013831293053386,9.9291084372588e-16,-9.6114710820384e-16,-1.0482032722272e-15,1.1408475008331e-15,-0.0014093358584486,0.0014093358584488,-0.0014376756126737,0.0014376756126735,-0.001437675612673,0.0014376756126743,-0.0014376756126749,0.0014376756126732,-0.0014376756126733,0.0014376756126738,-0.00138312930534,0.0013831293053366,-0.0013831293053388,0.0013831293053402,-0.0013831293053379,0.0013831293053386,-0.0013831293053388,0.0013831293053373,-1.8261206838548e-16,-8.3185694028266e-16,-0.0014093358584491,0.0014093358584483,4.4516287116809e-16,-1.5367765819421e-15,-0.0014376756126739,0.0014376756126737,-0.001437675612674,0.0014376756126731,-0.0014376756126736,0.0014376756126735,-0.0014376756126748,0.0014376756126733,-0.0013831293053392,0.0013831293053362,-0.0013831293053386,0.0013831293053385,0.69085467233289,0.3636163145282,1270536,32768,0.0058550194495374,0.0058550194495379,0.0058550194495379,40.906329837199,40.908409720621,0.00024245063869759,0.00024245063869759,0.00024245063869759,897213.72874714,0.017720402199813
7862400,0.89055728989865,0.01698989414414,0.0056632980480464,0.0056632980480469,0.0056632980480468,-0.0014195018526143,0.0014195018526143,-3.296369886398e-16,1.6914189165484e-16,-1.0984958534704e-15,9.4805927273411e-16,-0.0014485505640394,0.0014485505640382,-0.0014485505640389,0.0014485505640388,-0.0014485505640393,0.0014485505640391,-0.0014485505640382,0.0014485505640397,-0.001392680271532,0.0013926802715344,-0.001392680271532,0.0013926802715353,9.8432287078844e-16,-9.425594407502e-16,-1.0097926809385e-15,1.1147894733586e-15,-0.0014195018526144,0.0014195018526145,-0.0014485505640394,0.0014485505640392,-0.0014485505640387,0.00144855056404,-0.0014485505640406,0.0014485505640389,-0.001448550564039,0.0014485505640395,-0.0013926802715367,0.0013926802715333,-0.0013926802715355,0.0013926802715369,-0.0013926802715346,0.0013926802715352,-0.0013926802715355,0.001392680271534,-1.7455349104008e-16,-8.2435716939551e-16,-0.0014195018526148,0.001419501852614,4.2051656527229e-16,-1.4975424863991e-15,-0.0014485505640396,0.0014485505640393,-0.0014485505640397,0.0014485505640388,-0.0014485505640393,0.0014485505640392,-0.0014485505640404,0.001448550564039,-0.0013926802715359,0.0013926802715329,-0.0013926802715353,0.0013926802715352,0.68713902317182,0.36184059515609,1270536,32768,0.0058971276290067,0.0058971276290071,0.0058971276290071,40.936331869869,40.938411760919,0.00024269065495895,0.00024269065495895,0.00024269065495895,897047.17089889,0.017848982401141
7948800,0.89758975097922,0.017108793941887,0.0057029313139622,0.0057029313139626,0.0057029313139626,-0.0014290333941263,0.0014290333941264,-3.3331334691781e-16,1.6708313101916e-16,-1.0927901454229e-15,9.3514790246173e-16,-0.0014587625847259,0.0014587625847247,-0.0014587625847254,0.0014587625847253,-0.0014587625847258,0.0014587625847256,-0.0014587625847247,0.0014587625847262,-0.0014016271098075,0.0014016271098098,-0.0014016271098075,0.0014016271098108,9.7779365848668e-16,-9.3026569866853e-16,-9.7608782824569e-16,1.0878491198973e-15,-0.0014290333941264,0.0014290333941265,-0.0014587625847258,0.0014587625847257,-0.0014587625847252,0.0014587625847265,-0.001458762584727,0.0014587625847254,-0.0014587625847254,0.001458762584726,-0.0014016271098122,0.0014016271098089,-0.001401627109811,0.0014016271098123,-0.0014016271098101,0.0014016271098107,-0.001401627109811,0.0014016271098095,-1.6570082030662e-16,-8.1741620496662e-16,-0.0014290333941269,0.0014290333941261,3.9837018300554e-16,-1.4593671820402e-15,-0.001458762584726,0.0014587625847258,-0.0014587625847262,0.0014587625847253,-0.0014587625847258,0.0014587625847257,-0.0014587625847269,0.0014587625847255,-0.0014016271098114,0.0014016271098085,-0.0014016271098108,0.0014016271098107,0.68363154424025,0.36006487578398,1270536,32768,0.0059366061754525,0.0059366061754529,0.0059366061754529,40.966333738924,40.968413801217,0.00024293066991139,0.00024293066991139,0.00024293066991139,895566.52052381,0.017969548001772
8035200,0.90421038399452,0.017220186247841,0.0057400620826134,0.0057400620826139,0.0057400620826138,-0.0014379652165429,0.0014379652165429,-3.3669559653358e-16,1.6246562502197e-16,-1.087025615643e-15,9.2332473423964e-16,-0.0014683459960689,0.0014683459960676,-0.0014683459960683,0.0014683459960683,-0.0014683459960688,0.0014683459960685,-0.0014683459960677,0.0014683459960691,-0.001410004266467,0.0014100042664693,-0.001410004266467,0.0014100042664703,9.7226441563655e-16,-9.1820724351664e-16,-9.4702989241627e-16,1.0650851094398e-15,-0.0014379652165429,0.0014379652165431,-0.0014683459960688,0.0014683459960686,-0.0014683459960681,0.0014683459960694,-0.00146834599607,0.0014683459960684,-0.0014683459960684,0.001468345996069,-0.0014100042664716,0.0014100042664684,-0.0014100042664705,0.0014100042664718,-0.0014100042664696,0.0014100042664702,-0.0014100042664705,0.001410004266469,-1.5984805792803e-16,-8.0997525581193e-16,-0.0014379652165434,0.0014379652165426,3.7934135255854e-16,-1.426662298799e-15,-0.001468345996069,0.0014683459960688,-0.0014683459960691,0.0014683459960683,-0.0014683459960688,0.0014683459960686,-0.0014683459960698,0.0014683459960684,-0.0014100042664708,0.001410004266468,-0.0014100042664703,0.0014100042664702,0.68029241567134,0.35828915641187,1270536,32768,0.0059735992694849,0.0059735992694853,0.0059735992694853,40.996335590938,40.998415841515,0.0002431706847275,0.0002431706847275,0.0002431706847275,892950.35177068,0.018082536473093
8121600,0.91044964535881,0.017324670539315,0.0057748901797714,0.0057748901797718,0.0057748901797718,-0.0014464092701494,0.0014464092701494,-3.409895830023e-16,1.5808340595458e-16,-1.0788493948327e-15,9.0541351670915e-16,-0.0014774125556182,0.0014774125556169,-0.0014774125556176,0.0014774125556176,-0.0014774125556181,0.0014774125556178,-0.001477412555617,0.0014774125556184,-0.0014179229809546,0.0014179229809568,-0.0014179229809546,0.0014179229809578,9.6479405561563e-16,-8.9914900220342e-16,-9.293833726818e-16,1.0570265320944e-15,-0.0014464092701494,0.0014464092701496,-0.0014774125556181,0.0014774125556179,-0.0014774125556174,0.0014774125556187,-0.0014774125556193,0.0014774125556177,-0.0014774125556177,0.0014774125556182,-0.0014179229809591,0.0014179229809559,-0.001417922980958,0.0014179229809593,-0.0014179229809571,0.0014179229809577,-0.001417922980958,0.0014179229809565,-1.5837751461682e-16,-8.0850471250072e-16,-0.0014464092701499,0.0014464092701491,3.6907696024633e-16,-1.4111333614327e-15,-0.0014774125556183,0.0014774125556181,-0.0014774125556184,0.0014774125556176,-0.0014774125556181,0.0014774125556179,-0.0014774125556191,0.0014774125556177,-0.0014179229809584,0.0014179229809555,-0.0014179229809578,0.0014179229809578,0.67709234352647,0.35651343703977,1270536,32768,0.0060085708579233,0.0060085708579238,0.0060085708579238,41.059585236626,41.063890215266,0.00024367668189301,0.00024367668189301,0.00024367668189301,889303.59301379,0.018189362413433
8208000,0.91633769572506,0.017422827675884,0.0058076092252944,0.0058076092252948,0.0058076092252948,-0.0014544290655198,0.0014544290655199,-3.3948962882487e-16,1.5787752989101e-16,-1.0786729296354e-15,9.0411943859529e-16,-0.0014860276574182,0.001486027657417,-0.0014860276574177,0.0014860276574176,-0.0014860276574181,0.0014860276574178,-0.0014860276574171,0.0014860276574185,-0.0014254446452995,0.0014254446453018,-0.0014254446452995,0.0014254446453028,9.6502934254542e-16,-8.9797256755446e-16,-9.0567821450517e-16,1.0369683213296e-15,-0.0014544290655199,0.0014544290655201,-0.0014860276574181,0.001486027657418,-0.0014860276574175,0.0014860276574187,-0.0014860276574193,0.0014860276574178,-0.0014860276574177,0.0014860276574183,-0.001425444645304,0.0014254446453009,-0.001425444645303,0.0014254446453042,-0.0014254446453021,0.0014254446453027,-0.0014254446453029,0.0014254446453015,-1.531129695627e-16,-8.016519806705e-16,-0.0014544290655203,0.0014544290655196,3.5225394476614e-16,-1.3846047600985e-15,-0.0014860276574183,0.0014860276574181,-0.0014860276574184,0.0014860276574176,-0.0014860276574181,0.0014860276574179,-0.0014860276574192,0.0014860276574178,-0.0014254446453033,0.0014254446453004,-0.0014254446453027,0.0014254446453027,0.6740092007708,0.35473771766766,1270536,32768,0.0060417841857256,0.0060417841857261,0.0060417841857261,41.165043575522,41.172251607191,0.00024452034860417,0.00024452034860417,0.00024452034860417,884803.49657114,0.018290828059757
8294400,0.92188995287014,0.017515058159075,0.0058383527196915,0.0058383527196919,0.0058383527196919,-0.0014619803885764,0.0014619803885764,-3.4046018741027e-16,1.5728931256653e-16,-1.0786729296354e-15,9.0464883418733e-16,-0.0014941465169193,0.001494146516918,-0.0014941465169187,0.0014941465169187,-0.0014941465169192,0.0014941465169189,-0.0014941465169181,0.0014941465169195,-0.0014325267761962,0.0014325267761985,-0.0014325267761962,0.0014325267761995,9.6526462947521e-16,-8.9797256755446e-16,-8.8079662167958e-16,1.0114985111795e-15,-0.0014619803885764,0.0014619803885766,-0.0014941465169192,0.001494146516919,-0.0014941465169186,0.0014941465169198,-0.0014941465169203,0.0014941465169188,-0.0014941465169188,0.0014941465169193,-0.0014325267762007,0.0014325267761976,-0.0014325267761997,0.0014325267762009,-0.0014325267761988,0.0014325267761994,-0.0014325267761997,0.0014325267761982,-1.4576025300668e-16,-7.9491689230518e-16,-0.0014619803885769,0.0014619803885761,3.3481330109524e-16,-1.3516057681951e-15,-0.0014941465169194,0.0014941465169192,-0.0014941465169195,0.0014941465169187,-0.0014941465169192,0.001494146516919,-0.0014941465169202,0.0014941465169189,-0.0014325267762,0.0014325267761972,-0.0014325267761994,0.0014325267761995,0.67156917188259,0.35907401629265,1270536,32768,0.0060730563313667,0.0060730563313671,0.0060730563313671,41.273125031013,41.280612999116,0.0002453850002481,0.0002453850002481,0.0002453850002481,879492.6475369,0.01838637289578
8380800,0.92712090493466,0.017601691520863,0.0058672305069542,0.0058672305069547,0.0058672305069546,-0.0014691153563887,0.0014691153563887,-3.4307775450422e-16,1.574951886301e-16,-1.0764965255348e-15,9.0067836724707e-16,-0.0015018048302806,0.0015018048302794,-0.0015018048302801,0.00150180483028,-0.0015018048302805,0.0015018048302802,-0.0015018048302794,0.0015018048302809,-0.0014392353490427,0.0014392353490449,-0.0014392353490427,0.0014392353490459,9.6326469057197e-16,-8.9379622455063e-16,-8.5656206791091e-16,9.9073443962529e-16,-0.0014691153563887,0.0014691153563889,-0.0015018048302805,0.0015018048302804,-0.0015018048302799,0.0015018048302811,-0.0015018048302817,0.0015018048302801,-0.0015018048302801,0.0015018048302807,-0.0014392353490471,0.0014392353490441,-0.0014392353490462,0.0014392353490473,-0.0014392353490452,0.0014392353490458,-0.0014392353490461,0.0014392353490446,-1.3764285392882e-16,-7.8941706032127e-16,-0.0014691153563892,0.0014691153563884,3.1966670498983e-16,-1.3219007933087e-15,-0.0015018048302807,0.0015018048302805,-0.0015018048302808,0.00150180483028,-0.0015018048302805,0.0015018048302803,-0.0015018048302815,0.0015018048302802,-0.0014392353490464,0.0014392353490436,-0.0014392353490458,0.0014392353490459,0.66950483147713,0.3649459305384,1270536,32768,0.0061026033306623,0.0061026033306627,0.0061026033306627,41.38145563842,41.388974391042,0.00024625164510736,0.00024625164510736,0.00024625164510736,871842.80446584,0.018476655267249
8467200,0.93204481612728,0.017683026824219,0.0058943422747394,0.0058943422747399,0.0058943422747398,-0.0014758384612822,0.0014758384612822,-3.4437183261808e-16,1.539658846832e-16,-1.0735554389124e-15,8.9129630092158e-16,-0.0015090160816943,0.0015090160816931,-0.0015090160816938,0.0015090160816937,-0.0015090160816943,0.001509016081694,-0.0015090160816932,0.0015090160816946,-0.0014455654949449,0.0014455654949472,-0.0014455654949449,0.0014455654949482,9.6014713875222e-16,-8.8514942988074e-16,-8.4320953464517e-16,9.8091121030644e-16,-0.0014758384612822,0.0014758384612824,-0.0015090160816942,0.0015090160816941,-0.0015090160816936,0.0015090160816949,-0.0015090160816954,0.0015090160816939,-0.0015090160816939,0.0015090160816944,-0.0014455654949494,0.0014455654949464,-0.0014455654949485,0.0014455654949496,-0.0014455654949475,0.0014455654949481,-0.0014455654949484,0.0014455654949469,-1.3546644982824e-16,-7.8494660865521e-16,-0.0014758384612827,0.0014758384612819,3.1128460811596e-16,-1.3071953601967e-15,-0.0015090160816945,0.0015090160816942,-0.0015090160816945,0.0015090160816938,-0.0015090160816943,0.0015090160816941,-0.0015090160816952,0.001509016081694,-0.0014455654949487,0.0014455654949459,-0.0014455654949481,0.0014455654949482,0.66767886862069,0.37081784478414,1270536,32768,0.0061304439329728,0.0061304439329733,0.0061304439329733,41.489811614172,41.497335782967,0.00024711849291338,0.00024711849291338,0.00024711849291338,863030.63311156,0.018561731068065
8553600,0.93667573779008,0.017759346600963,0.0059197822003208,0.0059197822003212,0.0059197822003212,-0.0014821646828932,0.0014821646828932,-3.426954132433e-16,1.4852487443174e-16,-1.0703202436277e-15,8.8403181696423e-16,-0.0015157993872329,0.0015157993872317,-0.0015157993872324,0.0015157993872323,-0.0015157993872328,0.0015157993872325,-0.0015157993872318,0.0015157993872332,-0.0014515277417505,0.0014515277417528,-0.0014515277417505,0.0014515277417538,9.5655901307288e-16,-8.7773789159227e-16,-8.2032788072281e-16,9.6220589938791e-16,-0.0014821646828932,0.0014821646828934,-0.0015157993872328,0.0015157993872327,-0.0015157993872322,0.0015157993872334,-0.0015157993872339,0.0015157993872325,-0.0015157993872325,0.001515799387233,-0.0014515277417549,0.0014515277417519,-0.001451527741754,0.0014515277417551,-0.0014515277417531,0.0014515277417536,-0.0014515277417539,0.0014515277417524,-1.3293711533297e-16,-7.754174879986e-16,-0.0014821646828936,0.0014821646828929,2.9652035327145e-16,-1.2802550067354e-15,-0.001515799387233,0.0015157993872328,-0.0015157993872331,0.0015157993872324,-0.0015157993872328,0.0015157993872326,-0.0015157993872338,0.0015157993872325,-0.0014515277417542,0.0014515277417515,-0.0014515277417537,0.0014515277417538,0.66605600672364,0.37668975902989,1270536,32768,0.0061566403111484,0.0061566403111489,0.0061566403111489,41.598170217623,41.605697174892,0.00024798536174098,0.00024798536174098,0.00024798536174098,853588.6885346,0.018641788982838
8640000,0.9410274679175,0.017830919680915,0.005943639893638,0.0059436398936384,0.0059436398936384,-0.0014881147632477,0.0014881147632477,-3.4631294978887e-16,1.4555437694311e-16,-1.0654380398345e-15,8.7403212244803e-16,-0.0015221766134529,0.0015221766134517,-0.0015221766134524,0.0015221766134523,-0.0015221766134528,0.0015221766134525,-0.0015221766134518,0.0015221766134532,-0.0014571412678535,0.0014571412678557,-0.0014571412678535,0.0014571412678567,9.5220620487171e-16,-8.669146928218e-16,-8.1044582967151e-16,9.5667665653777e-16,-0.0014881147632477,0.0014881147632479,-0.0015221766134528,0.0015221766134527,-0.0015221766134522,0.0015221766134534,-0.0015221766134539,0.0015221766134525,-0.0015221766134525,0.001522176613453,-0.0014571412678579,0.0014571412678549,-0.001457141267857,0.0014571412678581,-0.0014571412678561,0.0014571412678566,-0.0014571412678569,0.0014571412678554,-1.3193714588135e-16,-7.7497632500524e-16,-0.0014881147632482,0.0014881147632474,2.9025583876572e-16,-1.2709611730086e-15,-0.001522176613453,0.0015221766134528,-0.0015221766134531,0.0015221766134524,-0.0015221766134528,0.0015221766134526,-0.0015221766134538,0.0015221766134525,-0.0014571412678572,0.0014571412678545,-0.0014571412678566,0.0014571412678567,0.6646105439505,0.38256167327564,1270536,32768,0.0061812784872913,0.0061812784872918,0.0061812784872918,41.706529094408,41.714058566817,0.00024885223275527,0.00024885223275527,0.00024885223275527,843680.53488576,0.018717090718262
8726400,0.94511351103679,0.017898002757096,0.0059660009190319,0.0059660009190323,0.0059660009190323,-0.0014937086862295,0.0014937086862294,-3.4816583436099e-16,1.4623082686626e-16,-1.0641439617207e-15,8.7159102055143e-16,-0.0015281689183936,0.0015281689183923,-0.001528168918393,0.001528168918393,-0.0015281689183935,0.0015281689183932,-0.0015281689183924,0.0015281689183938,-0.0014624245163189,0.0014624245163211,-0.0014624245163189,0.0014624245163221,9.5161798754723e-16,-8.6367949753715e-16,-7.8832885827098e-16,9.3738312829476e-16,-0.0014937086862295,0.0014937086862297,-0.0015281689183934,0.0015281689183934,-0.0015281689183929,0.0015281689183941,-0.0015281689183946,0.0015281689183932,-0.0015281689183931,0.0015281689183936,-0.0014624245163233,0.0014624245163204,-0.0014624245163225,0.0014624245163235,-0.0014624245163215,0.001462424516322,-0.0014624245163223,0.0014624245163208,-1.2452560759287e-16,-7.7038822987428e-16,-0.0014937086862299,0.0014937086862292,2.7543276218877e-16,-1.2447855020691e-15,-0.0015281689183937,0.0015281689183935,-0.0015281689183937,0.001528168918393,-0.0015281689183935,0.0015281689183933,-0.0015281689183944,0.0015281689183932,-0.0014624245163226,0.0014624245163199,-0.0014624245163221,0.0014624245163222,0.66332294731143,0.38843358752138,1270536,32768,0.0062044413270626,0.0062044413270631,0.006204441327063,41.814887999489,41.822419958742,0.00024971910399591,0.00024971910399591,0.00024971910399591,833443.94643058,0.01878788848567
8769600,0.94709149652017,0.017930422828251,0.0059768076094166,0.0059768076094171,0.005976807609417,-0.0014964347702835,0.0014964347702834,-3.7607674640766e-16,1.1920224080631e-16,-1.0928489671554e-15,8.4679766032451e-16,-0.001531076517616,0.0015310765176147,-0.0015310765176155,0.0015310765176153,-0.0015310765176159,0.0015310765176156,-0.0015310765176149,0.0015310765176162,-0.0014650108801546,0.0014650108801567,-0.0014650108801546,0.0014650108801577,9.4491231004813e-16,-8.7438505284272e-16,-7.8503484125388e-16,9.2597171219981e-16,-0.0014964347702835,0.0014964347702836,-0.0015310765176158,0.0015310765176157,-0.0015310765176152,0.0015310765176164,-0.001531076517617,0.0015310765176155,-0.0015310765176155,0.001531076517616,-0.001465010880159,0.001465010880156,-0.0014650108801581,0.0014650108801591,-0.0014650108801572,0.0014650108801576,-0.001465010880158,0.0014650108801565,-1.3578996935671e-16,-7.8221139809637e-16,-0.0014964347702839,0.0014964347702832,2.5616864481198e-16,-1.249491240665e-15,-0.0015310765176161,0.0015310765176158,-0.0015310765176161,0.0015310765176154,-0.0015310765176159,0.0015310765176156,-0.0015310765176168,0.0015310765176155,-0.0014650108801583,0.0014650108801555,-0.0014650108801578,0.0014650108801578,0.66213200801574,0.38353081048534,1270536,32768,0.0062157290778176,0.0062157290778181,0.006215729077818,41.869067453282,41.876600654705,0.00025015253962626,0.00025015253962626,0.00025015253962626,827825.17279743,0.018822391536301
8856000,0.9508015362161,0.017990066981131,0.0059966889937101,0.0059966889937105,0.0059966889937105,-0.0015013747164157,0.0015013747164157,-3.4807760176231e-16,1.4940720041847e-16,-1.0697320263032e-15,8.799731174253e-16,-0.001536437019523,0.0015364370195218,-0.0015364370195225,0.0015364370195224,-0.0015364370195229,0.0015364370195227,-0.0015364370195219,0.0015364370195233,-0.0014695988091094,0.0014695988091116,-0.0014695988091094,0.0014695988091126,9.5591197401595e-16,-8.7379683551824e-16,-7.6268258292356e-16,9.0697229261903e-16,-0.0015013747164157,0.0015013747164159,-0.0015364370195229,0.0015364370195228,-0.0015364370195223,0.0015364370195235,-0.001536437019524,0.0015364370195226,-0.0015364370195226,0.0015364370195231,-0.0014695988091137,0.0014695988091108,-0.0014695988091129,0.0014695988091139,-0.001469598809112,0.0014695988091125,-0.0014695988091128,0.0014695988091113,-1.1420239354821e-16,-7.6321197851559e-16,-0.0015013747164162,0.0015013747164155,2.5713920339737e-16,-1.2074337019645e-15,-0.0015364370195231,0.0015364370195229,-0.0015364370195232,0.0015364370195225,-0.0015364370195229,0.0015364370195227,-0.0015364370195239,0.0015364370195227,-0.0014695988091131,0.0014695988091104,-0.0014695988091125,0.0014695988091126,0.64944262887137,0.26250938396565,1270536,32768,0.0062361830318641,0.0062361830318646,0.0062361830318645,41.977426361287,41.98496204663,0.00025101941089029,0.00025101941089029,0.00025101941089029,821581.57210907,0.018884916918855
8942400,0.95423994310551,0.018045198358126,0.0060150661193751,0.0060150661193755,0.0060150661193755,-0.0015048955236598,0.0015048955236595,-4.8736746419969e-16,2.026408682841e-17,-1.1976104726457e-15,7.5332992746429e-16,-0.0015406634180203,0.0015406634180185,-0.0015406634180199,0.0015406634180192,-0.0015406634180199,0.0015406634180196,-0.0015406634180187,0.0015406634180203,-0.0014725268223052,0.0014725268223068,-0.001472526822305,0.0014725268223083,5.6357101858635e-16,-1.2681965515835e-15,-1.1585528423e-15,4.8727923160102e-16,-0.00150489552366,0.0015048955236594,-0.0015406634180204,0.0015406634180192,-0.0015406634180197,0.0015406634180204,-0.0015406634180213,0.0015406634180195,-0.0015406634180195,0.0015406634180198,-0.0014725268223107,0.001472526822307,-0.00147252682231,0.0014725268223103,-0.001472526822307,0.0014725268223067,-0.0014725268223087,0.0014725268223059,5.7601181499915e-16,-8.1556332039451e-17,-0.0015048955236593,0.00150489552366,9.1353091578701e-16,-5.2692507927111e-16,-0.0015406634180186,0.0015406634180205,-0.0015406634180194,0.0015406634180203,-0.0015406634180193,0.0015406634180206,-0.00154066341802,0.0015406634180203,-0.0014725268223074,0.0014725268223064,-0.0014725268223075,0.0014725268223081,0.64759306136734,0.29665586332019,1270536,32768,0.0062507602354041,0.0062507602354044,0.0062507602354043,41.868161255113,41.861100451288,0.0002501452900409,0.0002501452900409,0.0002501452900409,844201.43301638,0.018929481893562
9028800,0.95742377662593,0.018096106024353,0.0060320353414508,0.0060320353414513,0.0060320353414512,-0.0015088273932434,0.0015088273932434,-3.4563649986571e-16,1.598186470618e-16,-1.0537325150773e-15,8.9653143510947e-16,-0.0015448945038122,0.0015448945038111,-0.0015448945038117,0.0015448945038117,-0.0015448945038122,0.0015448945038119,-0.0015448945038111,0.0015448945038125,-0.0014762394677226,0.0014762394677247,-0.0014762394677225,0.0014762394677257,1.0520855065688e-15,-7.7674097697868e-16,-6.4886253063626e-16,9.7955831046013e-16,-0.0015088273932434,0.0015088273932438,-0.001544894503812,0.0015448945038121,-0.0015448945038114,0.0015448945038127,-0.001544894503813,0.0015448945038118,-0.0015448945038116,0.0015448945038123,-0.0014762394677264,0.0014762394677239,-0.0014762394677258,0.0014762394677269,-0.0014762394677251,0.0014762394677258,-0.0014762394677257,0.0014762394677245,-8.2468068892398e-17,-7.3891860301448e-16,-0.0015088273932439,0.0015088273932432,2.6231551585282e-16,-1.1603174942735e-15,-0.0015448945038122,0.0015448945038121,-0.0015448945038124,0.0015448945038117,-0.0015448945038121,0.0015448945038119,-0.001544894503813,0.0015448945038118,-0.0014762394677263,0.0014762394677236,-0.0014762394677255,0.0014762394677258,0.64596673499019,0.31642848063864,1270536,32768,0.0062670397680208,0.0062670397680212,0.0062670397680212,41.739953058746,41.731118816675,0.00024911962446997,0.00024911962446997,0.00024911962446997,831679.77480133,0.018979251536497
9115200,0.9603721730377,0.018143035793588,0.0060476785978624,0.0060476785978629,0.0060476785978628,-0.0015123922693985,0.0015123922693987,-2.9113816475244e-16,2.116700042149e-16,-1.0127925892934e-15,9.4347117760315e-16,-0.0015487537591864,0.0015487537591853,-0.0015487537591859,0.001548753759186,-0.0015487537591863,0.0015487537591862,-0.0015487537591852,0.0015487537591868,-0.0014795827272678,0.0014795827272703,-0.0014795827272678,0.0014795827272712,9.2426588195881e-16,-9.1008984443879e-16,-7.6732949978697e-16,8.5103282506078e-16,-0.0015123922693986,0.0015123922693988,-0.0015487537591863,0.0015487537591862,-0.0015487537591857,0.0015487537591868,-0.0015487537591874,0.0015487537591859,-0.001548753759186,0.0015487537591864,-0.0014795827272724,0.0014795827272695,-0.0014795827272718,0.0014795827272726,-0.0014795827272707,0.0014795827272711,-0.0014795827272715,0.0014795827272699,-1.0705555305575e-16,-7.6197672213418e-16,-0.001512392269399,0.0015123922693983,2.2878712835733e-16,-1.1860225913534e-15,-0.0015487537591865,0.0015487537591863,-0.0015487537591865,0.001548753759186,-0.0015487537591864,0.001548753759186,-0.0015487537591873,0.001548753759186,-0.0014795827272716,0.0014795827272691,-0.0014795827272711,0.0014795827272712,0.64293763541764,0.3119911393296,1270536,32768,0.0062817994828224,0.0062817994828228,0.0062817994828228,41.610146571643,41.601137182062,0.00024808117257315,0.00024808117257315,0.00024808117257315,821247.47487006,0.019024377228932
9201600,0.96310307788195,0.018186303124748,0.0060621010415823,0.0060621010415827,0.0060621010415827,-0.0015155452755928,0.0015155452755928,-3.1669620750119e-16,1.8746486131246e-16,-1.0434387118989e-15,9.1079570522817e-16,-0.0015522354619576,0.0015522354619563,-0.001552235461957,0.001552235461957,-0.0015522354619574,0.0015522354619572,-0.0015522354619564,0.0015522354619578,-0.0014824802395302,0.0014824802395325,-0.0014824802395303,0.0014824802395336,9.5238267006905e-16,-8.8256127365302e-16,-7.4862418886844e-16,8.5985608492801e-16,-0.0015155452755928,0.001515545275593,-0.0015522354619574,0.0015522354619575,-0.0015522354619569,0.0015522354619581,-0.0015522354619586,0.0015522354619572,-0.0015522354619572,0.0015522354619576,-0.0014824802395344,0.0014824802395315,-0.0014824802395337,0.0014824802395345,-0.0014824802395326,0.001482480239533,-0.0014824802395335,0.0014824802395319,-9.7820541061382e-17,-7.5191820588554e-16,-0.0015155452755933,0.0015155452755926,2.3402226254522e-16,-1.1709642278466e-15,-0.0015522354619577,0.0015522354619574,-0.0015522354619577,0.0015522354619572,-0.0015522354619575,0.0015522354619574,-0.0015522354619584,0.0015522354619573,-0.0014824802395337,0.0014824802395311,-0.0014824802395331,0.0014824802395333,0.63988389022712,0.30755379802056,1270536,32768,0.0062948536273995,0.0062948536274,0.0062948536274,41.480179832944,41.47115554745,0.00024704143866355,0.00024704143866355,0.00024704143866355,816046.89858802,0.019064290464431
9288000,0.96563310097269,0.018226198586103,0.0060753995287008,0.0060753995287012,0.0060753995287012,-0.0015184267489271,0.0015184267489271,-3.0178489832557e-16,2.0384671379929e-16,-1.0277921310677e-15,9.3026569866853e-16,-0.0015554266824752,0.0015554266824741,-0.0015554266824747,0.0015554266824747,-0.0015554266824751,0.0015554266824749,-0.0015554266824741,0.0015554266824756,-0.0014851222831198,0.001485122283122,-0.0014851222831198,0.0014851222831231,9.8197000149051e-16,-8.5626795924867e-16,-7.0139033771252e-16,8.9967839779545e-16,-0.0015184267489271,0.0015184267489273,-0.0015554266824751,0.0015554266824751,-0.0015554266824747,0.0015554266824759,-0.0015554266824764,0.001555426682475,-0.0015554266824749,0.0015554266824754,-0.0014851222831242,0.0014851222831215,-0.0014851222831235,0.0014851222831244,-0.0014851222831222,0.0014851222831229,-0.0014851222831232,0.0014851222831215,-1.021145275301e-16,-7.598003180336e-16,-0.0015184267489275,0.0015184267489269,2.332575800234e-16,-1.1639056199528e-15,-0.0015554266824754,0.0015554266824753,-0.0015554266824755,0.0015554266824749,-0.0015554266824753,0.0015554266824751,-0.0015554266824762,0.0015554266824751,-0.0014851222831233,0.0014851222831208,-0.0014851222831228,0.001485122283123,0.63682137013506,0.30311645671151,1270536,32768,0.0063067833922208,0.0063067833922212,0.0063067833922212,41.350196546671,41.341173912837,0.00024600157237337,0.00024600157237337,0.00024600157237337,811138.53378473,0.019100767391988
9374400,0.96797758889603,0.018262992793256,0.0060876642644182,0.0060876642644187,0.0060876642644186,-0.0015210591194421,0.0015210591194421,-3.3813672897857e-16,1.6955364378198e-16,-1.0543207324018e-15,8.9588439605254e-16,-0.0015583507252917,0.0015583507252905,-0.0015583507252912,0.0015583507252911,-0.0015583507252916,0.0015583507252913,-0.0015583507252906,0.0015583507252919,-0.0014875304674194,0.0014875304674216,-0.0014875304674194,0.0014875304674226,9.459711012322e-16,-8.8538471681054e-16,-7.2997769968235e-16,8.5915022413863e-16,-0.0015210591194421,0.0015210591194423,-0.0015583507252916,0.0015583507252916,-0.0015583507252911,0.0015583507252922,-0.0015583507252927,0.0015583507252914,-0.0015583507252914,0.0015583507252918,-0.0014875304674239,0.001487530467421,-0.0014875304674232,0.001487530467424,-0.001487530467422,0.0014875304674224,-0.0014875304674228,0.0014875304674212,-8.5762085909498e-17,-7.4324200034942e-16,-0.0015210591194425,0.0015210591194419,2.4222789422175e-16,-1.142670974539e-15,-0.0015583507252918,0.0015583507252916,-0.0015583507252919,0.0015583507252912,-0.0015583507252917,0.0015583507252915,-0.0015583507252925,0.0015583507252915,-0.001487530467423,0.0014875304674204,-0.0014875304674224,0.0014875304674227,0.63375712697267,0.29867911540247,1270536,32768,0.0063176816837154,0.0063176816837159,0.0063176816837158,41.22021153962,41.211192278224,0.00024496169231696,0.00024496169231696,0.00024496169231696,806498.40473682,0.019134091710787
9460800,0.97015071172214,0.018296934772192,0.0060989782573972,0.0060989782573976,0.0060989782573976,-0.0015234627231081,0.0015234627231081,-3.7054750355753e-16,1.3549586069446e-16,-1.093848936607e-15,8.569149983056e-16,-0.0015610289348192,0.0015610289348179,-0.0015610289348187,0.0015610289348185,-0.0015610289348191,0.0015610289348188,-0.0015610289348181,0.0015610289348194,-0.0014897241422427,0.0014897241422449,-0.0014897241422427,0.0014897241422459,9.7726426289465e-16,-8.5162104238526e-16,-6.9833160762521e-16,8.8279656058282e-16,-0.0015234627231081,0.0015234627231083,-0.0015610289348191,0.001561028934819,-0.0015610289348185,0.0015610289348197,-0.0015610289348202,0.0015610289348189,-0.0015610289348188,0.0015610289348193,-0.0014897241422468,0.0014897241422441,-0.0014897241422461,0.0014897241422471,-0.0014897241422455,0.0014897241422459,-0.0014897241422462,0.0014897241422447,-8.7379683551824e-17,-7.4512429578777e-16,-0.0015234627231086,0.0015234627231079,2.3072824552812e-16,-1.1463179219508e-15,-0.0015610289348193,0.0015610289348192,-0.0015610289348194,0.0015610289348188,-0.0015610289348192,0.001561028934819,-0.0015610289348201,0.0015610289348189,-0.0014897241422464,0.0014897241422439,-0.0014897241422459,0.0014897241422462,0.63069406085721,0.29424177409343,1270536,32768,0.0063276327309805,0.0063276327309809,0.006327632730981,41.090226353676,41.081210643612,0.0002439218108294,0.0002439218108294,0.0002439218108294,802114.99623636,0.019164520656066
9547200,0.97216554798275,0.018328253470037,0.0061094178233452,0.0061094178233457,0.0061094178233456,-0.0015256561059517,0.0015256561059517,-3.6051839817511e-16,1.4428970969547e-16,-1.0777317819162e-15,8.8041428041866e-16,-0.0015634808477135,0.0015634808477123,-0.001563480847713,0.0015634808477129,-0.0015634808477134,0.0015634808477131,-0.0015634808477124,0.0015634808477137,-0.0014917209655212,0.0014917209655234,-0.0014917209655212,0.0014917209655244,9.6485287734808e-16,-8.7267922260172e-16,-7.0174326810721e-16,8.6797348400587e-16,-0.0015256561059517,0.0015256561059519,-0.0015634808477134,0.0015634808477134,-0.0015634808477129,0.0015634808477141,-0.0015634808477146,0.0015634808477132,-0.0015634808477132,0.0015634808477136,-0.0014917209655254,0.0014917209655228,-0.0014917209655249,0.0014917209655258,-0.0014917209655239,0.0014917209655244,-0.0014917209655248,0.0014917209655232,-8.2762177554639e-17,-7.398009290012e-16,-0.0015256561059521,0.0015256561059515,2.3131646285261e-16,-1.1332594973473e-15,-0.0015634808477137,0.0015634808477135,-0.0015634808477137,0.0015634808477131,-0.0015634808477135,0.0015634808477133,-0.0015634808477144,0.0015634808477133,-0.0014917209655249,0.0014917209655224,-0.0014917209655245,0.0014917209655246,0.62763309972617,0.28980443278439,1270536,32768,0.0063367133460935,0.006336713346094,0.0063367133460939,40.960241149439,40.951229008999,0.00024288192919551,0.00024288192919551,0.00024288192919551,797983.1299734,0.019192288841185
9633600,0.97403416493536,0.018357159259915,0.0061190530866382,0.0061190530866386,0.0061190530866386,-0.0015276562382012,0.0015276562382012,-3.3934257449375e-16,1.662890376311e-16,-1.06484982251e-15,8.9461972880491e-16,-0.0015657244194102,0.0015657244194091,-0.0015657244194097,0.0015657244194097,-0.0015657244194102,0.0015657244194099,-0.0015657244194091,0.0015657244194105,-0.0014935370122323,0.0014935370122344,-0.0014935370122323,0.0014935370122355,9.5673547827022e-16,-8.8214952152589e-16,-7.0939009332548e-16,8.4726823418409e-16,-0.0015276562382012,0.0015276562382014,-0.0015657244194101,0.00156572441941,-0.0015657244194095,0.0015657244194107,-0.0015657244194112,0.0015657244194098,-0.0015657244194098,0.0015657244194102,-0.0014935370122367,0.0014935370122339,-0.001493537012236,0.0014935370122369,-0.0014935370122351,0.0014935370122355,-0.0014935370122359,0.0014935370122343,-7.167428098815e-17,-7.2962476928766e-16,-0.0015276562382016,0.001527656238201,2.3672806223784e-16,-1.1161423732049e-15,-0.0015657244194103,0.0015657244194102,-0.0015657244194103,0.0015657244194098,-0.0015657244194101,0.00156572441941,-0.001565724419411,0.0015657244194099,-0.001493537012236,0.0014935370122334,-0.0014935370122355,0.0014935370122357,0.62457424106842,0.28536709147535,1270536,32768,0.0063449938117994,0.0063449938117999,0.0063449938117998,40.830255943649,40.821247374386,0.00024184204754919,0.00024184204754919,0.00024184204754919,794098.59258976,0.019217610962213
9720000,0.97575322294851,0.018383645306017,0.0061278817686721,0.0061278817686725,0.0061278817686725,-0.0015291470913755,0.0015291470913755,-3.3766615511898e-16,1.6699489842048e-16,-1.0585558971381e-15,9.0032543685238e-16,-0.0015674470378126,0.0015674470378114,-0.0015674470378121,0.001567447037812,-0.0015674470378124,0.0015674470378122,-0.0015674470378115,0.0015674470378129,-0.0014948544480763,0.0014948544480784,-0.0014948544480762,0.0014948544480795,9.7955831046013e-16,-8.5832671988436e-16,-6.8527318302171e-16,8.6438535832652e-16,-0.0015291470913755,0.0015291470913758,-0.0015674470378125,0.0015674470378126,-0.001567447037812,0.0015674470378132,-0.0015674470378137,0.0015674470378123,-0.0015674470378123,0.0015674470378127,-0.0014948544480805,0.0014948544480777,-0.0014948544480798,0.0014948544480807,-0.001494854448079,0.0014948544480794,-0.0014948544480797,0.0014948544480782,-8.4967992521447e-17,-7.4138911577731e-16,-0.001529147091376,0.0015291470913753,2.2246379211915e-16,-1.1216127943226e-15,-0.0015674470378128,0.0015674470378126,-0.0015674470378128,0.0015674470378122,-0.0015674470378127,0.0015674470378124,-0.0015674470378135,0.0015674470378124,-0.00149485444808,0.0014948544480774,-0.0014948544480794,0.0014948544480796,0.62198908286004,0.28614280713496,1270536,32768,0.0063511656921498,0.0063511656921503,0.0063511656921503,40.537190572005,40.517295872882,0.00023949752457604,0.00023949752457604,0.00023949752457604,790627.09533557,0.019236486058051
9806400,0.9773352050738,0.018408034540871,0.0061360115136234,0.0061360115136238,0.0061360115136238,-0.0015304827933388,0.0015304827933387,-4.0225241734712e-16,1.0176159713541e-16,-1.1173776295863e-15,8.3929788943736e-16,-0.0015689765443392,0.0015689765443379,-0.0015689765443387,0.0015689765443385,-0.0015689765443391,0.0015689765443387,-0.0015689765443381,0.0015689765443393,-0.001496050460557,0.001496050460559,-0.0014960504605568,0.0014960504605601,9.1167803121489e-16,-9.2226594305557e-16,-7.4915358446047e-16,7.9856383971697e-16,-0.0015304827933388,0.0015304827933389,-0.0015689765443389,0.0015689765443389,-0.0015689765443385,0.0015689765443396,-0.0015689765443401,0.0015689765443387,-0.0015689765443388,0.0015689765443391,-0.0014960504605614,0.0014960504605585,-0.0014960504605607,0.0014960504605614,-0.0014960504605599,0.0014960504605602,-0.0014960504605606,0.0014960504605591,-1.3376061958724e-16,-7.8862296693322e-16,-0.0015304827933392,0.0015304827933385,1.8131799027162e-16,-1.1634938678257e-15,-0.0015689765443393,0.0015689765443389,-0.0015689765443393,0.0015689765443386,-0.001568976544339,0.0015689765443388,-0.0015689765443399,0.0015689765443387,-0.0014960504605607,0.0014960504605581,-0.0014960504605602,0.0014960504605604,0.6223362646631,0.31773969236908,1270536,32768,0.0063566952685611,0.0063566952685617,0.0063566952685616,40.233593939626,40.212638184802,0.00023706875151701,0.00023706875151701,0.00023706875151701,785847.43310668,0.019253397052604
9892800,0.97879228660565,0.018430491863395,0.0061434972877982,0.0061434972877987,0.0061434972877986,-0.0015318487540209,0.0015318487540209,-3.6848874292184e-16,1.3193714588135e-16,-1.0944371539315e-15,8.6859111219657e-16,-0.0015704305624736,0.0015704305624723,-0.001570430562473,0.001570430562473,-0.0015704305624735,0.0015704305624732,-0.0015704305624724,0.0015704305624738,-0.0014973678164784,0.0014973678164806,-0.0014973678164784,0.0014973678164816,9.6220589938791e-16,-8.8320831270995e-16,-7.0297852448862e-16,8.387390829791e-16,-0.0015318487540209,0.0015318487540211,-0.0015704305624736,0.0015704305624735,-0.0015704305624731,0.0015704305624742,-0.0015704305624747,0.0015704305624733,-0.0015704305624733,0.0015704305624737,-0.0014973678164825,0.0014973678164797,-0.0014973678164817,0.0014973678164826,-0.001497367816481,0.0014973678164815,-0.0014973678164818,0.0014973678164802,-7.1174296262341e-17,-7.250366741567e-16,-0.0015318487540213,0.0015318487540207,2.4019854445229e-16,-1.097260597089e-15,-0.0015704305624738,0.0015704305624736,-0.0015704305624738,0.0015704305624732,-0.0015704305624736,0.0015704305624735,-0.0015704305624745,0.0015704305624734,-0.0014973678164821,0.0014973678164795,-0.0014973678164815,0.0014973678164817,0.62211890024736,0.33255584948293,1270536,32768,0.0063623502129661,0.0063623502129665,0.0063623502129664,39.929026163597,39.907980496722,0.00023463220930877,0.00023463220930877,0.00023463220930877,774096.02955909,0.019270691324155
9979200,0.98013554052087,0.018451201170648,0.0061504003902158,0.0061504003902163,0.0061504003902162,-0.0015329966497958,0.0015329966497957,-3.9810548520952e-16,1.0299685351683e-16,-1.1277302544972e-15,8.455624039431e-16,-0.0015716874157348,0.0015716874157334,-0.0015716874157342,0.001571687415734,-0.0015716874157346,0.0015716874157342,-0.0015716874157336,0.0015716874157349,-0.0014984438047027,0.0014984438047048,-0.0014984438047028,0.0014984438047059,9.4850043572747e-16,-9.0620761009721e-16,-7.1715456200864e-16,8.1509274653492e-16,-0.0015329966497958,0.0015329966497959,-0.0015716874157345,0.0015716874157344,-0.0015716874157341,0.0015716874157351,-0.0015716874157357,0.0015716874157342,-0.0015716874157342,0.0015716874157347,-0.0014984438047068,0.0014984438047039,-0.0014984438047061,0.0014984438047069,-0.0014984438047052,0.0014984438047056,-0.0014984438047061,0.0014984438047044,-1.6478908345368e-16,-8.1721032890306e-16,-0.0015329966497962,0.0015329966497954,1.3899575377513e-16,-1.1880813519891e-15,-0.0015716874157348,0.0015716874157345,-0.0015716874157348,0.0015716874157342,-0.0015716874157347,0.0015716874157343,-0.0015716874157356,0.0015716874157344,-0.0014984438047063,0.0014984438047036,-0.0014984438047058,0.0014984438047059,0.62221175306014,0.34737200659678,1270536,32768,0.0063671022855194,0.0063671022855198,0.0063671022855198,39.624360170434,39.603322808642,0.00023219488136347,0.00023219488136347,0.00023219488136347,765433.27067307,0.019285224889288
10065600,0.98137498003605,0.018470323565548,0.006156774521849,0.0061567745218494,0.0061567745218494,-0.0015340220676919,0.0015340220676918,-3.9216449023225e-16,1.0993781794571e-16,-1.1183187773055e-15,8.5332687262626e-16,-0.0015728059390983,0.0015728059390971,-0.0015728059390978,0.0015728059390977,-0.0015728059390982,0.0015728059390979,-0.0015728059390972,0.0015728059390985,-0.0014994086978259,0.0014994086978281,-0.001499408697826,0.0014994086978291,9.9432256530463e-16,-8.5797378948967e-16,-6.6797959368193e-16,8.5556209845929e-16,-0.0015340220676919,0.0015340220676921,-0.0015728059390981,0.0015728059390982,-0.0015728059390978,0.0015728059390989,-0.0015728059390994,0.0015728059390981,-0.001572805939098,0.0015728059390985,-0.0014994086978303,0.0014994086978276,-0.0014994086978298,0.0014994086978305,-0.0014994086978286,0.0014994086978291,-0.0014994086978296,0.001499408697828,-6.9615520352463e-17,-7.2150737020981e-16,-0.0015340220676923,0.0015340220676917,2.297282760765e-16,-1.0894961284058e-15,-0.0015728059390984,0.0015728059390983,-0.0015728059390985,0.001572805939098,-0.0015728059390983,0.0015728059390981,-0.0015728059390992,0.0015728059390981,-0.0014994086978297,0.0014994086978272,-0.0014994086978291,0.0014994086978294,0.62258175939911,0.36218816371063,1270536,32768,0.006371347295487,0.0063713472954874,0.0063713472954874,39.319684053993,39.298665120562,0.00022975747243195,0.00022975747243195,0.00022975747243195,756796.42442319,0.019298207894799
10152000,0.98251966073237,0.018488003662466,0.0061626678874885,0.0061626678874889,0.0061626678874889,-0.0015349356310512,0.0015349356310513,-3.2669590201739e-16,1.7658284080954e-16,-1.0567324234322e-15,9.1138392255265e-16,-0.0015737984617431,0.0015737984617419,-0.0015737984617425,0.0015737984617425,-0.0015737984617429,0.0015737984617427,-0.0015737984617419,0.0015737984617433,-0.0015002717893146,0.0015002717893167,-0.0015002717893145,0.0015002717893178,9.4185357996082e-16,-9.0538410584293e-16,-7.0703722402755e-16,8.0697534745707e-16,-0.0015349356310513,0.0015349356310514,-0.0015737984617427,0.0015737984617428,-0.0015737984617423,0.0015737984617433,-0.0015737984617439,0.0015737984617425,-0.0015737984617426,0.0015737984617429,-0.0015002717893189,0.001500271789316,-0.0015002717893183,0.001500271789319,-0.0015002717893171,0.0015002717893174,-0.0015002717893179,0.0015002717893164,-9.6526462947521e-17,-7.5141822115973e-16,-0.0015349356310517,0.001534935631051,1.8908245895479e-16,-1.1209657552656e-15,-0.001573798461743,0.0015737984617428,-0.0015737984617431,0.0015737984617425,-0.0015737984617429,0.0015737984617426,-0.0015737984617437,0.0015737984617426,-0.0015002717893181,0.0015002717893155,-0.0015002717893176,0.0015002717893177,0.62320149381409,0.37700432082448,1270536,32768,0.0063751292284072,0.0063751292284077,0.0063751292284076,39.015006893456,38.994007432482,0.00022732005514765,0.00022732005514765,0.00022732005514765,748220.91145531,0.01930977480366
10238400,0.98357777690489,0.018504370854233,0.0061681236180773,0.0061681236180778,0.0061681236180777,-0.0015357468989837,0.0015357468989838,-3.3728381385807e-16,1.6596551810264e-16,-1.0629087053393e-15,9.0344298867214e-16,-0.0015746760455763,0.0015746760455751,-0.0015746760455758,0.0015746760455757,-0.0015746760455762,0.0015746760455759,-0.0015746760455752,0.0015746760455766,-0.001501041468749,0.0015010414687513,-0.001501041468749,0.0015010414687523,9.8385229692885e-16,-8.6267952808553e-16,-6.6197977697222e-16,8.4462125622392e-16,-0.0015357468989837,0.001535746898984,-0.001574676045576,0.0015746760455761,-0.0015746760455755,0.0015746760455767,-0.0015746760455772,0.0015746760455759,-0.0015746760455758,0.0015746760455763,-0.0015010414687533,0.0015010414687506,-0.0015010414687528,0.0015010414687535,-0.0015010414687517,0.0015010414687521,-0.0015010414687525,0.0015010414687509,-8.7320861819376e-17,-7.4200674396801e-16,-0.0015357468989842,0.0015357468989835,2.0152325536759e-16,-1.10184869222e-15,-0.0015746760455763,0.0015746760455761,-0.0015746760455764,0.0015746760455758,-0.0015746760455762,0.0015746760455759,-0.001574676045577,0.001574676045576,-0.0015010414687527,0.0015010414687502,-0.0015010414687522,0.0015010414687524,0.62404815627905,0.39182047793833,1270536,32768,0.0063784876625132,0.0063784876625137,0.0063784876625137,38.710329629225,38.689349744402,0.0002248826370338,0.0002248826370338,0.0002248826370338,739733.63566198,0.019320046613098
10324800,0.98455674854463,0.018519541167495,0.0061731803891647,0.0061731803891652,0.0061731803891651,-0.0015364645041629,0.0015364645041629,-3.5134220791319e-16,1.5331884562627e-16,-1.0780847123109e-15,8.8926695115212e-16,-0.0015754486671662,0.001575448667165,-0.0015754486671657,0.0015754486671656,-0.0015754486671661,0.0015754486671658,-0.0015754486671651,0.0015754486671665,-0.0015017253338645,0.0015017253338666,-0.0015017253338644,0.0015017253338676,9.8014652778461e-16,-8.6685587108935e-16,-6.5715639491146e-16,8.4009198282541e-16,-0.0015364645041629,0.0015364645041631,-0.0015754486671659,0.001575448667166,-0.0015754486671654,0.0015754486671666,-0.0015754486671671,0.0015754486671658,-0.0015754486671657,0.0015754486671662,-0.0015017253338688,0.0015017253338661,-0.0015017253338682,0.001501725333869,-0.001501725333867,0.0015017253338675,-0.0015017253338679,0.0015017253338663,-9.2232476478802e-17,-7.489477083969e-16,-0.0015364645041633,0.0015364645041627,1.8870011769387e-16,-1.1044368484477e-15,-0.0015754486671662,0.001575448667166,-0.0015754486671662,0.0015754486671657,-0.0015754486671661,0.0015754486671658,-0.0015754486671669,0.0015754486671658,-0.0015017253338681,0.0015017253338655,-0.0015017253338675,0.0015017253338678,0.62510263164573,0.40663663505218,1270536,32768,0.0063814583395276,0.0063814583395281,0.0063814583395281,38.40565235878,38.384692056322,0.00022244521887024,0.00022244521887024,0.00022244521887024,731354.52915382,0.01932913259761
10411200,0.9854635201453,0.018533622244904,0.0061778740816342,0.0061778740816347,0.0061778740816346,-0.0015371054935486,0.0015371054935487,-3.2575475429822e-16,1.7949451656573e-16,-1.0543207324018e-15,9.1317798539232e-16,-0.0015761344654579,0.0015761344654567,-0.0015761344654573,0.0015761344654573,-0.0015761344654577,0.0015761344654575,-0.0015761344654567,0.0015761344654581,-0.0015023395879892,0.0015023395879914,-0.0015023395879891,0.0015023395879924,9.458534577673e-16,-9.0085483244442e-16,-6.888024869686e-16,7.9974027436594e-16,-0.0015371054935487,0.0015371054935488,-0.0015761344654577,0.0015761344654577,-0.0015761344654572,0.0015761344654583,-0.0015761344654588,0.0015761344654575,-0.0015761344654575,0.0015761344654578,-0.0015023395879935,0.0015023395879907,-0.0015023395879928,0.0015023395879936,-0.0015023395879918,0.0015023395879922,-0.0015023395879926,0.0015023395879909,-1.037027143062e-16,-7.6094734181634e-16,-0.0015371054935491,0.0015371054935484,1.7452408017385e-16,-1.109201408776e-15,-0.001576134465458,0.0015761344654577,-0.001576134465458,0.0015761344654574,-0.0015761344654578,0.0015761344654576,-0.0015761344654586,0.0015761344654575,-0.0015023395879928,0.0015023395879901,-0.0015023395879922,0.0015023395879924,0.62634872271325,0.42145279216603,1270536,32768,0.006384111837258,0.0063841118372585,0.0063841118372584,38.105607680957,38.084973923923,0.00022004486144765,0.00022004486144765,0.00022004486144765,723092.8862309,0.019337248566234
10497600,0.98631568930573,0.018546885255388,0.0061822950851291,0.0061822950851296,0.0061822950851295,-0.001538183452472,0.001538183452472,-3.2481360657905e-16,1.8049448601735e-16,-1.0508502501874e-15,9.1753079359349e-16,-0.0015772421905217,0.0015772421905206,-0.0015772421905213,0.0015772421905212,-0.0015772421905216,0.0015772421905214,-0.0015772421905206,0.0015772421905221,-0.0015034009484077,0.0015034009484099,-0.0015034009484076,0.0015034009484109,9.5879423890591e-16,-8.8979634674415e-16,-6.7444998425124e-16,8.0609302147034e-16,-0.001538183452472,0.0015381834524722,-0.0015772421905216,0.0015772421905216,-0.0015772421905212,0.0015772421905223,-0.0015772421905228,0.0015772421905214,-0.0015772421905214,0.0015772421905218,-0.001503400948412,0.0015034009484092,-0.0015034009484113,0.0015034009484121,-0.0015034009484102,0.0015034009484107,-0.0015034009484111,0.0015034009484094,-8.7967900876306e-17,-7.4527135011889e-16,-0.0015381834524724,0.0015381834524718,1.8522963547943e-16,-1.0910843151819e-15,-0.0015772421905219,0.0015772421905217,-0.0015772421905219,0.0015772421905213,-0.0015772421905217,0.0015772421905215,-0.0015772421905226,0.0015772421905215,-0.0015034009484112,0.0015034009484087,-0.0015034009484107,0.0015034009484109,0.62777230588046,0.43626894927989,1270536,32768,0.0063885744889376,0.006388574488938,0.006388574488938,38.064549237281,38.061103910774,0.00021971639389825,0.00021971639389825,0.00021971639389825,714688.00250042,0.019350896821749
10584000,0.98711725421145,0.018559278576723,0.0061864261922409,0.0061864261922413,0.0061864261922413,-0.0015392214705807,0.0015392214705807,-3.5404800760581e-16,1.5143655018793e-16,-1.0801434729466e-15,8.8761994264357e-16,-0.0015783127562042,0.001578312756203,-0.0015783127562037,0.0015783127562036,-0.0015783127562041,0.0015783127562039,-0.0015783127562031,0.0015783127562045,-0.0015044176483714,0.0015044176483735,-0.0015044176483713,0.0015044176483746,9.5867659544101e-16,-8.8926695115212e-16,-6.6992071085272e-16,8.0309311311548e-16,-0.0015392214705807,0.0015392214705809,-0.001578312756204,0.001578312756204,-0.0015783127562035,0.0015783127562047,-0.0015783127562052,0.0015783127562038,-0.0015783127562038,0.0015783127562042,-0.0015044176483756,0.0015044176483728,-0.0015044176483749,0.0015044176483757,-0.001504417648374,0.0015044176483743,-0.0015044176483748,0.0015044176483732,-9.2203065612578e-17,-7.4965356918628e-16,-0.0015392214705812,0.0015392214705805,1.7655342994332e-16,-1.0919666411687e-15,-0.0015783127562043,0.0015783127562041,-0.0015783127562043,0.0015783127562037,-0.0015783127562041,0.0015783127562039,-0.001578312756205,0.0015783127562039,-0.0015044176483749,0.0015044176483723,-0.0015044176483744,0.0015044176483746,0.62359061625405,0.38638828679295,1270536,32768,0.0063928717368842,0.0063928717368847,0.0063928717368846,38.039056709295,38.037233897625,0.00021951245367436,0.00021951245367436,0.00021951245367436,706767.60686477,0.019364039544838
10670400,0.9878712918011,0.01857088936121,0.0061902964537363,0.0061902964537367,0.0061902964537367,-0.0015398647579419,0.0015398647579419,-3.5431270540183e-16,1.515247827866e-16,-1.0813199075955e-15,8.8800228390448e-16,-0.0015791427807275,0.0015791427807263,-0.001579142780727,0.0015791427807269,-0.0015791427807274,0.0015791427807271,-0.0015791427807264,0.0015791427807277,-0.001504902699885,0.0015049026998871,-0.0015049026998849,0.0015049026998882,9.6867628995721e-16,-8.8026722608754e-16,-6.5633289065719e-16,8.090929298252e-16,-0.0015398647579419,0.0015398647579421,-0.0015791427807273,0.0015791427807273,-0.0015791427807268,0.001579142780728,-0.0015791427807284,0.0015791427807271,-0.0015791427807271,0.0015791427807275,-0.0015049026998892,0.0015049026998865,-0.0015049026998886,0.0015049026998893,-0.0015049026998876,0.001504902699888,-0.0015049026998884,0.0015049026998868,-8.620324890286e-17,-7.4344787641299e-16,-0.0015398647579423,0.0015398647579416,1.8164150980009e-16,-1.0794376121572e-15,-0.0015791427807276,0.0015791427807274,-0.0015791427807276,0.001579142780727,-0.0015791427807274,0.0015791427807272,-0.0015791427807283,0.0015791427807272,-0.0015049026998886,0.001504902699886,-0.001504902699888,0.0015049026998883,0.62097866727339,0.37157324615516,1270536,32768,0.006395534628905,0.0063955346289055,0.0063955346289054,38.015022728255,38.013363884476,0.00021932018182604,0.00021932018182604,0.00021932018182604,710879.3030764,0.019372184479996
10756800,0.98858063783227,0.018581759982902,0.0061939199943004,0.0061939199943008,0.0061939199943008,-0.0015405934708313,0.0015405934708313,-3.4604825199285e-16,1.5893632107508e-16,-1.0720848956012e-15,8.9791374582201e-16,-0.0015799892664854,0.0015799892664843,-0.0015799892664849,0.0015799892664848,-0.0015799892664853,0.0015799892664851,-0.0015799892664843,0.0015799892664857,-0.0015055396059381,0.0015055396059403,-0.0015055396059381,0.0015055396059413,9.6032360394956e-16,-8.8885519902498e-16,-6.6368560721321e-16,7.9409338805091e-16,-0.0015405934708313,0.0015405934708315,-0.0015799892664853,0.0015799892664853,-0.0015799892664848,0.0015799892664859,-0.0015799892664864,0.0015799892664851,-0.0015799892664851,0.0015799892664854,-0.0015055396059423,0.0015055396059396,-0.0015055396059417,0.0015055396059425,-0.0015055396059407,0.0015055396059411,-0.0015055396059415,0.0015055396059399,-7.8556423684592e-17,-7.3521283387024e-16,-0.0015405934708317,0.0015405934708311,1.8449436382383e-16,-1.0689673437814e-15,-0.0015799892664856,0.0015799892664854,-0.0015799892664855,0.001579989266485,-0.0015799892664854,0.0015799892664851,-0.0015799892664862,0.0015799892664852,-0.0015055396059417,0.0015055396059392,-0.0015055396059411,0.0015055396059414,0.61805746549032,0.35675820551738,1270536,32768,0.006398551301107,0.0063985513011074,0.0063985513011074,37.991135772868,37.989493871327,0.00021912908618294,0.00021912908618294,0.00021912908618294,710281.27790006,0.019381411116874
10843200,0.98924795553551,0.018591933642703,0.0061973112142341,0.0061973112142346,0.0061973112142345,-0.0015412603326746,0.0015412603326746,-3.5154808397676e-16,1.5352472168984e-16,-1.0804375816088e-15,8.9032574233619e-16,-0.0015807732744587,0.0015807732744574,-0.0015807732744581,0.001580773274458,-0.0015807732744585,0.0015807732744583,-0.0015807732744575,0.0015807732744589,-0.0015061163109974,0.0015061163109995,-0.0015061163109973,0.0015061163110006,9.6426466002359e-16,-8.8614939933236e-16,-6.5374473442947e-16,7.9609332695415e-16,-0.0015412603326747,0.0015412603326748,-0.0015807732744584,0.0015807732744585,-0.001580773274458,0.0015807732744591,-0.0015807732744596,0.0015807732744583,-0.0015807732744582,0.0015807732744586,-0.0015061163110016,0.0015061163109989,-0.001506116311001,0.0015061163110017,-0.0015061163109999,0.0015061163110004,-0.0015061163110008,0.0015061163109992,-7.4115382884751e-17,-7.3071297133796e-16,-0.0015412603326751,0.0015412603326744,1.8449436382383e-16,-1.0610264099009e-15,-0.0015807732744587,0.0015807732744585,-0.0015807732744587,0.0015807732744582,-0.0015807732744585,0.0015807732744583,-0.0015807732744594,0.0015807732744583,-0.0015061163110009,0.0015061163109984,-0.0015061163110004,0.0015061163110007,0.61486041035229,0.3419431648796,1270536,32768,0.0064013119140897,0.0064013119140902,0.0064013119140902,37.967263904808,37.965623858178,0.00021893811123846,0.00021893811123846,0.00021893811123846,710095.01263188,0.019389854687831
10929600,0.98987575015708,0.018601451077083,0.0062004836923608,0.0062004836923612,0.0062004836923612,-0.0015418691552507,0.0015418691552507,-3.4907757121393e-16,1.5623052138246e-16,-1.0777906036486e-15,8.9270802250034e-16,-0.0015814985674388,0.0015814985674376,-0.0015814985674383,0.0015814985674382,-0.0015814985674387,0.0015814985674384,-0.0015814985674377,0.0015814985674391,-0.0015066364831457,0.0015066364831478,-0.0015066364831456,0.0015066364831489,9.5908834756815e-16,-8.9097278139312e-16,-6.5545056467046e-16,7.8585834550816e-16,-0.0015418691552507,0.0015418691552509,-0.0015814985674386,0.0015814985674386,-0.0015814985674382,0.0015814985674393,-0.0015814985674398,0.0015814985674384,-0.0015814985674384,0.0015814985674388,-0.0015066364831499,0.0015066364831472,-0.0015066364831493,0.00150663648315,-0.0015066364831482,0.0015066364831486,-0.0015066364831491,0.0015066364831474,-7.3997739419855e-17,-7.3086002566908e-16,-0.0015418691552511,0.0015418691552505,1.8078859467959e-16,-1.0561442061077e-15,-0.0015814985674389,0.0015814985674387,-0.0015814985674389,0.0015814985674384,-0.0015814985674387,0.0015814985674385,-0.0015814985674396,0.0015814985674385,-0.0015066364831492,0.0015066364831467,-0.0015066364831486,0.0015066364831489,0.61141575450349,0.32712812424181,1270536,32768,0.0064038322493741,0.0064038322493745,0.0064038322493745,37.943393592411,37.941753845029,0.00021874714873929,0.00021874714873929,0.00021874714873929,710291.74937151,0.019397563442549
11016000,0.99046637855136,0.018610351234722,0.0062034504115737,0.0062034504115741,0.0062034504115741,-0.0015424235730155,0.0015424235730155,-3.4378361529359e-16,1.6090684911209e-16,-1.0721437173336e-15,8.9726670676508e-16,-0.001582168669387,0.0015821686693858,-0.0015821686693865,0.0015821686693864,-0.0015821686693869,0.0015821686693866,-0.0015821686693859,0.0015821686693873,-0.0015071037249183,0.0015071037249205,-0.0015071037249183,0.0015071037249215,9.6673517278642e-16,-8.8256127365302e-16,-6.4368621818082e-16,7.8950529291995e-16,-0.0015424235730155,0.0015424235730157,-0.0015821686693868,0.0015821686693868,-0.0015821686693863,0.0015821686693875,-0.0015821686693879,0.0015821686693866,-0.0015821686693866,0.001582168669387,-0.0015071037249225,0.0015071037249198,-0.001507103724922,0.0015071037249227,-0.0015071037249209,0.0015071037249213,-0.0015071037249218,0.0015071037249201,-8.0615184320279e-17,-7.3712454017481e-16,-0.0015424235730159,0.0015424235730153,1.6937717858464e-16,-1.0594970448573e-15,-0.0015821686693871,0.0015821686693869,-0.0015821686693871,0.0015821686693865,-0.0015821686693869,0.0015821686693867,-0.0015821686693878,0.0015821686693867,-0.0015071037249219,0.0015071037249194,-0.0015071037249214,0.0015071037249216,0.60774701974508,0.31231308360403,1270536,32768,0.0064061273543334,0.0064061273543339,0.0064061273543338,37.919523440632,37.917883831879,0.00021855618752506,0.00021855618752506,0.00021855618752506,710844.50712867,0.019404583387358
11102400,0.99102205773701,0.018618671231219,0.0062062237437395,0.0062062237437399,0.0062062237437399,-0.0015429269843228,0.0015429269843228,-3.4831288869211e-16,1.5561289319175e-16,-1.0764965255348e-15,8.9435503100889e-16,-0.0015827869040726,0.0015827869040714,-0.0015827869040721,0.001582786904072,-0.0015827869040725,0.0015827869040722,-0.0015827869040715,0.0015827869040729,-0.0015075213994065,0.0015075213994087,-0.0015075213994065,0.0015075213994097,9.6367644269911e-16,-8.8738465571378e-16,-6.4398032684306e-16,7.8203493289902e-16,-0.0015429269843228,0.001542926984323,-0.0015827869040724,0.0015827869040724,-0.0015827869040719,0.0015827869040731,-0.0015827869040735,0.0015827869040722,-0.0015827869040722,0.0015827869040726,-0.0015075213994107,0.001507521399408,-0.0015075213994101,0.0015075213994108,-0.0015075213994091,0.0015075213994095,-0.0015075213994099,0.0015075213994083,-6.6409735934035e-17,-7.2233087446408e-16,-0.0015429269843232,0.0015429269843226,1.8111211420806e-16,-1.0413211295308e-15,-0.0015827869040727,0.0015827869040725,-0.0015827869040727,0.0015827869040722,-0.0015827869040725,0.0015827869040723,-0.0015827869040733,0.0015827869040723,-0.00150752139941,0.0015075213994075,-0.0015075213994095,0.0015075213994098,0.60387378892971,0.29749804296625,1270536,32768,0.0064082112988084,0.0064082112988088,0.0064082112988088,37.895653305445,37.89401381873,0.00021836522644356,0.00021836522644356,0.00021836522644356,711730.06359078,0.019410957540959
11188800,0.99154480520184,0.01862648086656,0.0062088269555197,0.0062088269555202,0.0062088269555201,-0.0015433808091493,0.0015433808091494,-3.4060724174139e-16,1.6349500533981e-16,-1.0693790959086e-15,9.007077781133e-16,-0.0015833536244976,0.0015833536244964,-0.0015833536244971,0.001583353624497,-0.0015833536244975,0.0015833536244973,-0.0015833536244965,0.0015833536244979,-0.0015078924544713,0.0015078924544734,-0.0015078924544712,0.0015078924544745,9.6155886033098e-16,-8.8873755556009e-16,-6.4180392274248e-16,7.7679979871113e-16,-0.0015433808091494,0.0015433808091496,-0.0015833536244974,0.0015833536244974,-0.0015833536244969,0.001583353624498,-0.0015833536244985,0.0015833536244972,-0.0015833536244972,0.0015833536244976,-0.0015078924544754,0.0015078924544728,-0.0015078924544749,0.0015078924544756,-0.0015078924544738,0.0015078924544742,-0.0015078924544747,0.0015078924544731,-7.8262315022351e-17,-7.341834535524e-16,-0.0015433808091498,0.0015433808091491,1.6561258770795e-16,-1.0490267764815e-15,-0.0015833536244977,0.0015833536244975,-0.0015833536244977,0.0015833536244971,-0.0015833536244975,0.0015833536244973,-0.0015833536244983,0.0015833536244973,-0.0015078924544748,0.0015078924544723,-0.0015078924544742,0.0015078924544745,0.60254426077574,0.31280204344526,1270536,32768,0.0064100899694089,0.0064100899694094,0.0064100899694094,37.869320851861,37.867518307028,0.00021815456681489,0.00021815456681489,0.00021815456681489,712878.21648071,0.019416703865407
11275200,0.99203503062875,0.018633810842921,0.0062112702809734,0.0062112702809738,0.0062112702809738,-0.0015438518177692,0.0015438518177691,-3.5463622493029e-16,1.4973071994693e-16,-1.0852609636696e-15,8.849729646834e-16,-0.0015838536087937,0.0015838536087925,-0.0015838536087932,0.0015838536087931,-0.0015838536087936,0.0015838536087933,-0.0015838536087926,0.001583853608794,-0.0015083558582617,0.0015083558582638,-0.0015083558582616,0.0015083558582649,9.6673517278642e-16,-8.832671344424e-16,-6.3362770193218e-16,7.7850562895213e-16,-0.0015438518177692,0.0015438518177694,-0.0015838536087934,0.0015838536087935,-0.001583853608793,0.0015838536087941,-0.0015838536087946,0.0015838536087933,-0.0015838536087933,0.0015838536087937,-0.0015083558582658,0.0015083558582632,-0.0015083558582653,0.001508355858266,-0.0015083558582642,0.0015083558582646,-0.0015083558582651,0.0015083558582635,-6.5409766482415e-17,-7.2141913761114e-16,-0.0015438518177696,0.001543851817769,1.7399468458182e-16,-1.0326743348609e-15,-0.0015838536087938,0.0015838536087936,-0.0015838536087937,0.0015838536087932,-0.0015838536087936,0.0015838536087934,-0.0015838536087944,0.0015838536087934,-0.0015083558582652,0.0015083558582627,-0.0015083558582647,0.001508355858265,0.60303440618934,0.34095429338432,1270536,32768,0.0064120398549722,0.0064120398549726,0.0064120398549726,37.782529899364,37.776716347622,0.00021746023919491,0.00021746023919491,0.00021746023919491,708201.40272419,0.019422667884641
11361600,0.9924947785932,0.018640682423242,0.006213560807747,0.0062135608077474,0.0062135608077474,-0.001544367596641,0.0015443675966409,-3.6495943897495e-16,1.401721884241e-16,-1.0946724408613e-15,8.749732701672e-16,-0.0015843502756843,0.0015843502756831,-0.0015843502756838,0.0015843502756837,-0.0015843502756842,0.0015843502756839,-0.0015843502756832,0.0015843502756845,-0.0015089023923496,0.0015089023923517,-0.0015089023923495,0.0015089023923528,9.4826514879768e-16,-9.0079601071197e-16,-6.4798020464954e-16,7.5609454888936e-16,-0.001544367596641,0.0015443675966411,-0.001584350275684,0.0015843502756841,-0.0015843502756836,0.0015843502756847,-0.0015843502756852,0.0015843502756838,-0.0015843502756839,0.0015843502756842,-0.0015089023923538,0.0015089023923511,-0.0015089023923533,0.0015089023923539,-0.0015089023923522,0.0015089023923526,-0.0015089023923531,0.0015089023923514,-6.7674403181672e-17,-7.2471315462824e-16,-0.0015443675966414,0.0015443675966407,1.6825956566812e-16,-1.0315567219444e-15,-0.0015843502756843,0.0015843502756841,-0.0015843502756843,0.0015843502756838,-0.0015843502756842,0.0015843502756839,-0.001584350275685,0.001584350275684,-0.0015089023923531,0.0015089023923506,-0.0015089023923526,0.0015089023923529,0.6027562202966,0.35105416649371,1270536,32768,0.0064141751102824,0.0064141751102828,0.0064141751102828,37.692104739143,37.685914388215,0.00021673683791314,0.00021673683791314,0.00021673683791314,700447.70135594,0.019429198798053
11448000,0.99292604450153,0.018647128177518,0.0062157093925057,0.0062157093925061,0.0062157093925061,-0.0015447648839566,0.0015447648839566,-3.5034223846157e-16,1.5534819539574e-16,-1.0763200603374e-15,8.9456090707246e-16,-0.0015847626778163,0.0015847626778151,-0.0015847626778158,0.0015847626778157,-0.0015847626778162,0.0015847626778159,-0.0015847626778151,0.0015847626778166,-0.0015092956810342,0.0015092956810364,-0.0015092956810342,0.0015092956810374,9.7149973311472e-16,-8.7914961317103e-16,-6.2162806851274e-16,7.7621158138665e-16,-0.0015447648839566,0.0015447648839568,-0.001584762677816,0.0015847626778161,-0.0015847626778155,0.0015847626778167,-0.0015847626778172,0.0015847626778159,-0.0015847626778158,0.0015847626778162,-0.0015092956810384,0.0015092956810358,-0.0015092956810379,0.0015092956810385,-0.0015092956810368,0.0015092956810372,-0.0015092956810377,0.001509295681036,-6.6350914201587e-17,-7.234484873806e-16,-0.001544764883957,0.0015447648839564,1.7008303937401e-16,-1.0233216794016e-15,-0.0015847626778163,0.0015847626778161,-0.0015847626778163,0.0015847626778158,-0.0015847626778161,0.0015847626778159,-0.0015847626778169,0.0015847626778159,-0.0015092956810378,0.0015092956810353,-0.0015092956810372,0.0015092956810375,0.60268041281494,0.3611540396031,1270536,32768,0.0064158197575817,0.0064158197575822,0.0064158197575822,37.601339237568,37.595112428809,0.00021601071390054,0.00021601071390054,0.00021601071390054,695559.01157141,0.019434229371912
11534400,0.99333069473135,0.018653177681669,0.0062177258938894,0.0062177258938898,0.0062177258938898,-0.0015451323653346,0.0015451323653346,-3.3157810581059e-16,1.7361234332091e-16,-1.0596735100546e-15,9.1208978334203e-16,-0.0015851409999075,0.0015851409999064,-0.001585140999907,0.0015851409999069,-0.0015851409999074,0.0015851409999072,-0.0015851409999064,0.0015851409999078,-0.0015096611115283,0.0015096611115305,-0.0015096611115283,0.0015096611115316,9.8702867048105e-16,-8.6550297124304e-16,-6.0768731792251e-16,7.8691713669222e-16,-0.0015451323653346,0.0015451323653348,-0.0015851409999073,0.0015851409999074,-0.0015851409999069,0.001585140999908,-0.0015851409999084,0.0015851409999072,-0.0015851409999071,0.0015851409999075,-0.0015096611115326,0.0015096611115299,-0.001509661111532,0.0015096611115327,-0.0015096611115309,0.0015096611115314,-0.0015096611115318,0.0015096611115302,-8.4173899133396e-17,-7.4053620065681e-16,-0.001545132365335,0.0015451323653344,1.4767195931124e-16,-1.0430269597718e-15,-0.0015851409999076,0.0015851409999074,-0.0015851409999076,0.0015851409999071,-0.0015851409999074,0.0015851409999072,-0.0015851409999082,0.0015851409999072,-0.0015096611115319,0.0015096611115294,-0.0015096611115314,0.0015096611115317,0.6027925384287,0.37125391271249,1270536,32768,0.0064173410119645,0.0064173410119649,0.0064173410119649,37.510539457579,37.504310469402,0.00021528431566063,0.00021528431566063,0.00021528431566063,690676.62757792,0.01943888255014
11620800,0.99371046857859,0.018658858369463,0.0062196194564875,0.006219619456488,0.0062196194564879,-0.0015454721164432,0.0015454721164432,-3.4943050160862e-16,1.5599523445267e-16,-1.0772023863242e-15,8.947373722698e-16,-0.0015854876432715,0.0015854876432703,-0.001585487643271,0.0015854876432709,-0.0015854876432714,0.0015854876432711,-0.0015854876432703,0.0015854876432718,-0.0015100007078404,0.0015100007078426,-0.0015100007078404,0.0015100007078436,9.6326469057197e-16,-8.8920812941967e-16,-6.2639262884105e-16,7.6197672213418e-16,-0.0015454721164432,0.0015454721164434,-0.0015854876432712,0.0015854876432714,-0.0015854876432708,0.0015854876432719,-0.0015854876432725,0.0015854876432711,-0.0015854876432711,0.0015854876432715,-0.0015100007078446,0.001510000707842,-0.0015100007078441,0.0015100007078448,-0.0015100007078431,0.0015100007078434,-0.0015100007078439,0.0015100007078422,-7.0762544135203e-17,-7.2741895432085e-16,-0.0015454721164436,0.001545472116443,1.5675991697449e-16,-1.0269686268134e-15,-0.0015854876432716,0.0015854876432714,-0.0015854876432715,0.0015854876432711,-0.0015854876432714,0.0015854876432712,-0.0015854876432722,0.0015854876432712,-0.001510000707844,0.0015100007078415,-0.0015100007078434,0.0015100007078437,0.60307739545246,0.38135378582189,1270536,32768,0.006418747466988,0.0064187474669884,0.0064187474669884,37.419736163867,37.413508509995,0.00021455788931093,0.00021455788931093,0.00021455788931093,685801.81969343,0.019443184612274
11707200,0.99406698653031,0.018664195493057,0.0062213984976852,0.0062213984976857,0.0062213984976856,-0.0015457858787428,0.0015457858787428,-3.4460711954787e-16,1.5978923619558e-16,-1.0762024168725e-15,8.9785492408956e-16,-0.0015858047158065,0.0015858047158053,-0.001585804715806,0.0015858047158059,-0.0015858047158064,0.0015858047158062,-0.0015858047158054,0.0015858047158068,-0.0015103160748811,0.0015103160748833,-0.0015103160748811,0.0015103160748844,9.6285293844484e-16,-8.9097278139312e-16,-6.2568676805167e-16,7.5709451834098e-16,-0.0015457858787429,0.001545785878743,-0.0015858047158063,0.0015858047158064,-0.0015858047158059,0.001585804715807,-0.0015858047158075,0.0015858047158062,-0.0015858047158062,0.0015858047158066,-0.0015103160748854,0.0015103160748827,-0.0015103160748848,0.0015103160748855,-0.0015103160748837,0.0015103160748841,-0.0015103160748846,0.0015103160748829,-5.785117386282e-17,-7.1394877759021e-16,-0.0015457858787432,0.0015457858787426,1.6870072866148e-16,-1.0094985722763e-15,-0.0015858047158066,0.0015858047158064,-0.0015858047158066,0.0015858047158062,-0.0015858047158065,0.0015858047158063,-0.0015858047158073,0.0015858047158063,-0.0015103160748847,0.0015103160748822,-0.0015103160748841,0.0015103160748844,0.60352086777078,0.39145365893128,1270536,32768,0.0064200463325503,0.0064200463325508,0.0064200463325507,37.328932508424,37.322706550589,0.00021383146006739,0.00021383146006739,0.00021383146006739,680940.82459927,0.019447157606535
11793600,0.99440175857989,0.018669212327954,0.0062230707759845,0.0062230707759849,0.0062230707759849,-0.0015460752226294,0.0015460752226293,-3.6260656967702e-16,1.4181919693265e-16,-1.092143106366e-15,8.8003193915775e-16,-0.0015860941478387,0.0015860941478375,-0.0015860941478382,0.0015860941478381,-0.0015860941478386,0.0015860941478384,-0.0015860941478376,0.001586094147839,-0.0015106086211698,0.001510608621172,-0.0015106086211698,0.001510608621173,9.7149973311472e-16,-8.8067897821468e-16,-6.1245187825082e-16,7.645648783619e-16,-0.0015460752226294,0.0015460752226296,-0.0015860941478384,0.0015860941478385,-0.001586094147838,0.0015860941478391,-0.0015860941478396,0.0015860941478383,-0.0015860941478383,0.0015860941478387,-0.001510608621174,0.0015106086211714,-0.0015106086211735,0.0015106086211742,-0.0015106086211724,0.0015106086211728,-0.0015106086211732,0.0015106086211716,-7.202721138284e-17,-7.284483346387e-16,-0.0015460752226298,0.0015460752226292,1.5058363506743e-16,-1.02232170995e-15,-0.0015860941478388,0.0015860941478386,-0.0015860941478388,0.0015860941478383,-0.0015860941478386,0.0015860941478384,-0.0015860941478394,0.0015860941478384,-0.0015106086211733,0.0015106086211708,-0.0015106086211728,0.0015106086211731,0.60411042483788,0.40155353204067,1270536,32768,0.0064212441102521,0.0064212441102526,0.0064212441102525,37.238128815808,37.231904591182,0.00021310503052647,0.00021310503052647,0.00021310503052647,676100.75158543,0.019450821415519
11880000,0.99471619200653,0.01867394520401,0.0062246484013364,0.0062246484013368,0.0062246484013368,-0.001546342858808,0.0015463428588079,-3.6684173441329e-16,1.3758403219638e-16,-1.09896642733e-15,8.7570854182281e-16,-0.001586358549308,0.0015863585493068,-0.0015863585493075,0.0015863585493074,-0.0015863585493079,0.0015863585493076,-0.0015863585493069,0.0015863585493083,-0.0015108815550203,0.0015108815550224,-0.0015108815550202,0.0015108815550234,9.4726517934606e-16,-9.0703111435148e-16,-6.3498060177848e-16,7.3750688143572e-16,-0.001546342858808,0.0015463428588081,-0.0015863585493078,0.0015863585493079,-0.0015863585493074,0.0015863585493085,-0.001586358549309,0.0015863585493077,-0.0015863585493077,0.001586358549308,-0.0015108815550244,0.0015108815550217,-0.0015108815550239,0.0015108815550245,-0.0015108815550228,0.0015108815550232,-0.0015108815550237,0.001510881555022,-7.0056683345824e-17,-7.2680132613015e-16,-0.0015463428588083,0.0015463428588077,1.5102479806079e-16,-1.0173218626919e-15,-0.0015863585493081,0.0015863585493079,-0.0015863585493081,0.0015863585493076,-0.0015863585493079,0.0015863585493077,-0.0015863585493088,0.0015863585493078,-0.0015108815550237,0.0015108815550212,-0.0015108815550232,0.0015108815550235,0.6067335245705,0.43298918924451,1270536,32768,0.0064223520256683,0.0064223520256688,0.0064223520256688,37.147325119479,37.141102631776,0.00021237860095583,0.00021237860095583,0.00021237860095583,671267.5660656,0.019454210356171
11966400,0.99501163655294,0.018678420583466,0.0062261401944885,0.006226140194489,0.0062261401944889,-0.0015467032481779,0.0015467032481779,-3.4204837418637e-16,1.6461261825633e-16,-1.075084803956e-15,9.0347239953836e-16,-0.0015866621987991,0.0015866621987979,-0.0015866621987986,0.0015866621987985,-0.0015866621987991,0.0015866621987988,-0.001586662198798,0.0015866621987994,-0.0015112935751781,0.0015112935751802,-0.001511293575178,0.0015112935751813,1.0105573634603e-15,-8.4820938190327e-16,-5.6892379623914e-16,7.9879912664676e-16,-0.0015467032481779,0.0015467032481782,-0.0015866621987989,0.0015866621987991,-0.0015866621987986,0.0015866621987997,-0.0015866621988001,0.0015866621987989,-0.0015866621987988,0.0015866621987992,-0.0015112935751821,0.0015112935751796,-0.0015112935751816,0.0015112935751823,-0.0015112935751806,0.0015112935751811,-0.0015112935751815,0.0015112935751799,-6.2115749465315e-17,-7.2033093556085e-16,-0.0015467032481784,0.0015467032481777,1.5243651963955e-16,-1.0125573023636e-15,-0.0015866621987993,0.0015866621987991,-0.0015866621987993,0.0015866621987989,-0.0015866621987991,0.0015866621987989,-0.0015866621987999,0.001586662198799,-0.0015112935751816,0.0015112935751791,-0.001511293575181,0.0015112935751814,0.61054857448842,0.4701589267376,1270536,32768,0.0064238439844976,0.0064238439844981,0.0064238439844981,37.058944486531,37.052883895971,0.00021167155589224,0.00021167155589224,0.00021167155589224,662820.0965966,0.019458773761727
12052800,0.99528986206143,0.018682666824601,0.0062275556082,0.0062275556082005,0.0062275556082004,-0.0015471535100907,0.0015471535100907,-3.3404861857341e-16,1.7378880851825e-16,-1.0613205185631e-15,9.1006043357256e-16,-0.0015870347941748,0.0015870347941736,-0.0015870347941743,0.0015870347941742,-0.0015870347941747,0.0015870347941745,-0.0015870347941737,0.0015870347941751,-0.0015118105557706,0.0015118105557729,-0.0015118105557706,0.0015118105557739,9.2426588195881e-16,-9.2832458149773e-16,-6.6186213350732e-16,7.0227266369924e-16,-0.0015471535100908,0.0015471535100909,-0.0015870347941746,0.0015870347941746,-0.0015870347941742,0.0015870347941752,-0.0015870347941758,0.0015870347941744,-0.0015870347941744,0.0015870347941748,-0.0015118105557751,0.0015118105557722,-0.0015118105557746,0.001511810555775,-0.0015118105557733,0.0015118105557736,-0.0015118105557741,0.0015118105557724,-7.167428098815e-17,-7.3130118866244e-16,-0.0015471535100911,0.0015471535100905,1.4690727678942e-16,-1.0144984195344e-15,-0.0015870347941749,0.0015870347941746,-0.0015870347941748,0.0015870347941744,-0.0015870347941747,0.0015870347941745,-0.0015870347941755,0.0015870347941744,-0.0015118105557742,0.0015118105557716,-0.0015118105557736,0.001511810555774,0.61507183982975,0.5073286642307,1270536,32768,0.0064257080166485,0.006425708016649,0.0064257080166489,37.008099382203,37.004526585818,0.00021126479505763,0.00021126479505763,0.00021126479505763,653128.08145984,0.019464475106671
12139200,0.99555193929144,0.018686700456633,0.0062289001522106,0.006228900152211,0.006228900152211,-0.0015475959292964,0.0015475959292965,-2.9863793563959e-16,2.0958183271299e-16,-1.0243216488532e-15,9.4685342721892e-16,-0.0015873951642624,0.0015873951642613,-0.0015873951642619,0.0015873951642619,-0.0015873951642623,0.0015873951642622,-0.0015873951642613,0.0015873951642628,-0.0015123204572008,0.001512320457203,-0.0015123204572008,0.0015123204572042,9.7791130195158e-16,-8.7291450953152e-16,-5.9833466246325e-16,7.5985913976605e-16,-0.0015475959292965,0.0015475959292967,-0.0015873951642622,0.0015873951642622,-0.0015873951642617,0.0015873951642629,-0.0015873951642633,0.001587395164262,-0.0015873951642621,0.0015873951642624,-0.0015123204572048,0.0015123204572022,-0.0015123204572044,0.001512320457205,-0.0015123204572035,0.0015123204572039,-0.0015123204572043,0.0015123204572026,-8.7791435678961e-17,-7.4750657595192e-16,-0.0015475959292969,0.0015475959292962,1.2087866018108e-16,-1.0349683824263e-15,-0.0015873951642626,0.0015873951642622,-0.0015873951642625,0.001587395164262,-0.0015873951642624,0.0015873951642621,-0.0015873951642631,0.0015873951642621,-0.0015123204572044,0.0015123204572018,-0.0015123204572039,0.0015123204572041,0.62018641732162,0.54449840172379,1270536,32768,0.0064275395642432,0.0064275395642437,0.0064275395642437,36.959507410715,36.956169275665,0.00021087605928572,0.00021087605928572,0.00021087605928572,643282.47382036,0.019470077153495
12225600,0.99579884048659,0.018690535560628,0.006230178520209,0.0062301785202095,0.0062301785202094,-0.0015480241802806,0.0015480241802807,-3.395190396911e-16,1.6952423291576e-16,-1.0612616968307e-15,9.0553116017405e-16,-0.0015877383520079,0.0015877383520067,-0.0015877383520074,0.0015877383520073,-0.0015877383520078,0.0015877383520075,-0.0015877383520068,0.0015877383520082,-0.0015128161601834,0.0015128161601856,-0.0015128161601834,0.0015128161601867,9.3955953239534e-16,-9.0685464915414e-16,-6.2821610254694e-16,7.234484873806e-16,-0.0015480241802807,0.0015480241802808,-0.0015877383520078,0.0015877383520078,-0.0015877383520074,0.0015877383520084,-0.001587738352009,0.0015877383520076,-0.0015877383520077,0.001587738352008,-0.0015128161601877,0.001512816160185,-0.0015128161601871,0.0015128161601877,-0.0015128161601861,0.0015128161601864,-0.0015128161601869,0.0015128161601851,-7.4556545878113e-17,-7.3433050788352e-16,-0.0015480241802811,0.0015480241802804,1.4073099488236e-16,-1.0082044941624e-15,-0.0015877383520081,0.0015877383520079,-0.0015877383520081,0.0015877383520076,-0.001587738352008,0.0015877383520077,-0.0015877383520087,0.0015877383520077,-0.0015128161601869,0.0015128161601845,-0.0015128161601864,0.0015128161601867,0.62581367836717,0.58166813921688,1270536,32768,0.0064293124464523,0.0064293124464527,0.0064293124464527,36.911126026759,36.907811965512,0.00021048900821407,0.00021048900821407,0.00021048900821407,633396.3655888,0.019475499802787
12312000,0.99603147512229,0.018694162479342,0.0062313874931138,0.0062313874931143,0.0062313874931142,-0.0015484349994112,0.0015484349994115,-1.7964157089685e-16,3.2551946736842e-16,-9.4620638816199e-16,1.0644380703829e-15,-0.0015880629685235,0.0015880629685225,-0.0015880629685231,0.0015880629685232,-0.0015880629685235,0.0015880629685234,-0.0015880629685226,0.0015880629685245,-0.001513292786786,0.0015132927867891,-0.001513292786786,0.0015132927867894,7.3415404268618e-16,-1.1511413040116e-15,-8.4403303889944e-16,4.8680865774143e-16,-0.0015484349994115,0.0015484349994112,-0.0015880629685244,0.0015880629685239,-0.001588062968524,0.0015880629685245,-0.0015880629685259,0.0015880629685232,-0.0015880629685241,0.0015880629685238,-0.0015132927867907,0.0015132927867876,-0.0015132927867906,0.0015132927867904,-0.0015132927867905,0.0015132927867906,-0.0015132927867916,0.0015132927867887,-3.8969397746943e-17,-6.9097889106919e-16,-0.0015484349994117,0.0015484349994111,1.697006981131e-16,-9.7508785879407e-16,-0.0015880629685244,0.0015880629685241,-0.0015880629685246,0.0015880629685242,-0.0015880629685239,0.001588062968524,-0.0015880629685251,0.0015880629685237,-0.0015132927867909,0.001513292786789,-0.001513292786791,0.001513292786791,0.62805326824355,0.57367236187225,1270536,32768,0.006431013150048,0.0064310131500481,0.0064310131500482,36.862765810198,36.859454655359,0.00021010212648158,0.00021010212648158,0.00021010212648158,623576.2148432,0.019480701735552
12398400,0.99625069641079,0.018697572819472,0.006232524273157,0.0062325242731574,0.0062325242731574,-0.0015486383630669,0.0015486383630669,-2.8516775890895e-16,2.1469932343599e-16,-1.0538501585422e-15,9.5108859195519e-16,-0.0015882673464831,0.0015882673464821,-0.0015882673464828,0.0015882673464826,-0.0015882673464834,0.0015882673464827,-0.0015882673464819,0.0015882673464837,-0.0015134815452172,0.001513481545219,-0.0015134815452167,0.0015134815452199,1.1829638612661e-15,-7.0609607630838e-16,-4.0604641909003e-16,9.2179536919598e-16,-0.0015486383630666,0.0015486383630673,-0.0015882673464827,0.0015882673464836,-0.0015882673464822,0.0015882673464839,-0.0015882673464839,0.001588267346483,-0.0015882673464826,0.0015882673464834,-0.0015134815452204,0.0015134815452176,-0.0015134815452193,0.0015134815452211,-0.001513481545219,0.0015134815452195,-0.001513481545219,0.0015134815452183,-1.581128168208e-16,-8.0985761234703e-16,-0.0015486383630673,0.0015486383630666,2.8234431575143e-17,-1.0914960673091e-15,-0.0015882673464831,0.0015882673464831,-0.0015882673464832,0.0015882673464827,-0.001588267346483,0.0015882673464829,-0.0015882673464837,0.0015882673464827,-0.0015134815452192,0.0015134815452172,-0.001513481545219,0.0015134815452193,0.62660825090624,0.53205120056854,1270536,32768,0.0064318549085031,0.0064318549085034,0.0064318549085035,36.814407759301,36.811097345206,0.00020971526207441,0.00020971526207441,0.00020971526207441,620010.31236136,0.019483276780643
12484800,0.99645730506307,0.018700686077545,0.0062335620258479,0.0062335620258483,0.0062335620258483,-0.0015486516066185,0.0015486516066185,-3.4543062380214e-16,1.5414234988055e-16,-1.0968488449619e-15,9.0332534520724e-16,-0.0015883624371268,0.0015883624371256,-0.0015883624371263,0.0015883624371262,-0.0015883624371267,0.0015883624371264,-0.0015883624371257,0.001588362437127,-0.0015134087974635,0.0015134087974657,-0.0015134087974635,0.0015134087974667,9.2914808575201e-16,-9.5055919636316e-16,-6.4556851361916e-16,6.7621463622468e-16,-0.0015486516066185,0.0015486516066186,-0.0015883624371266,0.0015883624371266,-0.0015883624371262,0.0015883624371272,-0.0015883624371278,0.0015883624371264,-0.0015883624371265,0.0015883624371267,-0.0015134087974676,0.0015134087974648,-0.0015134087974671,0.0015134087974676,-0.001513408797466,0.0015134087974663,-0.0015134087974669,0.0015134087974651,-7.5291817533716e-17,-7.2644839573546e-16,-0.0015486516066189,0.0015486516066183,1.1976104726457e-16,-9.9891066043559e-16,-0.0015883624371269,0.0015883624371266,-0.0015883624371269,0.0015883624371264,-0.0015883624371267,0.0015883624371265,-0.0015883624371276,0.0015883624371266,-0.0015134087974669,0.0015134087974645,-0.0015134087974663,0.0015134087974667,0.60695327033555,0.30510769011006,1270536,32768,0.0064319095249865,0.0064319095249869,0.0064319095249869,36.766049931004,36.762740035054,0.00020932839944803,0.00020932839944803,0.00020932839944803,622158.9928677,0.019483444474841
12571200,0.99665205261577,0.018703597878877,0.0062345326262921,0.0062345326262925,0.0062345326262925,-0.0015476769467055,0.0015476769467059,-1.8975890887794e-16,2.7531511872387e-16,-9.4285354941244e-16,1.0426152076446e-15,-0.0015879242098939,0.0015879242098927,-0.0015879242098939,0.0015879242098934,-0.001587924209894,0.0015879242098941,-0.0015879242098933,0.0015879242098939,-0.0015119497243732,0.0015119497243767,-0.0015119497243739,0.001511949724376,1.52207114883e-15,-3.4204837418637e-16,-5.8821732448215e-18,1.2924311053522e-15,-0.0015476769467053,0.0015476769467064,-0.0015879242098926,0.0015879242098934,-0.0015879242098929,0.001587924209894,-0.0015879242098949,0.0015879242098933,-0.001587924209893,0.0015879242098927,-0.0015119497243767,0.0015119497243763,-0.0015119497243756,0.001511949724378,-0.0015119497243737,0.0015119497243781,-0.0015119497243763,0.001511949724374,-4.6939742493676e-17,-6.8021451403116e-16,-0.0015476769467062,0.0015476769467056,8.7320861819376e-17,-1.00814567243e-15,-0.0015879242098936,0.0015879242098937,-0.001587924209893,0.0015879242098919,-0.0015879242098932,0.001587924209893,-0.001587924209894,0.0015879242098934,-0.0015119497243741,0.0015119497243732,-0.0015119497243754,0.0015119497243759,0.60227552747827,0.31227614466872,1270536,32768,0.0064278739625248,0.0064278739625256,0.0064278739625257,36.717692125673,36.714382724901,0.00020894153700538,0.00020894153700538,0.00020894153700538,656649.25667239,0.019471102870865
12657600,0.99683564448258,0.018706343206727,0.0062354477355753,0.0062354477355758,0.0062354477355757,-0.0015477247634923,0.0015477247634923,-2.9290281672589e-16,1.7908276443859e-16,-1.0807316902711e-15,9.5832366504632e-16,-0.0015880338224979,0.0015880338224966,-0.0015880338224962,0.0015880338224975,-0.0015880338224976,0.0015880338224976,-0.001588033822497,0.0015880338224986,-0.0015119639495423,0.001511963949544,-0.0015119639495424,0.0015119639495454,1.0740848345044e-15,-8.3668032234342e-16,-4.746913808571e-16,8.2456304545908e-16,-0.0015477247634923,0.0015477247634926,-0.0015880338224969,0.001588033822497,-0.0015880338224959,0.001588033822498,-0.0015880338224976,0.0015880338224971,-0.0015880338224964,0.001588033822497,-0.001511963949547,0.0015119639495432,-0.0015119639495458,0.001511963949546,-0.0015119639495454,0.0015119639495446,-0.0015119639495455,0.0015119639495441,-2.7263872989748e-16,-8.8956105981436e-16,-0.0015477247634929,0.0015477247634918,-1.0140866674072e-16,-1.1874931346646e-15,-0.0015880338224979,0.0015880338224965,-0.0015880338224967,0.0015880338224964,-0.0015880338224974,0.0015880338224968,-0.001588033822498,0.001588033822497,-0.0015119639495461,0.0015119639495426,-0.0015119639495449,0.0015119639495457,0.60260679582409,0.36224613998798,1270536,32768,0.0064280720108875,0.0064280720108882,0.0064280720108879,36.669334322748,36.666025414748,0.00020855467458198,0.00020855467458198,0.00020855467458198,657844.10730993,0.01947170842017
12744000,0.99700861149607,0.018708923449842,0.0062363078166137,0.0062363078166141,0.0062363078166141,-0.001547999819147,0.001547999819147,-3.0160843312822e-16,1.649361377848e-16,-1.0832610247663e-15,9.5420614377495e-16,-0.0015882409030352,0.001588240903034,-0.0015882409030347,0.0015882409030346,-0.0015882409030351,0.0015882409030349,-0.0015882409030341,0.0015882409030355,-0.0015123187616726,0.0015123187616749,-0.0015123187616726,0.0015123187616759,9.4950040517909e-16,-9.6808807263273e-16,-6.2556912458677e-16,6.6727373289255e-16,-0.001547999819147,0.0015479998191471,-0.0015882409030351,0.0015882409030352,-0.0015882409030347,0.0015882409030358,-0.0015882409030363,0.0015882409030349,-0.001588240903035,0.0015882409030353,-0.0015123187616768,0.0015123187616742,-0.0015123187616764,0.0015123187616768,-0.0015123187616752,0.0015123187616755,-0.0015123187616761,0.0015123187616743,-5.7262956538338e-17,-6.756264189002e-16,-0.0015479998191474,0.0015479998191468,1.4314268591273e-16,-9.4526524044282e-16,-0.0015882409030355,0.0015882409030353,-0.0015882409030354,0.001588240903035,-0.0015882409030352,0.0015882409030351,-0.001588240903036,0.0015882409030352,-0.0015123187616761,0.0015123187616737,-0.0015123187616756,0.0015123187616759,0.60116810087595,0.370409622336,1270536,32768,0.0064292108723785,0.006429210872379,0.006429210872379,36.606700916972,36.602450060654,0.00020805360733578,0.00020805360733578,0.00020805360733578,650037.58987514,0.019475191396402
12830400,0.99717021685883,0.018711330535359,0.0062371101784528,0.0062371101784533,0.0062371101784532,-0.0015477774702627,0.0015477774702628,-3.0463775234931e-16,1.6196564029616e-16,-1.0823198770472e-15,9.5282383306242e-16,-0.0015880306308919,0.0015880306308908,-0.0015880306308914,0.0015880306308914,-0.0015880306308918,0.0015880306308916,-0.0015880306308908,0.0015880306308922,-0.001512097633129,0.0015120976331313,-0.001512097633129,0.0015120976331323,9.7973477565747e-16,-9.3444204167235e-16,-5.9304070654291e-16,6.9715517297625e-16,-0.0015477774702628,0.0015477774702629,-0.0015880306308917,0.0015880306308918,-0.0015880306308913,0.0015880306308924,-0.0015880306308929,0.0015880306308916,-0.0015880306308916,0.0015880306308919,-0.0015120976331333,0.0015120976331306,-0.0015120976331328,0.0015120976331333,-0.0015120976331317,0.0015120976331321,-0.0015120976331326,0.0015120976331308,-7.8968175811729e-17,-6.9747869250471e-16,-0.0015477774702632,0.0015477774702626,1.2167275356913e-16,-9.6497052081297e-16,-0.0015880306308921,0.0015880306308918,-0.001588030630892,0.0015880306308916,-0.0015880306308919,0.0015880306308917,-0.0015880306308927,0.0015880306308917,-0.0015120976331326,0.0015120976331302,-0.0015120976331321,0.0015120976331324,0.60014342763425,0.37857310468403,1270536,32768,0.006428290349025,0.0064282903490255,0.0064282903490254,36.384435279327,36.369621777511,0.00020627548223461,0.00020627548223461,0.00020627548223461,647932.90044018,0.019472376234745
12916800,0.99732122635038,0.018713577271464,0.0062378590904879,0.0062378590904883,0.0062378590904883,-0.0015475339318812,0.0015475339318812,-3.1766676608659e-16,1.4887780482643e-16,-1.0956724103129e-15,9.3573611978621e-16,-0.0015877886746243,0.0015877886746231,-0.0015877886746238,0.0015877886746237,-0.0015877886746241,0.0015877886746239,-0.0015877886746231,0.0015877886746245,-0.0015118614502936,0.0015118614502959,-0.0015118614502936,0.0015118614502969,9.8655809662147e-16,-9.2467763408595e-16,-5.8380569454854e-16,7.0509610685676e-16,-0.0015475339318812,0.0015475339318814,-0.001587788674624,0.0015877886746241,-0.0015877886746236,0.0015877886746247,-0.0015877886746252,0.0015877886746239,-0.0015877886746239,0.0015877886746242,-0.0015118614502978,0.0015118614502952,-0.0015118614502974,0.0015118614502979,-0.0015118614502962,0.0015118614502966,-0.0015118614502971,0.0015118614502954,-7.2144854847736e-17,-6.9083183673807e-16,-0.0015475339318816,0.001547533931881,1.2623143783387e-16,-9.5938245623039e-16,-0.0015877886746243,0.0015877886746241,-0.0015877886746243,0.0015877886746238,-0.0015877886746242,0.001587788674624,-0.0015877886746249,0.001587788674624,-0.0015118614502971,0.0015118614502947,-0.0015118614502966,0.0015118614502969,0.59945090230266,0.38673658703205,1270536,32768,0.0064272821056936,0.0064272821056941,0.006427282105694,36.152589675846,36.136793494369,0.00020442071740677,0.00020442071740677,0.00020442071740677,645390.43530018,0.019469292746581
13003200,0.99746242154448,0.018715676580527,0.0062385588601754,0.0062385588601758,0.0062385588601758,-0.0015472838508424,0.0015472838508425,-3.1807851821372e-16,1.4873075049531e-16,-1.0949077277911e-15,9.3441263080612e-16,-0.0015875348754642,0.001587534875463,-0.0015875348754637,0.0015875348754636,-0.0015875348754641,0.0015875348754639,-0.0015875348754631,0.0015875348754645,-0.0015116212435147,0.0015116212435169,-0.0015116212435147,0.0015116212435179,9.8738160087574e-16,-9.2167772573109e-16,-5.7974699500961e-16,7.0839012387386e-16,-0.0015472838508425,0.0015472838508427,-0.001587534875464,0.0015875348754641,-0.0015875348754636,0.0015875348754646,-0.0015875348754652,0.0015875348754638,-0.0015875348754638,0.0015875348754642,-0.0015116212435189,0.0015116212435163,-0.0015116212435184,0.001511621243519,-0.0015116212435173,0.0015116212435177,-0.0015116212435182,0.0015116212435165,-7.3585987292717e-17,-6.9189062792213e-16,-0.0015472838508429,0.0015472838508423,1.2411385546573e-16,-9.6067653434425e-16,-0.0015875348754643,0.0015875348754641,-0.0015875348754642,0.0015875348754638,-0.0015875348754641,0.0015875348754639,-0.0015875348754649,0.001587534875464,-0.0015116212435182,0.0015116212435158,-0.0015116212435177,0.001511621243518,0.59903163606766,0.39490006938008,1270536,32768,0.0064262467696808,0.0064262467696813,0.0064262467696812,35.919849883054,35.903965211226,0.00020255879906443,0.00020255879906443,0.00020255879906443,642617.22482903,0.019466126413446
13089600,0.99759452669064,0.018717640179384,0.0062392133931278,0.0062392133931282,0.0062392133931282,-0.0015470277630877,0.0015470277630877,-3.1654915317007e-16,1.4984836341183e-16,-1.0929077888878e-15,9.3417734387633e-16,-0.0015872713023461,0.0015872713023449,-0.0015872713023456,0.0015872713023455,-0.0015872713023459,0.0015872713023457,-0.0015872713023449,0.0015872713023464,-0.0015113765638625,0.0015113765638647,-0.0015113765638625,0.0015113765638657,9.820876449554e-16,-9.2467763408595e-16,-5.8445273360547e-16,7.0256677236148e-16,-0.0015470277630877,0.0015470277630879,-0.0015872713023458,0.0015872713023459,-0.0015872713023454,0.0015872713023465,-0.001587271302347,0.0015872713023457,-0.0015872713023457,0.001587271302346,-0.0015113765638667,0.0015113765638641,-0.0015113765638662,0.0015113765638668,-0.0015113765638651,0.0015113765638655,-0.001511376563866,0.0015113765638642,-7.5909445724422e-17,-6.9436114068496e-16,-0.0015470277630881,0.0015470277630875,1.2190804049893e-16,-9.6167650379587e-16,-0.0015872713023462,0.001587271302346,-0.0015872713023461,0.0015872713023457,-0.001587271302346,0.0015872713023458,-0.0015872713023468,0.0015872713023458,-0.001511376563866,0.0015113765638636,-0.0015113765638655,0.0015113765638658,0.59884234534424,0.40306355172811,1270536,32768,0.0064251865601353,0.0064251865601358,0.0064251865601357,35.687020389277,35.671136928084,0.00020069616311421,0.00020069616311421,0.00020069616311421,639690.71791006,0.019462884024373
13176000,0.99771820762981,0.018719478650023,0.0062398262166741,0.0062398262166745,0.0062398262166745,-0.0015467653392429,0.0015467653392429,-3.2307836547182e-16,1.434662054412e-16,-1.0979664578784e-15,9.2611876653093e-16,-0.0015869984976292,0.001586998497628,-0.0015869984976287,0.0015869984976286,-0.0015869984976291,0.0015869984976289,-0.0015869984976281,0.0015869984976295,-0.0015111265566725,0.0015111265566747,-0.0015111265566725,0.0015111265566757,9.804994581793e-16,-9.2373648636677e-16,-5.8233515123733e-16,7.0268441582638e-16,-0.0015467653392429,0.0015467653392431,-0.001586998497629,0.0015869984976291,-0.0015869984976286,0.0015869984976296,-0.0015869984976302,0.0015869984976288,-0.0015869984976289,0.0015869984976292,-0.0015111265566767,0.0015111265566741,-0.0015111265566762,0.0015111265566768,-0.0015111265566751,0.0015111265566755,-0.001511126556676,0.0015111265566743,-6.7174418455862e-17,-6.8542023735283e-16,-0.0015467653392433,0.0015467653392427,1.3008426130923e-16,-9.5138270061743e-16,-0.0015869984976293,0.0015869984976291,-0.0015869984976292,0.0015869984976288,-0.0015869984976291,0.0015869984976289,-0.0015869984976299,0.001586998497629,-0.001511126556676,0.0015111265566736,-0.0015111265566755,0.0015111265566758,0.59885046605421,0.41122703407613,1270536,32768,0.0064241001144793,0.0064241001144797,0.0064241001144797,35.454181743232,35.438308644941,0.00019883345394585,0.00019883345394585,0.00019883345394585,636657.48747042,0.019459561409887
13262400,0.99783407637505,0.018721201577397,0.0062404005257987,0.0062404005257992,0.0062404005257991,-0.0015464964137225,0.0015464964137226,-3.1896084420045e-16,1.4770137017747e-16,-1.0913196021117e-15,9.2958924874537e-16,-0.0015867169285126,0.0015867169285114,-0.0015867169285121,0.0015867169285119,-0.0015867169285124,0.0015867169285122,-0.0015867169285114,0.0015867169285128,-0.0015108707333938,0.001510870733396,-0.0015108707333938,0.001510870733397,9.7855834100851e-16,-9.2167772573109e-16,-5.8162929044795e-16,7.0186091157211e-16,-0.0015464964137226,0.0015464964137227,-0.0015867169285123,0.0015867169285124,-0.0015867169285119,0.001586716928513,-0.0015867169285135,0.0015867169285122,-0.0015867169285122,0.0015867169285125,-0.0015108707333979,0.0015108707333953,-0.0015108707333975,0.001510870733398,-0.0015108707333964,0.0015108707333968,-0.0015108707333973,0.0015108707333955,-7.2262498312633e-17,-6.9033185201226e-16,-0.0015464964137229,0.0015464964137224,1.2399621200084e-16,-9.5614726094574e-16,-0.0015867169285127,0.0015867169285124,-0.0015867169285126,0.0015867169285121,-0.0015867169285125,0.0015867169285123,-0.0015867169285132,0.0015867169285123,-0.0015108707333973,0.0015108707333949,-0.0015108707333967,0.0015108707333971,0.59903093444506,0.41939051642416,1270536,32768,0.0064229867480269,0.0064229867480274,0.0064229867480273,35.221342161261,35.205480361798,0.00019697073729009,0.00019697073729009,0.00019697073729009,633549.68569317,0.019456156474292
13348800,0.9979426957793,0.018722810803662,0.0062409369345538,0.0062409369345542,0.0062409369345542,-0.0015462204247344,0.0015462204247344,-3.190196659329e-16,1.4778960277614e-16,-1.0897902370681e-15,9.2855986842753e-16,-0.001586426680007,0.0015864266800058,-0.0015864266800065,0.0015864266800063,-0.0015864266800068,0.0015864266800066,-0.0015864266800058,0.0015864266800072,-0.0015106080059579,0.0015106080059602,-0.0015106080059579,0.0015106080059612,9.8279350574478e-16,-9.1526615689423e-16,-5.7645297799251e-16,7.0586078937858e-16,-0.0015462204247344,0.0015462204247346,-0.0015864266800067,0.0015864266800068,-0.0015864266800063,0.0015864266800074,-0.0015864266800079,0.0015864266800066,-0.0015864266800066,0.0015864266800069,-0.0015106080059621,0.0015106080059595,-0.0015106080059617,0.0015106080059622,-0.0015106080059605,0.0015106080059609,-0.0015106080059614,0.0015106080059597,-6.7556759716775e-17,-6.8583198947997e-16,-0.0015462204247348,0.0015462204247342,1.2808432240599e-16,-9.5108859195519e-16,-0.0015864266800071,0.0015864266800068,-0.001586426680007,0.0015864266800066,-0.0015864266800069,0.0015864266800067,-0.0015864266800076,0.0015864266800067,-0.0015106080059614,0.001510608005959,-0.0015106080059609,0.0015106080059612,0.5968224209256,0.39910224693045,1270536,32768,0.0064218441340464,0.0064218441340469,0.0064218441340469,34.988502485326,34.972652078656,0.00019510801988261,0.00019510801988261,0.00019510801988261,630398.96882258,0.019452662107234
13435200,0.99804458381474,0.018724312879594,0.006241437626531,0.0062414376265314,0.0062414376265314,-0.0015457978686997,0.0015457978686997,-3.2007845711696e-16,1.4646611379606e-16,-1.0900255239979e-15,9.2638346432694e-16,-0.0015860534024882,0.001586053402487,-0.0015860534024877,0.0015860534024876,-0.0015860534024881,0.0015860534024879,-0.0015860534024871,0.0015860534024885,-0.001510141292307,0.0015101412923092,-0.001510141292307,0.0015101412923102,9.7620547171058e-16,-9.1979543029274e-16,-5.8068814272878e-16,7.0033154652845e-16,-0.0015457978686997,0.0015457978686999,-0.001586053402488,0.0015860534024881,-0.0015860534024876,0.0015860534024887,-0.0015860534024892,0.0015860534024879,-0.0015860534024879,0.0015860534024882,-0.0015101412923112,0.0015101412923086,-0.0015101412923107,0.0015101412923113,-0.0015101412923096,0.00151014129231,-0.0015101412923105,0.0015101412923087,-7.0439024606738e-17,-6.8859661090503e-16,-0.0015457978687001,0.0015457978686995,1.243197315293e-16,-9.5355910471802e-16,-0.0015860534024883,0.0015860534024881,-0.0015860534024883,0.0015860534024878,-0.0015860534024881,0.0015860534024879,-0.0015860534024889,0.001586053402488,-0.0015101412923105,0.0015101412923081,-0.00151014129231,0.0015101412923103,0.59387045869589,0.37763977467102,1270536,32768,0.0064200946778584,0.0064200946778588,0.0064200946778588,34.755662801768,34.739823795513,0.00019324530241415,0.00019324530241415,0.00019324530241415,631809.34228226,0.019447311879946
13521600,0.99814025885564,0.018725715016647,0.0062419050055488,0.0062419050055492,0.0062419050055492,-0.0015453608331034,0.0015453608331033,-3.4966578853842e-16,1.1655526284614e-16,-1.1186717077002e-15,8.9432562014267e-16,-0.0015856762754157,0.0015856762754145,-0.0015856762754152,0.0015856762754151,-0.0015856762754156,0.0015856762754153,-0.0015856762754146,0.001585676275416,-0.0015096530396322,0.0015096530396344,-0.0015096530396322,0.0015096530396354,9.9255791333119e-16,-9.0091365417687e-16,-5.6315926645921e-16,7.1903685744698e-16,-0.0015453608331034,0.0015453608331036,-0.0015856762754154,0.0015856762754156,-0.001585676275415,0.0015856762754161,-0.0015856762754166,0.0015856762754153,-0.0015856762754153,0.0015856762754157,-0.0015096530396364,0.0015096530396338,-0.001509653039636,0.0015096530396365,-0.0015096530396348,0.0015096530396353,-0.0015096530396357,0.001509653039634,-8.1173990778537e-17,-6.9918452274571e-16,-0.0015453608331038,0.0015453608331032,1.1470237827402e-16,-9.6408819482625e-16,-0.0015856762754158,0.0015856762754156,-0.0015856762754157,0.0015856762754153,-0.0015856762754156,0.0015856762754154,-0.0015856762754164,0.0015856762754155,-0.0015096530396357,0.0015096530396333,-0.0015096530396352,0.0015096530396355,0.59037817526427,0.3561773024116,1270536,32768,0.0064182852900676,0.0064182852900681,0.0064182852900681,34.530799620155,34.515495070398,0.00019144639696124,0.00019144639696124,0.00019144639696124,634070.88379578,0.019441778323779
13608000,0.99823049183252,0.018727033312603,0.006242344437534,0.0062423444375344,0.0062423444375344,-0.0015450381974251,0.0015450381974251,-3.297546321047e-16,1.3608407801895e-16,-1.0973782405539e-15,9.137662027168e-16,-0.0015854179201795,0.0015854179201783,-0.001585417920179,0.0015854179201789,-0.0015854179201794,0.0015854179201792,-0.0015854179201784,0.0015854179201798,-0.0015092774356122,0.0015092774356143,-0.0015092774356122,0.0015092774356154,9.6638224239173e-16,-9.2491292101574e-16,-5.9362892386739e-16,6.8974363468777e-16,-0.0015450381974251,0.0015450381974253,-0.0015854179201792,0.0015854179201793,-0.0015854179201788,0.0015854179201799,-0.0015854179201804,0.0015854179201791,-0.0015854179201792,0.0015854179201794,-0.0015092774356163,0.0015092774356137,-0.0015092774356159,0.0015092774356164,-0.0015092774356148,0.0015092774356151,-0.0015092774356156,0.0015092774356139,-6.1556943007057e-17,-6.7944983150934e-16,-0.0015450381974255,0.0015450381974249,1.333488674601e-16,-9.4614756642954e-16,-0.0015854179201796,0.0015854179201794,-0.0015854179201795,0.0015854179201791,-0.0015854179201794,0.0015854179201792,-0.0015854179201802,0.0015854179201792,-0.0015092774356156,0.0015092774356133,-0.0015092774356151,0.0015092774356155,0.58859870939753,0.35864843038747,1270536,32768,0.0064169495386052,0.0064169495386057,0.0064169495386057,34.375037941808,34.364291112829,0.00019020030353446,0.00019020030353446,0.00019020030353446,636812.08249555,0.019437693236315
13694400,0.99831564676213,0.018728274518959,0.0062427581729861,0.0062427581729866,0.0062427581729865,-0.0015448322714371,0.0015448322714371,-3.229313111407e-16,1.4276034465182e-16,-1.0884961589542e-15,9.2100127580793e-16,-0.0015852243539578,0.0015852243539566,-0.0015852243539573,0.0015852243539572,-0.0015852243539577,0.0015852243539575,-0.0015852243539567,0.0015852243539581,-0.0015090671408375,0.0015090671408398,-0.0015090671408376,0.0015090671408408,9.6838218129497e-16,-9.2038364761723e-16,-5.8580563345178e-16,6.9662577738421e-16,-0.0015448322714371,0.0015448322714373,-0.0015852243539576,0.0015852243539577,-0.0015852243539572,0.0015852243539582,-0.0015852243539588,0.0015852243539574,-0.0015852243539574,0.0015852243539578,-0.0015090671408417,0.0015090671408391,-0.0015090671408413,0.0015090671408418,-0.0015090671408402,0.0015090671408405,-0.001509067140841,0.0015090671408393,-7.202721138284e-17,-6.896554020891e-16,-0.0015448322714375,0.0015448322714369,1.2440796412798e-16,-9.542649655074e-16,-0.0015852243539579,0.0015852243539577,-0.0015852243539578,0.0015852243539574,-0.0015852243539577,0.0015852243539575,-0.0015852243539585,0.0015852243539576,-0.001509067140841,0.0015090671408387,-0.0015090671408405,0.0015090671408409,0.58725280479074,0.36288196541896,1270536,32768,0.006416097016936,0.0064160970169364,0.0064160970169364,34.223403462735,34.21308715526,0.00018898722770188,0.00018898722770188,0.00018898722770188,635901.77377133,0.019435085968664
13780800,0.99839604334242,0.018729444184644,0.0062431480615478,0.0062431480615483,0.0062431480615482,-0.001544638366996,0.001544638366996,-3.2528418043863e-16,1.4058394055123e-16,-1.092143106366e-15,9.1629553721207e-16,-0.0015850338302858,0.0015850338302846,-0.0015850338302853,0.0015850338302852,-0.0015850338302857,0.0015850338302854,-0.0015850338302847,0.0015850338302861,-0.0015088758634897,0.0015088758634919,-0.0015088758634897,0.0015088758634929,9.7685251076751e-16,-9.1097217042551e-16,-5.7727648224679e-16,7.0497846339186e-16,-0.001544638366996,0.0015446383669962,-0.0015850338302855,0.0015850338302856,-0.0015850338302851,0.0015850338302862,-0.0015850338302867,0.0015850338302854,-0.0015850338302854,0.0015850338302858,-0.0015088758634938,0.0015088758634913,-0.0015088758634934,0.0015088758634939,-0.0015088758634923,0.0015088758634927,-0.0015088758634932,0.0015088758634914,-7.5174174068819e-17,-6.9292000823998e-16,-0.0015446383669964,0.0015446383669958,1.2081983844863e-16,-9.5773544772184e-16,-0.0015850338302859,0.0015850338302857,-0.0015850338302858,0.0015850338302854,-0.0015850338302857,0.0015850338302855,-0.0015850338302865,0.0015850338302856,-0.0015088758634932,0.0015088758634908,-0.0015088758634927,0.001508875863493,0.58615429971684,0.36711550045045,1270536,32768,0.0064152942601387,0.0064152942601391,0.0064152942601391,34.072152145068,34.061883197691,0.00018777721716054,0.00018777721716054,0.00018777721716054,634425.70699897,0.01943263092331
13867200,0.99847197779393,0.018730547240001,0.0062435157466667,0.0062435157466672,0.0062435157466671,-0.0015444452801106,0.0015444452801106,-3.2401951319099e-16,1.4196625126377e-16,-1.0894373066734e-15,9.1664846760676e-16,-0.0015848403229075,0.0015848403229063,-0.001584840322907,0.0015848403229068,-0.0015848403229073,0.0015848403229071,-0.0015848403229063,0.0015848403229077,-0.0015086875987319,0.0015086875987341,-0.0015086875987319,0.0015086875987351,9.7967595392503e-16,-9.0597232316741e-16,-5.7321778270786e-16,7.0809601521162e-16,-0.0015444452801107,0.0015444452801109,-0.0015848403229072,0.0015848403229073,-0.0015848403229068,0.0015848403229079,-0.0015848403229084,0.0015848403229071,-0.0015848403229071,0.0015848403229074,-0.001508687598736,0.0015086875987335,-0.0015086875987356,0.0015086875987361,-0.0015086875987345,0.0015086875987349,-0.0015086875987354,0.0015086875987336,-7.0115505078273e-17,-6.8774369578453e-16,-0.001544445280111,0.0015444452801105,1.2420208806441e-16,-9.5361792645047e-16,-0.0015848403229076,0.0015848403229073,-0.0015848403229075,0.0015848403229071,-0.0015848403229074,0.0015848403229072,-0.0015848403229081,0.0015848403229072,-0.0015086875987354,0.001508687598733,-0.0015086875987349,0.0015086875987352,0.58524723791863,0.37134903548193,1270536,32768,0.0064144948815317,0.0064144948815322,0.0064144948815321,33.920939060392,33.910679240122,0.00018656751248313,0.00018656751248313,0.00018656751248313,632745.09141791,0.019430186232071
13953600,0.99854372609889,0.018731588166011,0.0062438627220035,0.0062438627220039,0.0062438627220039,-0.0015442513224288,0.0015442513224288,-3.2254896987979e-16,1.4331915111008e-16,-1.0872609025728e-15,9.1697198713523e-16,-0.0015846432920956,0.0015846432920944,-0.0015846432920951,0.001584643292095,-0.0015846432920955,0.0015846432920953,-0.0015846432920945,0.0015846432920959,-0.0015084997538105,0.0015084997538127,-0.0015084997538105,0.0015084997538137,9.772054411622e-16,-9.0667818395679e-16,-5.7404128696213e-16,7.0668429363286e-16,-0.0015442513224289,0.0015442513224291,-0.0015846432920953,0.0015846432920955,-0.0015846432920949,0.001584643292096,-0.0015846432920965,0.0015846432920952,-0.0015846432920952,0.0015846432920955,-0.0015084997538147,0.0015084997538121,-0.0015084997538142,0.0015084997538148,-0.0015084997538131,0.0015084997538135,-0.001508499753814,0.0015084997538123,-7.4850654540354e-17,-6.9244943438039e-16,-0.0015442513224293,0.0015442513224287,1.2031985372282e-16,-9.5679430000267e-16,-0.0015846432920957,0.0015846432920955,-0.0015846432920956,0.0015846432920952,-0.0015846432920955,0.0015846432920953,-0.0015846432920963,0.0015846432920953,-0.001508499753814,0.0015084997538116,-0.0015084997538135,0.0015084997538138,0.58449497634458,0.37558257051342,1270536,32768,0.0064136918929249,0.0064136918929254,0.0064136918929254,33.769729857878,33.759475282553,0.00018535783886302,0.00018535783886302,0.00018535783886302,630931.86032338,0.01942773051698
14040000,0.99861154561709,0.018732571066079,0.0062441903553593,0.0062441903553597,0.0062441903553597,-0.0015440555967938,0.0015440555967938,-3.2299013287315e-16,1.4278975551804e-16,-1.086496220051e-15,9.1606025028228e-16,-0.0015844425563425,0.0015844425563413,-0.001584442556342,0.0015844425563419,-0.0015844425563424,0.0015844425563421,-0.0015844425563414,0.0015844425563427,-0.0015083109228032,0.0015083109228054,-0.0015083109228032,0.0015083109228064,9.7849951927606e-16,-9.0414884946152e-16,-5.7151195246686e-16,7.0827248040896e-16,-0.0015440555967938,0.001544055596794,-0.0015844425563422,0.0015844425563423,-0.0015844425563418,0.0015844425563429,-0.0015844425563434,0.0015844425563421,-0.0015844425563421,0.0015844425563424,-0.0015083109228073,0.0015083109228048,-0.0015083109228069,0.0015083109228075,-0.0015083109228058,0.0015083109228062,-0.0015083109228067,0.001508310922805,-7.0409613740514e-17,-6.8809662617922e-16,-0.0015440555967942,0.0015440555967936,1.245550184591e-16,-9.5191209620947e-16,-0.0015844425563426,0.0015844425563423,-0.0015844425563425,0.0015844425563421,-0.0015844425563424,0.0015844425563422,-0.0015844425563431,0.0015844425563422,-0.0015083109228067,0.0015083109228043,-0.0015083109228062,0.0015083109228065,0.58387227874129,0.37981610554491,1270536,32768,0.006412881581117,0.0064128815811175,0.0064128815811175,33.618521051789,33.608271324984,0.00018414816841431,0.00018414816841431,0.00018414816841431,629029.64011343,0.019425252418448
14126400,0.99867567644842,0.018733494306404,0.0062444981021343,0.0062444981021347,0.0062444981021347,-0.0015438571621332,0.0015438571621331,-3.2610768469291e-16,1.3990749062808e-16,-1.0894373066734e-15,9.1188390727846e-16,-0.0015842378033844,0.0015842378033832,-0.0015842378033839,0.0015842378033838,-0.0015842378033843,0.0015842378033841,-0.0015842378033833,0.0015842378033847,-0.0015081196269015,0.0015081196269037,-0.0015081196269015,0.0015081196269047,9.7426435453979e-16,-9.0679582742169e-16,-5.7515889987865e-16,7.0409613740514e-16,-0.0015438571621332,0.0015438571621334,-0.0015842378033842,0.0015842378033842,-0.0015842378033837,0.0015842378033848,-0.0015842378033853,0.001584237803384,-0.001584237803384,0.0015842378033844,-0.0015081196269056,0.001508119626903,-0.0015081196269052,0.0015081196269057,-0.0015081196269041,0.0015081196269044,-0.001508119626905,0.0015081196269032,-7.0968420198772e-17,-6.8865543263748e-16,-0.0015438571621335,0.001543857162133,1.2220214916117e-16,-9.5291206566109e-16,-0.0015842378033845,0.0015842378033843,-0.0015842378033844,0.001584237803384,-0.0015842378033843,0.0015842378033841,-0.0015842378033851,0.0015842378033842,-0.001508119626905,0.0015081196269026,-0.0015081196269044,0.0015081196269048,0.57997216391741,0.34655484516466,1270536,32768,0.0064120600495907,0.0064120600495911,0.0064120600495911,33.467312286715,33.457067367415,0.00018293849829372,0.00018293849829372,0.00018293849829372,627073.25857774,0.019422740022734
14212800,0.99873634267815,0.018734358873876,0.0062447862912917,0.0062447862912922,0.0062447862912921,-0.0015434652646314,0.0015434652646313,-3.4063665260761e-16,1.234668164088e-16,-1.09896642733e-15,8.9332565069105e-16,-0.0015839269035481,0.0015839269035469,-0.0015839269035477,0.0015839269035475,-0.0015839269035481,0.0015839269035478,-0.001583926903547,0.0015839269035484,-0.0015076567948201,0.0015076567948223,-0.0015076567948202,0.0015076567948232,9.7749954982444e-16,-8.9561969825653e-16,-5.6068875369639e-16,7.1833099665761e-16,-0.0015434652646314,0.0015434652646316,-0.0015839269035479,0.001583926903548,-0.0015839269035475,0.0015839269035486,-0.0015839269035491,0.0015839269035478,-0.0015839269035478,0.0015839269035481,-0.0015076567948242,0.0015076567948217,-0.0015076567948238,0.0015076567948244,-0.0015076567948228,0.0015076567948232,-0.0015076567948237,0.0015076567948219,-2.9410866224108e-17,-6.4395091597684e-16,-0.0015434652646317,0.0015434652646312,1.6187740769749e-16,-9.146191178373e-16,-0.0015839269035482,0.0015839269035481,-0.0015839269035481,0.0015839269035477,-0.001583926903548,0.0015839269035478,-0.0015839269035488,0.001583926903548,-0.0015076567948236,0.0015076567948212,-0.001507656794823,0.0015076567948234,0.57413027992061,0.30238204640048,1270536,32768,0.0064104375040304,0.0064104375040309,0.0064104375040308,33.31610352639,33.305863409846,0.00018172882821112,0.00018172882821112,0.00018172882821112,631376.60595007,0.019417778000674
14299200,0.99879367658181,0.018735166056751,0.0062450553522502,0.0062450553522506,0.0062450553522506,-0.001542937303185,0.0015429373031847,-4.6130943672513e-16,3.558714813117e-18,-1.2328446903821e-15,7.6421194796721e-16,-0.0015835209955728,0.0015835209955713,-0.0015835209955723,0.0015835209955717,-0.0015835209955728,0.0015835209955722,-0.0015835209955715,0.0015835209955728,-0.0015070255957975,0.0015070255957993,-0.0015070255957973,0.0015070255958002,1.1338477146718e-15,-7.41742046172e-16,-3.9916427639359e-16,8.8109073034182e-16,-0.0015429373031848,0.0015429373031852,-0.0015835209955724,0.0015835209955729,-0.0015835209955719,0.0015835209955733,-0.0015835209955737,0.0015835209955725,-0.0015835209955723,0.0015835209955729,-0.0015070255958013,0.0015070255957988,-0.0015070255958005,0.0015070255958016,-0.0015070255957996,0.0015070255958004,-0.0015070255958005,0.0015070255957991,-7.9497571403763e-17,-6.9562580793259e-16,-0.0015429373031853,0.0015429373031847,1.0173218626919e-16,-9.7832305407872e-16,-0.001583520995573,0.0015835209955726,-0.0015835209955728,0.0015835209955722,-0.0015835209955726,0.0015835209955725,-0.0015835209955734,0.0015835209955723,-0.0015070255958005,0.0015070255957983,-0.0015070255958002,0.0015070255958005,0.56721608971601,0.2582092476363,1270536,32768,0.0064082516470396,0.0064082516470401,0.0064082516470401,33.140486478878,33.128656858497,0.00018032389183102,0.00018032389183102,0.00018032389183102,638686.92238455,0.01941109320524
14385600,0.99884737652995,0.01873592639717,0.0062453087990565,0.0062453087990569,0.0062453087990569,-0.001542042962505,0.001542042962504,-7.6550602608107e-16,-3.0790235850018e-16,-1.5378353731261e-15,4.415159237563e-16,-0.0015827679100849,0.0015827679100831,-0.0015827679100846,0.0015827679100834,-0.0015827679100852,0.0015827679100837,-0.0015827679100837,0.0015827679100845,-0.0015060171480917,0.0015060171480932,-0.0015060171480912,0.0015060171480941,1.2633143477903e-15,-5.8974668952581e-16,-2.2881653922356e-16,1.0718496086714e-15,-0.0015420429625042,0.001542042962505,-0.0015827679100842,0.0015827679100848,-0.0015827679100836,0.0015827679100854,-0.0015827679100852,0.0015827679100847,-0.0015827679100838,0.0015827679100848,-0.0015060171480953,0.001506017148094,-0.0015060171480945,0.0015060171480966,-0.0015060171480938,0.0015060171480948,-0.0015060171480946,0.0015060171480927,7.2056622249064e-18,-5.9627590182756e-16,-0.0015420429625047,0.0015420429625043,1.9364114321952e-16,-8.9726670676508e-16,-0.0015827679100846,0.0015827679100841,-0.0015827679100847,0.0015827679100844,-0.0015827679100845,0.001582767910084,-0.0015827679100854,0.0015827679100843,-0.0015060171480946,0.0015060171480921,-0.0015060171480947,0.0015060171480943,0.57043849144852,0.33536789850487,1270536,32768,0.0064045489689365,0.0064045489689369,0.0064045489689366,32.793739924066,32.770697189335,0.00017754991939253,0.00017754991939253,0.00017754991939253,647382.85010453,0.019399769660252
14472000,0.99889768635516,0.018736638416814,0.0062455461389377,0.0062455461389381,0.0062455461389381,-0.001541773699743,0.001541773699743,-3.337839207774e-16,1.2093748191353e-16,-1.0892020197436e-15,8.8835521429917e-16,-0.0015823350111688,0.0015823350111676,-0.0015823350111683,0.0015823350111682,-0.0015823350111687,0.0015823350111684,-0.0015823350111677,0.001582335011169,-0.0015059071990867,0.0015059071990889,-0.0015059071990868,0.0015059071990899,9.6779396397049e-16,-8.8926695115212e-16,-5.7739412571168e-16,7.1891921398209e-16,-0.001541773699743,0.0015417736997432,-0.0015823350111685,0.0015823350111686,-0.0015823350111681,0.0015823350111692,-0.0015823350111697,0.0015823350111684,-0.0015823350111684,0.0015823350111687,-0.0015059071990909,0.0015059071990884,-0.0015059071990905,0.001505907199091,-0.0015059071990894,0.0015059071990898,-0.0015059071990902,0.0015059071990885,-7.8791710614384e-17,-6.8524377215548e-16,-0.0015417736997434,0.0015417736997428,1.269961203557e-16,-9.6608813372949e-16,-0.0015823350111689,0.0015823350111687,-0.0015823350111688,0.0015823350111684,-0.0015823350111687,0.0015823350111685,-0.0015823350111695,0.0015823350111685,-0.0015059071990902,0.0015059071990879,-0.0015059071990897,0.0015059071990901,0.57024254421688,0.34577300248656,1270536,32768,0.0064034344119551,0.0064034344119555,0.0064034344119555,32.436800086263,32.412737520174,0.0001746944006901,0.0001746944006901,0.0001746944006901,634498.09465339,0.019396360820514
14558400,0.99894485728235,0.018737306132582,0.0062457687108603,0.0062457687108607,0.0062457687108607,-0.0015411951888596,0.0015411951888596,-3.2525476957241e-16,1.2958427658342e-16,-1.0831433813014e-15,8.9491383746715e-16,-0.0015817286549483,0.0015817286549471,-0.0015817286549478,0.0015817286549477,-0.0015817286549482,0.001581728654948,-0.0015817286549472,0.0015817286549486,-0.0015053561808995,0.0015053561809017,-0.0015053561808995,0.0015053561809027,9.7355849375041e-16,-8.8397299523178e-16,-5.735118913701e-16,7.2244851792898e-16,-0.0015411951888596,0.0015411951888598,-0.0015817286549481,0.0015817286549482,-0.0015817286549477,0.0015817286549488,-0.0015817286549493,0.001581728654948,-0.0015817286549479,0.0015817286549483,-0.0015053561809036,0.0015053561809011,-0.0015053561809032,0.0015053561809037,-0.0015053561809021,0.0015053561809025,-0.001505356180903,0.0015053561809013,-7.6585895647576e-17,-6.8327324411847e-16,-0.00154119518886,0.0015411951888594,1.3093717642973e-16,-9.6108828647139e-16,-0.0015817286549484,0.0015817286549482,-0.0015817286549484,0.0015817286549479,-0.0015817286549482,0.001581728654948,-0.001581728654949,0.0015817286549481,-0.001505356180903,0.0015053561809006,-0.0015053561809025,0.0015053561809028,0.57025333096741,0.35617810646825,1270536,32768,0.0064010393454986,0.0064010393454991,0.006401039345499,32.078917659251,32.054777851013,0.00017183134127401,0.00017183134127401,0.00017183134127401,631370.69320552,0.019389036318193
14644800,0.99898912155999,0.018737932962479,0.0062459776541595,0.0062459776541599,0.0062459776541599,-0.0015406139743426,0.0015406139743426,-3.1613740104293e-16,1.3876046684534e-16,-1.0742024779693e-15,9.040017951304e-16,-0.001581118988924,0.0015811189889229,-0.0015811189889235,0.0015811189889234,-0.0015811189889239,0.0015811189889237,-0.0015811189889229,0.0015811189889243,-0.0015048011439626,0.0015048011439648,-0.0015048011439626,0.0015048011439658,9.67205746646e-16,-8.9067867273088e-16,-5.7774705610637e-16,7.1609577082457e-16,-0.0015406139743426,0.0015406139743428,-0.0015811189889238,0.0015811189889239,-0.0015811189889234,0.0015811189889245,-0.001581118988925,0.0015811189889237,-0.0015811189889237,0.001581118988924,-0.0015048011439667,0.0015048011439642,-0.0015048011439663,0.0015048011439669,-0.0015048011439652,0.0015048011439656,-0.0015048011439661,0.0015048011439644,-7.8321136754799e-17,-6.8500848522569e-16,-0.001540613974343,0.0015406139743424,1.2781962460997e-16,-9.6273529497994e-16,-0.0015811189889242,0.0015811189889239,-0.0015811189889241,0.0015811189889236,-0.001581118988924,0.0015811189889238,-0.0015811189889247,0.0015811189889238,-0.0015048011439661,0.0015048011439637,-0.0015048011439656,0.0015048011439659,0.57046772862334,0.36658321044994,1270536,32768,0.0063986330749732,0.0063986330749736,0.0063986330749736,31.720941625673,31.696818181851,0.00016896753300539,0.00016896753300539,0.00016896753300539,628216.12830998,0.019381677614033
14731200,0.9990306920586,0.018738522086988,0.0062461740289958,0.0062461740289962,0.0062461740289962,-0.0015400309028591,0.0015400309028591,-3.2743117367299e-16,1.2764315941263e-16,-1.0840845290206e-15,8.9382563541686e-16,-0.0015805066978991,0.0015805066978979,-0.0015805066978986,0.0015805066978984,-0.001580506697899,0.0015805066978987,-0.001580506697898,0.0015805066978993,-0.0015042434253336,0.0015042434253358,-0.0015042434253336,0.0015042434253368,9.6773514223804e-16,-8.9026692060374e-16,-5.7645297799251e-16,7.1603694909213e-16,-0.0015400309028591,0.0015400309028593,-0.0015805066978988,0.0015805066978989,-0.0015805066978984,0.0015805066978995,-0.0015805066979,0.0015805066978987,-0.0015805066978987,0.001580506697899,-0.0015042434253378,0.0015042434253352,-0.0015042434253373,0.0015042434253379,-0.0015042434253362,0.0015042434253366,-0.0015042434253371,0.0015042434253354,-7.711529123961e-17,-6.8409674837274e-16,-0.0015400309028595,0.0015400309028589,1.2837843106823e-16,-9.6067653434425e-16,-0.0015805066978992,0.0015805066978989,-0.0015805066978991,0.0015805066978986,-0.001580506697899,0.0015805066978988,-0.0015805066978997,0.0015805066978988,-0.0015042434253371,0.0015042434253347,-0.0015042434253366,0.0015042434253369,0.57087400104515,0.37698831443163,1270536,32768,0.0063962191058559,0.0063962191058563,0.0063962191058563,31.362956146268,31.33885851269,0.00016610364917014,0.00016610364917014,0.00016610364917014,625015.39651099,0.019374295429793
14817600,0.99906976387911,0.018739076389339,0.006246358796446,0.0062463587964464,0.0062463587964464,-0.0015394461947799,0.0015394461947799,-3.2534300217108e-16,1.2952545485097e-16,-1.0829080943716e-15,8.9544323305918e-16,-0.0015798920487047,0.0015798920487035,-0.0015798920487042,0.0015798920487041,-0.0015798920487046,0.0015798920487044,-0.0015798920487036,0.001579892048705,-0.0015036834538148,0.001503683453817,-0.0015036834538148,0.001503683453818,9.6797042916783e-16,-8.9014927713884e-16,-5.7515889987865e-16,7.1538991003519e-16,-0.0015394461947799,0.0015394461947801,-0.0015798920487045,0.0015798920487046,-0.0015798920487041,0.0015798920487052,-0.0015798920487057,0.0015798920487044,-0.0015798920487044,0.0015798920487047,-0.0015036834538189,0.0015036834538164,-0.0015036834538185,0.0015036834538191,-0.0015036834538174,0.0015036834538178,-0.0015036834538183,0.0015036834538166,-7.4644778476785e-17,-6.8130271608145e-16,-0.0015394461947803,0.0015394461947797,1.3043719170392e-16,-9.5632372614309e-16,-0.0015798920487048,0.0015798920487046,-0.0015798920487048,0.0015798920487043,-0.0015798920487046,0.0015798920487044,-0.0015798920487054,0.0015798920487045,-0.0015036834538183,0.0015036834538159,-0.0015036834538178,0.0015036834538181,0.5714582849958,0.38739341841332,1270536,32768,0.0063937983509618,0.0063937983509622,0.0063937983509622,31.00496971662,30.980898843529,0.00016323975773296,0.00016323975773296,0.00016323975773296,621767.44235323,0.019366892556701
14904000,0.99910651598158,0.018739598486602,0.0062465328288672,0.0062465328288676,0.0062465328288676,-0.0015388598776083,0.0015388598776083,-3.2469596311415e-16,1.3008426130923e-16,-1.0824375205121e-15,8.9641379164458e-16,-0.0015792751975181,0.0015792751975169,-0.0015792751975176,0.0015792751975174,-0.001579275197518,0.0015792751975177,-0.0015792751975169,0.0015792751975183,-0.0015031213395602,0.0015031213395624,-0.0015031213395603,0.0015031213395634,9.6961743767638e-16,-8.8891402075743e-16,-5.7315896097541e-16,7.1580166216233e-16,-0.0015388598776083,0.0015388598776085,-0.0015792751975178,0.0015792751975179,-0.0015792751975174,0.0015792751975185,-0.001579275197519,0.0015792751975177,-0.0015792751975177,0.001579275197518,-0.0015031213395644,0.0015031213395618,-0.0015031213395639,0.0015031213395645,-0.0015031213395629,0.0015031213395632,-0.0015031213395637,0.001503121339562,-7.6321197851559e-17,-6.8303795718868e-16,-0.0015388598776087,0.0015388598776081,1.2723140728549e-16,-9.5844130851122e-16,-0.0015792751975182,0.0015792751975179,-0.0015792751975181,0.0015792751975176,-0.001579275197518,0.0015792751975178,-0.0015792751975187,0.0015792751975178,-0.0015031213395637,0.0015031213395614,-0.0015031213395632,0.0015031213395636,0.57220703724775,0.39779852239501,1270536,32768,0.0063913709246315,0.0063913709246319,0.0063913709246319,30.646983197907,30.622939174367,0.00016037586558325,0.00016037586558325,0.00016037586558325,618477.93334523,0.019359469343794
14990400,0.99914075347746,0.018740085524279,0.0062466951747592,0.0062466951747597,0.0062466951747596,-0.001537913525055,0.001537913525055,-3.2251955901356e-16,1.3246654147338e-16,-1.0800258294817e-15,8.9859019574516e-16,-0.0015783027922684,0.0015783027922672,-0.0015783027922679,0.0015783027922678,-0.0015783027922683,0.0015783027922681,-0.0015783027922673,0.0015783027922687,-0.0015021953948568,0.001502195394859,-0.0015021953948568,0.00150219539486,9.6855864649231e-16,-8.8944341634946e-16,-5.7310013924296e-16,7.1456640578092e-16,-0.001537913525055,0.0015379135250552,-0.0015783027922682,0.0015783027922683,-0.0015783027922678,0.0015783027922689,-0.0015783027922694,0.0015783027922681,-0.0015783027922681,0.0015783027922684,-0.0015021953948609,0.0015021953948584,-0.0015021953948605,0.0015021953948611,-0.0015021953948594,0.0015021953948598,-0.0015021953948603,0.0015021953948586,-8.1556332039451e-17,-6.88067215313e-16,-0.0015379135250554,0.0015379135250548,1.2202568396382e-16,-9.6208825592301e-16,-0.0015783027922685,0.0015783027922683,-0.0015783027922685,0.001578302792268,-0.0015783027922683,0.0015783027922681,-0.0015783027922691,0.0015783027922682,-0.0015021953948603,0.0015021953948579,-0.0015021953948598,0.0015021953948601,0.5729008095498,0.40589663942917,1270536,32768,0.0063874528772854,0.0063874528772858,0.0063874528772858,30.104021314189,30.068038969186,0.00015603217051351,0.00015603217051351,0.00015603217051351,615309.00160543,0.019347487890599
15076800,0.99917256891339,0.018740533729409,0.0062468445764695,0.0062468445764699,0.0062468445764699,-0.0015368319343224,0.0015368319343224,-3.246371413817e-16,1.3002543957678e-16,-1.0818493031876e-15,8.9720788503263e-16,-0.0015771969326729,0.0015771969326717,-0.0015771969326724,0.0015771969326723,-0.0015771969326728,0.0015771969326726,-0.0015771969326718,0.0015771969326732,-0.0015011311118113,0.0015011311118135,-0.0015011311118113,0.0015011311118145,9.6949979421149e-16,-8.8920812941967e-16,-5.7215899152379e-16,7.151546231054e-16,-0.0015368319343224,0.0015368319343226,-0.0015771969326726,0.0015771969326728,-0.0015771969326723,0.0015771969326733,-0.0015771969326738,0.0015771969326725,-0.0015771969326725,0.0015771969326729,-0.0015011311118154,0.0015011311118129,-0.001501131111815,0.0015011311118155,-0.0015011311118139,0.0015011311118143,-0.0015011311118147,0.001501131111813,-8.0644595186503e-17,-6.872143001925e-16,-0.0015368319343228,0.0015368319343222,1.2249625782341e-16,-9.6120592993629e-16,-0.001577196932673,0.0015771969326728,-0.0015771969326729,0.0015771969326725,-0.0015771969326728,0.0015771969326726,-0.0015771969326736,0.0015771969326727,-0.0015011311118148,0.0015011311118124,-0.0015011311118143,0.0015011311118146,0.56732163399081,0.34386733356192,1270536,32768,0.0063829749106806,0.006382974910681,0.006382974910681,29.497933123642,29.457536234506,0.00015118346498913,0.00015118346498913,0.00015118346498913,612391.25603455,0.019333794300874
15163200,0.9992021609837,0.018740941836968,0.0062469806123223,0.0062469806123227,0.0062469806123227,-0.0015353946936095,0.0015353946936094,-3.5031282759535e-16,9.9173440907691e-17,-1.1296125499355e-15,8.5829730901813e-16,-0.001575893196141,0.0015758931961396,-0.0015758931961406,0.0015758931961404,-0.0015758931961409,0.0015758931961405,-0.0015758931961399,0.0015758931961413,-0.0014995706289982,0.0014995706290004,-0.0014995706289983,0.0014995706290017,9.8161707109582e-16,-8.8620822106481e-16,-5.5780648880643e-16,7.2115443981512e-16,-0.0015353946936095,0.0015353946936097,-0.0015758931961411,0.0015758931961413,-0.0015758931961405,0.0015758931961417,-0.0015758931961423,0.001575893196141,-0.0015758931961408,0.0015758931961412,-0.0014995706290022,0.001499570629,-0.001499570629002,0.0014995706290026,-0.001499570629001,0.0014995706290014,-0.001499570629002,0.0014995706290001,4.3233973349438e-17,-5.6133579275332e-16,-0.0015353946936098,0.0015353946936094,2.4963943251023e-16,-8.2356307600746e-16,-0.0015758931961414,0.0015758931961413,-0.0015758931961412,0.001575893196141,-0.0015758931961411,0.0015758931961413,-0.001575893196142,0.0015758931961412,-0.0014995706290018,0.0014995706289998,-0.0014995706290013,0.0014995706290019,0.55537340240738,0.23275390769271,1270536,32768,0.0063770243544296,0.00637702435443,0.00637702435443,28.887773769444,28.847033499826,0.00014630219015555,0.00014630219015555,0.00014630219015555,620871.92206343,0.019315597876688
15249600,0.99922971541967,0.018741326485744,0.0062471088285811,0.0062471088285815,0.0062471088285815,-0.001533624895202,0.0015336248952022,-2.9957908335876e-16,1.7855336884656e-16,-1.1383769880703e-15,1.0167924670999e-15,-0.0015744120537558,0.0015744120537539,-0.0015744120537551,0.001574412053755,-0.0015744120537556,0.0015744120537559,-0.0015744120537544,0.0015744120537566,-0.0014975479359263,0.00149754793593,-0.0014975479359258,0.0014975479359307,1.5065422114637e-15,-5.6274751433208e-16,-7.4585956744337e-17,1.1667878848428e-15,-0.0015336248952018,0.0015336248952027,-0.0015744120537559,0.0015744120537567,-0.0015744120537558,0.0015744120537575,-0.0015744120537566,0.0015744120537569,-0.0015744120537561,0.0015744120537562,-0.0014975479359283,0.0014975479359264,-0.0014975479359279,0.0014975479359302,-0.0014975479359271,0.0014975479359299,-0.0014975479359275,0.0014975479359278,-2.1258174106785e-16,-8.7226747047459e-16,-0.0015336248952027,0.0015336248952019,-2.1205234547582e-17,-1.0598499752519e-15,-0.0015744120537573,0.0015744120537558,-0.0015744120537567,0.0015744120537564,-0.0015744120537571,0.001574412053756,-0.0015744120537581,0.0015744120537562,-0.0014975479359295,0.0014975479359257,-0.0014975479359286,0.0014975479359289,0.56221778995614,0.36033001100347,1270536,32768,0.0063696968638909,0.0063696968638915,0.0063696968638918,28.277234726983,28.236530765145,0.00014141787781586,0.00014141787781586,0.00014141787781586,640737.84499327,0.019293191153917
15336000,0.99925540033019,0.018741693226896,0.0062472310756318,0.0062472310756323,0.0062472310756322,-0.001533072437776,0.0015330724377761,-3.280488018637e-16,1.6390675746695e-16,-1.1704348322546e-15,9.9991062988721e-16,-0.0015735871029739,0.0015735871029728,-0.0015735871029734,0.0015735871029734,-0.0015735871029738,0.0015735871029737,-0.0015735871029729,0.0015735871029743,-0.0014972538434204,0.0014972538434225,-0.00149725384342,0.0014972538434236,9.8738160087574e-16,-1.0667909396808e-15,-6.260985201788e-16,6.03158044524e-16,-0.0015330724377762,0.0015330724377762,-0.0015735871029738,0.0015735871029738,-0.0015735871029735,0.0015735871029744,-0.0015735871029752,0.0015735871029734,-0.0015735871029737,0.0015735871029737,-0.0014972538434246,0.0014972538434218,-0.0014972538434241,0.0014972538434246,-0.0014972538434228,0.0014972538434235,-0.0014972538434242,0.001497253843422,-9.987930169707e-17,-7.4433020239972e-16,-0.0015330724377765,0.0015330724377758,4.3469260279231e-17,-9.8244057535009e-16,-0.0015735871029742,0.0015735871029736,-0.0015735871029738,0.0015735871029735,-0.0015735871029739,0.0015735871029736,-0.0015735871029748,0.0015735871029736,-0.001497253843424,0.0014972538434214,-0.0014972538434235,0.0014972538434236,0.57519198364332,0.51145854706276,1270536,32768,0.0063674099083571,0.0063674099083575,0.0063674099083575,27.666658208272,27.626028030465,0.00013653326566618,0.00013653326566618,0.00013653326566618,620255.64426164,0.019286197401899
15422400,0.99927936762952,0.01874204356243,0.006247347854143,0.0062473478541434,0.0062473478541434,-0.0015326360997981,0.0015326360998012,1.1194952119544e-15,1.7629755540717e-15,5.0098469526145e-16,2.4273082003418e-15,-0.0015728177307177,0.0015728177307218,-0.0015728177307145,0.0015728177307208,-0.001572817730712,0.001572817730723,-0.001572817730713,0.0015728177307169,-0.0014971117578779,0.0014971117578746,-0.0014971117578707,0.0014971117578835,-3.9775255481483e-16,-2.1378170440979e-15,-1.8113564290103e-15,-5.9351128040249e-16,-0.0015326360998008,0.0015326360997972,-0.0015728177307141,0.0015728177307142,-0.0015728177307211,0.001572817730714,-0.0015728177307161,0.0015728177307148,-0.0015728177307143,0.0015728177307148,-0.0014971117578851,0.0014971117578772,-0.0014971117578874,0.0014971117578884,-0.0014971117578744,0.0014971117578674,-0.0014971117578789,0.0014971117578735,-2.2887830204263e-15,-3.0118785774122e-15,-0.0015326360998007,0.0015326360997967,-2.3040472599966e-15,-3.3028402769673e-15,-0.0015728177307179,0.0015728177307122,-0.001572817730717,0.0015728177307157,-0.0015728177307176,0.0015728177307129,-0.001572817730713,0.0015728177307132,-0.0014971117578809,0.0014971117578731,-0.0014971117578758,0.0014971117578705,0.58867567024736,0.62583008418321,1270536,32768,0.0063656036081665,0.0063656036081638,0.0063656036081626,27.056077976105,27.015525295785,0.00013164862380884,0.00013164862380884,0.00013164862380884,595475.09295992,0.019280673797704
15508800,0.99930175475618,0.018742375089234,0.0062474583630778,0.0062474583630782,0.0062474583630782,-0.0015320339828967,0.0015320339828965,-3.8669406911457e-16,-2.6881531728834e-17,-9.0667818395679e-16,5.68512044112e-16,-0.0015719540612478,0.0015719540612466,-0.0015719540612473,0.0015719540612471,-0.0015719540612478,0.0015719540612473,-0.0015719540612469,0.0015719540612478,-0.0014967241393805,0.0014967241393823,-0.0014967241393805,0.0014967241393831,7.8427015873206e-16,-5.6880615277424e-16,-4.7086796824796e-16,8.0238725232611e-16,-0.0015320339828965,0.0015320339828969,-0.0015719540612475,0.0015719540612477,-0.0015719540612471,0.0015719540612482,-0.0015719540612485,0.0015719540612476,-0.0015719540612472,0.0015719540612479,-0.0014967241393842,0.001496724139382,-0.0014967241393839,0.0014967241393848,-0.0014967241393831,0.0014967241393831,-0.0014967241393834,0.0014967241393823,-1.0352624910886e-16,-6.1592236046526e-16,-0.001532033982897,0.0015320339828964,9.3144213331749e-17,-9.8026417124951e-16,-0.0015719540612479,0.0015719540612477,-0.0015719540612478,0.0015719540612474,-0.0015719540612477,0.0015719540612475,-0.0015719540612485,0.0015719540612476,-0.0014967241393837,0.0014967241393815,-0.0014967241393832,0.0014967241393835,0.59620640794453,0.64375042492496,1270536,32768,0.0063631107609456,0.0063631107609461,0.0063631107609461,26.445497406106,26.405022561105,0.00012676397924884,0.00012676397924884,0.00012676397924884,575797.14583872,0.019273051266173
15595200,0.99932290634995,0.018742691932692,0.0062475639775638,0.0062475639775642,0.0062475639775642,-0.0015314109894456,0.0015314109894261,-9.4905924218573e-15,-9.1562496946216e-15,-1.0316861297557e-14,-9.1934250295289e-15,-0.0015712311914676,0.0015712311914336,-0.0015712311914608,0.0015712311914477,-0.001571231191461,0.0015712311914357,-0.0015712311914572,0.0015712311914249,-0.0014961605962616,0.001496160596241,-0.001496160596264,0.0014961605962447,5.0840799789641e-15,3.8939986880719e-15,2.9084993826345e-15,5.0757272929565e-15,-0.0015314109894328,0.0015314109894407,-0.0015712311914463,0.0015712311914514,-0.0015712311914514,0.0015712311914554,-0.001571231191446,0.0015712311914501,-0.00157123119144,0.0015712311914557,-0.001496160596253,0.0014961605962554,-0.0014961605962462,0.0014961605962521,-0.0014961605962384,0.0014961605962579,-0.0014961605962526,0.0014961605962478,-7.7588217968494e-15,-8.3782146395291e-15,-0.0015314109894443,0.0015314109894278,-7.6003854605001e-15,-9.8594635060401e-15,-0.0015712311914535,0.0015712311914419,-0.0015712311914562,0.0015712311914428,-0.0015712311914548,0.0015712311914294,-0.0015712311914559,0.0015712311914425,-0.0014961605962609,0.0014961605962494,-0.0014961605962653,0.0014961605962431,0.60297826923314,0.6616707656667,1270536,32768,0.0063605312812674,0.0063605312812711,0.0063605312812683,26.013589783066,25.984598663751,0.00012330871826453,0.00012330871826453,0.00012330871826453,567658.53086365,0.019265164161454
15681600,0.99934319244112,0.018743001767753,0.0062476672559174,0.0062476672559179,0.0062476672559178,-0.0015312271849756,0.0015312271849745,-6.5542115380424e-16,-2.5222758873795e-16,-1.1641997286151e-15,2.3637513184315e-16,-0.0015709633223342,0.0015709633223335,-0.0015709633223349,0.0015709633223322,-0.0015709633223368,0.0015709633223324,-0.0015709633223344,0.0015709633223346,-0.0014960238487711,0.0014960238487721,-0.0014960238487707,0.0014960238487717,1.0082633158949e-15,-2.3352227781941e-16,-7.6115321787991e-16,1.4951307953687e-15,-0.0015312271849748,0.0015312271849753,-0.0015709633223356,0.0015709633223362,-0.0015709633223334,0.0015709633223354,-0.0015709633223342,0.0015709633223338,-0.0015709633223337,0.0015709633223338,-0.0014960238487718,0.0014960238487703,-0.0014960238487713,0.0014960238487743,-0.0014960238487699,0.0014960238487741,-0.0014960238487744,0.0014960238487718,-9.7897009313565e-16,-1.5621875703597e-15,-0.0015312271849763,0.001531227184974,-3.8031191114394e-16,-2.4318668846066e-15,-0.0015709633223379,0.0015709633223339,-0.0015709633223347,0.0015709633223328,-0.0015709633223361,0.0015709633223336,-0.0015709633223354,0.0015709633223354,-0.0014960238487756,0.0014960238487699,-0.0014960238487744,0.0014960238487722,0.61476856726375,0.74490643687557,1270536,32768,0.0063597701839843,0.0063597701839844,0.0063597701839848,25.825200386419,25.812172380998,0.00012180160309135,0.00012180160309135,0.00012180160309135,560603.56407849,0.019262837194562
15768000,0.9993626713595,0.018743306863201,0.0062477689544,0.0062477689544005,0.0062477689544004,-0.0015312778221598,0.0015312778221594,-4.7769128921196e-16,-9.4702989241627e-17,-8.0509305201872e-16,2.6458015255207e-16,-0.0015708432761344,0.0015708432761331,-0.0015708432761339,0.0015708432761337,-0.0015708432761346,0.0015708432761337,-0.0015708432761336,0.0015708432761342,-0.0014962037168837,0.0014962037168853,-0.0014962037168837,0.0014962037168861,6.9150828666122e-16,-2.5928619663173e-16,-8.4415068236434e-16,1.3719580876222e-15,-0.0015312778221595,0.00153127782216,-0.0015708432761342,0.001570843276134,-0.0015708432761335,0.0015708432761349,-0.0015708432761351,0.0015708432761341,-0.0015708432761335,0.0015708432761347,-0.0014962037168876,0.001496203716885,-0.0014962037168864,0.0014962037168886,-0.0014962037168861,0.0014962037168863,-0.0014962037168861,0.0014962037168859,-2.7678566203508e-16,-8.109164035311e-16,-0.0015312778221602,0.0015312778221592,3.8604703005764e-16,-1.6240680328952e-15,-0.0015708432761345,0.0015708432761341,-0.0015708432761347,0.0015708432761336,-0.0015708432761342,0.001570843276134,-0.0015708432761353,0.0015708432761337,-0.0014962037168873,0.0014962037168844,-0.0014962037168868,0.0014962037168865,0.63036517296753,0.85079767970515,1270536,32768,0.0063599798313726,0.006359979831373,0.006359979831373,25.651305476408,25.639746098245,0.00012041044381127,0.00012041044381127,0.00012041044381127,547173.94262259,0.019263478452988
15854400,0.99938138223918,0.018743603662851,0.0062478678876167,0.0062478678876171,0.0062478678876171,-0.0015314056052338,0.0015314056052335,-6.3506883437716e-16,6.8527318302171e-17,-8.3391570091835e-16,3.7131218607936e-16,-0.0015707652728576,0.0015707652728562,-0.001570765272857,0.001570765272857,-0.0015707652728578,0.0015707652728568,-0.0015707652728567,0.0015707652728576,-0.0014964880859868,0.0014964880859884,-0.0014964880859866,0.0014964880859889,7.2021329209595e-16,-3.6387123692466e-16,-8.4697412552185e-16,1.4041923970038e-15,-0.0015314056052335,0.001531405605234,-0.0015707652728575,0.0015707652728572,-0.0015707652728568,0.0015707652728582,-0.0015707652728584,0.0015707652728573,-0.0015707652728568,0.001570765272858,-0.0014964880859905,0.0014964880859877,-0.0014964880859885,0.0014964880859912,-0.0014964880859891,0.0014964880859894,-0.0014964880859892,0.0014964880859892,-1.3734874526658e-16,-9.9861655177335e-16,-0.0015314056052342,0.0015314056052332,4.3925128705705e-16,-1.5943042362764e-15,-0.0015707652728577,0.0015707652728574,-0.0015707652728579,0.0015707652728568,-0.0015707652728576,0.0015707652728571,-0.0015707652728586,0.0015707652728569,-0.00149648808599,0.0014964880859875,-0.0014964880859896,0.0014964880859893,0.63828243536392,0.83445296742268,1270536,32768,0.0063605088667921,0.0063605088667925,0.0063605088667925,25.478730132643,25.467319815493,0.00011902984106115,0.00011902984106115,0.00011902984106115,531229.75563882,0.0192650964197
15940800,0.99939936075627,0.018743891502634,0.0062479638342112,0.0062479638342116,0.0062479638342116,-0.0015311716476209,0.0015311716476207,-4.3613373523729e-16,-1.8234737058947e-17,-9.2426588195881e-16,5.4136581458715e-16,-0.0015704887076888,0.0015704887076875,-0.0015704887076883,0.0015704887076881,-0.0015704887076888,0.0015704887076882,-0.0015704887076878,0.0015704887076888,-0.0014962550085627,0.0014962550085643,-0.0014962550085628,0.0014962550085654,8.1044582967151e-16,-5.356895174059e-16,-1.1835520785905e-15,1.5068951418584e-15,-0.0015311716476207,0.0015311716476211,-0.0015704887076888,0.0015704887076884,-0.0015704887076879,0.0015704887076895,-0.0015704887076898,0.0015704887076883,-0.001570488707688,0.0015704887076892,-0.0014962550085671,0.0014962550085635,-0.0014962550085651,0.0014962550085675,-0.0014962550085649,0.0014962550085654,-0.001496255008565,0.0014962550085646,-3.6387123692466e-16,-9.3788311302057e-16,-0.0015311716476215,0.0015311716476204,5.6971788962719e-16,-1.910000474326e-15,-0.0015704887076889,0.0015704887076886,-0.0015704887076893,0.0015704887076878,-0.0015704887076887,0.0015704887076884,-0.0015704887076899,0.001570488707688,-0.0014962550085664,0.0014962550085629,-0.0014962550085657,0.001496255008565,0.64410237130316,0.81810825514021,1270536,32768,0.0063595399745919,0.0063595399745924,0.0063595399745924,25.306283478461,25.29489353274,0.00011765026782768,0.00011765026782768,0.00011765026782768,526480.06825971,0.019262134491707
16027200,0.99941664059061,0.018744170033373,0.0062480566777906,0.006248056677791,0.006248056677791,-0.0015308900329184,0.0015308900329183,-2.2558134393891e-16,5.5733591494684e-17,-1.1020839791498e-15,9.055899819065e-16,-0.0015701911599027,0.0015701911599015,-0.0015701911599022,0.001570191159902,-0.0015701911599026,0.0015701911599023,-0.0015701911599016,0.0015701911599029,-0.0014959563406378,0.0014959563406402,-0.001495956340638,0.0014959563406412,9.8002888431972e-16,-9.0720757954883e-16,-1.2737257944337e-15,1.408545205205e-15,-0.0015308900329184,0.0015308900329185,-0.0015701911599027,0.0015701911599023,-0.0015701911599018,0.0015701911599034,-0.0015701911599039,0.0015701911599021,-0.0015701911599021,0.0015701911599029,-0.0014959563406427,0.0014959563406388,-0.0014959563406409,0.0014959563406428,-0.0014959563406402,0.0014959563406411,-0.0014959563406411,0.0014959563406398,-4.3613373523729e-16,-8.6867934479524e-16,-0.001530890032919,0.0015308900329179,5.4257166010234e-16,-1.9334703455728e-15,-0.0015701911599028,0.0015701911599025,-0.0015701911599032,0.0015701911599018,-0.0015701911599026,0.0015701911599024,-0.0015701911599038,0.001570191159902,-0.0014959563406418,0.0014959563406385,-0.0014959563406415,0.0014959563406406,0.64842863442535,0.80176354285775,1270536,32768,0.0063583738252274,0.0063583738252278,0.0063583738252278,25.133849583073,25.122467249987,0.00011627079666459,0.00011627079666459,0.00011627079666459,523478.32927825,0.019258569218114
16113600,0.99943325365938,0.018744439146538,0.0062481463821791,0.0062481463821796,0.0062481463821795,-0.0015305783614955,0.0015305783614947,-6.032756879889e-16,-3.386661245706e-16,-1.0020870339878e-15,4.6992682052879e-16,-0.0015698802421964,0.0015698802421989,-0.0015698802421972,0.0015698802421971,-0.0015698802421943,0.0015698802421957,-0.0015698802421967,0.001569880242196,-0.0014956180720736,0.0014956180720766,-0.0014956180720734,0.0014956180720734,-1.4026042102277e-15,-2.7312106810355e-15,-2.9876734345098e-15,-3.7592969207654e-16,-0.0015305783614971,0.0015305783614932,-0.0015698802421968,0.0015698802421925,-0.0015698802422008,0.001569880242194,-0.0015698802421993,0.0015698802422007,-0.0015698802421995,0.0015698802421949,-0.0014956180720899,0.0014956180720811,-0.0014956180720865,0.0014956180720817,-0.0014956180720805,0.0014956180720733,-0.0014956180720798,0.0014956180720787,1.5802458422213e-16,-2.3093412159169e-16,-0.0015305783614957,0.0015305783614954,1.0938783474732e-15,-1.2737257944337e-15,-0.0015698802421982,0.0015698802421976,-0.0015698802421947,0.0015698802421958,-0.001569880242196,0.0015698802421947,-0.0015698802421964,0.0015698802421988,-0.0014956180720837,0.0014956180720728,-0.0014956180720753,0.0014956180720785,0.65162100525655,0.78541883057528,1270536,32768,0.0063570832710563,0.0063570832710564,0.0063570832710582,24.961416960688,24.950040967235,0.0001148913356855,0.0001148913356855,0.0001148913356855,521568.15514167,0.019254623431582
16200000,0.9994492302292,0.018744698867171,0.0062482329557234,0.0062482329557238,0.0062482329557238,-0.0015302462791549,0.0015302462791563,6.8321442238602e-16,9.4905924218573e-16,-1.7858277971278e-16,1.572069621411e-15,-0.0015695598750366,0.0015695598750363,-0.0015695598750373,0.0015695598750389,-0.0015695598750369,0.0015695598750368,-0.0015695598750379,0.001569559875038,-0.0014952542736742,0.0014952542736786,-0.001495254273678,0.0014952542736791,-6.6762666328724e-16,-2.2682836466681e-15,-2.5249816870721e-15,9.5291206566109e-18,-0.0015302462791576,0.0015302462791546,-0.0015695598750375,0.0015695598750342,-0.0015695598750367,0.0015695598750344,-0.0015695598750381,0.0015695598750357,-0.0015695598750374,0.0015695598750349,-0.0014952542736838,0.0014952542736789,-0.0014952542736835,0.0014952542736849,-0.0014952542736837,0.001495254273679,-0.0014952542736824,0.0014952542736786,-1.6173035336637e-16,-5.5474775871912e-16,-0.0015302462791561,0.0015302462791557,6.7183241715729e-16,-1.6634785936355e-15,-0.0015695598750367,0.0015695598750377,-0.0015695598750374,0.001569559875036,-0.0015695598750356,0.0015695598750362,-0.0015695598750343,0.0015695598750372,-0.0014952542736806,0.0014952542736766,-0.0014952542736806,0.0014952542736827,0.65391489116199,0.76907411829281,1270536,32768,0.0063557082375851,0.006355708237587,0.0063557082375863,24.788984462974,24.777614684482,0.00011351187570379,0.00011351187570379,0.00011351187570379,520395.26591012,0.019250419252914
16286400,0.99946459901141,0.018744949307152,0.0062483164357172,0.0062483164357176,0.0062483164357176,-0.0015298995577829,0.0015298995577837,1.7578874742149e-16,4.2531053646682e-16,-6.3845108399293e-16,1.0474680005716e-15,-0.0015692326129413,0.0015692326129405,-0.0015692326129401,0.001569232612941,-0.0015692326129409,0.0015692326129401,-0.0015692326129405,0.0015692326129411,-0.001494873053266,0.0014948730532722,-0.0014948730532684,0.0014948730532712,6.7821457512792e-16,-8.7309097472886e-16,-1.371016939903e-15,1.1126718909904e-15,-0.0015298995577834,0.001529899557783,-0.0015692326129402,0.0015692326129404,-0.0015692326129407,0.0015692326129416,-0.0015692326129424,0.00156923261294,-0.0015692326129405,0.0015692326129406,-0.0014948730532746,0.001494873053272,-0.0014948730532741,0.0014948730532765,-0.0014948730532717,0.0014948730532739,-0.0014948730532759,0.0014948730532728,-5.0730803149963e-16,-9.145014743724e-16,-0.0015298995577838,0.0015298995577827,4.1836957203793e-16,-1.8705310918532e-15,-0.0015692326129431,0.0015692326129412,-0.0015692326129418,0.0015692326129406,-0.0015692326129398,0.0015692326129414,-0.0015692326129414,0.0015692326129394,-0.0014948730532735,0.0014948730532719,-0.0014948730532742,0.0014948730532729,0.65547440781744,0.75272940601034,1270536,32768,0.0063542726151735,0.0063542726151731,0.0063542726151734,24.616551978638,24.605188401729,0.0001121324158291,0.0001121324158291,0.0001121324158291,519752.81640689,0.019246029757728
16372800,0.99947941117391,0.018745186417747,0.0062483954725819,0.0062483954725824,0.0062483954725823,-0.0015295942750214,0.0015295942750199,-1.067996785196e-15,-8.0559303674453e-16,-1.7149476095277e-15,2.9763796618797e-17,-0.0015689517684295,0.0015689517684255,-0.0015689517684284,0.0015689517684265,-0.0015689517684275,0.0015689517684267,-0.0015689517684283,0.0015689517684296,-0.0014945321289137,0.0014945321289141,-0.0014945321289116,0.0014945321289152,8.289746753927e-16,-7.7491750327279e-16,-1.322724297563e-15,1.2259625476857e-15,-0.0015295942750206,0.0015295942750208,-0.0015689517684274,0.0015689517684272,-0.0015689517684266,0.001568951768428,-0.0015689517684286,0.0015689517684271,-0.001568951768425,0.001568951768429,-0.0014945321289195,0.0014945321289136,-0.0014945321289187,0.0014945321289192,-0.0014945321289173,0.0014945321289181,-0.0014945321289149,0.0014945321289149,-8.4553299307687e-16,-1.2326094034524e-15,-0.0015295942750216,0.0015295942750197,1.5878926674396e-16,-2.1811686609123e-15,-0.0015689517684299,0.0015689517684259,-0.0015689517684288,0.0015689517684256,-0.0015689517684277,0.0015689517684267,-0.0015689517684294,0.0015689517684271,-0.0014945321289185,0.0014945321289157,-0.0014945321289174,0.0014945321289169,0.64393186265245,0.58998981146423,1270536,32768,0.0063530085776088,0.006353008577609,0.0063530085776089,24.471386868425,24.461764259665,0.0001109710949474,0.0001109710949474,0.0001109710949474,519494.0450791,0.01924216487756
16459200,0.99949371921008,0.018745415229258,0.0062484717430859,0.0062484717430863,0.0062484717430862,-0.0015288340753909,0.0015288340753906,-3.6534178023587e-16,-1.829944096464e-16,-8.010343524798e-16,2.6587423066593e-16,-0.001568456458093,0.0015684564580918,-0.0015684564580926,0.0015684564580923,-0.0015684564580932,0.0015684564580924,-0.0015684564580923,0.0015684564580929,-0.0014935166562974,0.0014935166562992,-0.0014935166562978,0.0014935166563,6.8697901326271e-16,-2.5934501836418e-16,-1.0696143828383e-15,1.5337178518548e-15,-0.0015288340753906,0.0015288340753911,-0.0015684564580929,0.0015684564580926,-0.0015684564580921,0.0015684564580936,-0.0015684564580938,0.0015684564580927,-0.0015684564580921,0.0015684564580935,-0.0014935166563019,0.0014935166562986,-0.0014935166563001,0.0014935166563026,-0.0014935166563,0.0014935166563003,-0.0014935166563,0.0014935166563,-4.7280908541875e-16,-8.0694593659084e-16,-0.0015288340753914,0.0015288340753903,5.2963087896373e-16,-1.8663547488494e-15,-0.0015684564580932,0.0015684564580927,-0.0015684564580935,0.001568456458092,-0.0015684564580929,0.0015684564580927,-0.0015684564580941,0.0015684564580923,-0.0014935166563013,0.0014935166562982,-0.001493516656301,0.0014935166563001,0.64329317744776,0.60381365367301,1270536,32768,0.0063498608255042,0.0063498608255047,0.0063498608255046,24.360392456783,24.353004949122,0.00011008313965426,0.00011008313965426,0.00011008313965426,535705.12564184,0.019232540507237
16545600,0.99950754443282,0.018745642728067,0.0062485475760221,0.0062485475760225,0.0062485475760225,-0.0015286298875292,0.0015286298875288,-3.4581296506306e-16,-1.6223033809218e-16,-8.4973874694692e-16,3.4407772395584e-16,-0.0015682680167086,0.0015682680167074,-0.0015682680167082,0.0015682680167079,-0.0015682680167087,0.001568268016708,-0.0015682680167078,0.0015682680167085,-0.0014933024633176,0.0014933024633195,-0.0014933024633178,0.0014933024633202,7.202721138284e-16,-3.5340096854888e-16,-1.0394388340924e-15,1.44254416656e-15,-0.0015286298875289,0.0015286298875293,-0.0015682680167085,0.0015682680167082,-0.0015682680167077,0.0015682680167092,-0.0015682680167094,0.0015682680167083,-0.0015682680167077,0.001568268016709,-0.0014933024633219,0.0014933024633187,-0.0014933024633203,0.0014933024633226,-0.00149330246332,0.0014933024633204,-0.0014933024633202,0.0014933024633199,-4.4936862503814e-16,-7.811526069123e-16,-0.0015286298875296,0.0015286298875286,4.7772070007818e-16,-1.7961804220387e-15,-0.0015682680167088,0.0015682680167084,-0.0015682680167091,0.0015682680167077,-0.0015682680167085,0.0015682680167083,-0.0015682680167096,0.001568268016708,-0.0014933024633212,0.0014933024633182,-0.001493302463321,0.0014933024633202,0.66201634997778,0.86115756838161,1270536,32768,0.0063490155008151,0.0063490155008156,0.0063490155008155,24.251426850355,24.244245638579,0.00010921141480284,0.00010921141480284,0.00010921141480284,534988.41695731,0.019229955552433
16632000,0.99952090562759,0.018745866935767,0.0062486223119222,0.0062486223119227,0.0062486223119226,-0.0015292238077217,0.0015292238077213,-3.7998839161547e-16,-2.8587361969833e-16,-7.2897773023073e-16,1.1184952425028e-16,-0.0015685090235596,0.0015685090235585,-0.0015685090235592,0.001568509023559,-0.0015685090235599,0.0015685090235589,-0.001568509023559,0.0015685090235594,-0.0014942350740845,0.001494235074086,-0.001494235074085,0.0014942350740868,6.0445212263786e-16,-1.2623143783387e-16,-8.9409033321287e-16,1.5234240486763e-15,-0.0015292238077213,0.0015292238077219,-0.0015685090235595,0.0015685090235593,-0.0015685090235588,0.0015685090235602,-0.0015685090235603,0.0015685090235594,-0.0015685090235587,0.0015685090235601,-0.0014942350740886,0.0014942350740859,-0.001494235074087,0.0014942350740897,-0.0014942350740874,0.0014942350740873,-0.0014942350740872,0.0014942350740873,-5.003082453383e-16,-7.57359216137e-16,-0.0015292238077221,0.0015292238077211,4.7357376794058e-16,-1.7335940987138e-15,-0.0015685090235598,0.0015685090235594,-0.0015685090235601,0.0015685090235588,-0.0015685090235595,0.0015685090235593,-0.0015685090235606,0.0015685090235591,-0.0014942350740884,0.0014942350740854,-0.001494235074088,0.0014942350740871,0.67506639252134,0.93222290768541,1270536,32768,0.0063514749894276,0.0063514749894281,0.006351474989428,24.142645241475,24.135486328037,0.0001083411619318,0.0001083411619318,0.0001083411619318,509382.18142155,0.019237475012589
16718400,0.99953382063441,0.018746086190659,0.0062486953968862,0.0062486953968866,0.0062486953968866,-0.0015293332468142,0.0015293332468138,-3.0649063692143e-16,-2.3746333389345e-16,-7.6291786985335e-16,1.8317087484374e-16,-0.0015684750978653,0.0015684750978643,-0.0015684750978651,0.0015684750978647,-0.0015684750978656,0.0015684750978648,-0.0015684750978647,0.0015684750978652,-0.0014944598027986,0.0014944598028003,-0.001494459802799,0.001494459802801,6.8262620506154e-16,-3.9916427639359e-16,-1.0742612997018e-15,1.4250152902905e-15,-0.0015293332468139,0.0015293332468143,-0.0015684750978653,0.001568475097865,-0.0015684750978645,0.0015684750978659,-0.0015684750978662,0.001568475097865,-0.0015684750978644,0.0015684750978657,-0.0014944598028029,0.0014944598027997,-0.0014944598028015,0.0014944598028038,-0.001494459802801,0.0014944598028012,-0.0014944598028013,0.0014944598028008,-4.6507402760181e-16,-8.3635680281495e-16,-0.0015293332468147,0.0015293332468135,5.2304284492953e-16,-1.9368231843224e-15,-0.0015684750978655,0.0015684750978651,-0.0015684750978658,0.0015684750978644,-0.0015684750978652,0.001568475097865,-0.0015684750978664,0.0015684750978646,-0.0014944598028024,0.0014944598027993,-0.0014944598028021,0.0014944598028012,0.68276000704437,0.92268061335184,1270536,32768,0.0063519280558499,0.0063519280558504,0.0063519280558503,24.03388150633,24.026727017494,0.00010747105205064,0.00010747105205064,0.00010747105205064,497936.91238788,0.019238860663915
16804800,0.99954630651812,0.018746299910474,0.0062487666368245,0.0062487666368249,0.0062487666368249,-0.001529214964393,0.0015292149643927,-3.3340157951648e-16,-1.8725898524889e-16,-8.2373954120481e-16,2.9790266398399e-16,-0.0015683182967645,0.0015683182967633,-0.0015683182967641,0.0015683182967638,-0.0015683182967646,0.0015683182967639,-0.0015683182967637,0.0015683182967643,-0.0014943538136099,0.0014943538136118,-0.0014943538136103,0.0014943538136126,6.74155875589e-16,-3.2204898515398e-16,-1.0534972281475e-15,1.4606024384216e-15,-0.0015292149643927,0.0015292149643932,-0.0015683182967644,0.0015683182967641,-0.0015683182967637,0.0015683182967651,-0.0015683182967653,0.0015683182967642,-0.0015683182967636,0.0015683182967649,-0.0014943538136143,0.0014943538136111,-0.0014943538136127,0.001494353813615,-0.0014943538136125,0.0014943538136127,-0.0014943538136125,0.0014943538136123,-4.9204379192932e-16,-8.018872676003e-16,-0.0015292149643935,0.0015292149643924,5.1301373954711e-16,-1.8624725145078e-15,-0.0015683182967647,0.0015683182967643,-0.001568318296765,0.0015683182967636,-0.0015683182967644,0.0015683182967642,-0.0015683182967656,0.0015683182967638,-0.0014943538136137,0.0014943538136106,-0.0014943538136135,0.0014943538136125,0.68830319841899,0.90750452155707,1270536,32768,0.0063514381482075,0.006351438148208,0.006351438148208,23.925119536555,23.917967706951,0.00010660095629244,0.00010660095629244,0.00010660095629244,493452.3042354,0.019237363244235
16891200,0.99955837961697,0.018746507833571,0.0062488359445233,0.0062488359445237,0.0062488359445237,-0.0015290432927633,0.001529043292763,-3.3107812108478e-16,-1.7111241969186e-16,-8.3562153115935e-16,3.6034193297777e-16,-0.0015681365912407,0.0015681365912396,-0.0015681365912403,0.00156813659124,-0.0015681365912408,0.0015681365912401,-0.0015681365912399,0.0015681365912406,-0.0014941708629891,0.001494170862991,-0.0014941708629894,0.0014941708629917,7.1474287097826e-16,-4.005171762399e-16,-1.0613793402956e-15,1.4306621766055e-15,-0.0015290432927631,0.0015290432927635,-0.0015681365912407,0.0015681365912404,-0.0015681365912399,0.0015681365912413,-0.0015681365912416,0.0015681365912404,-0.0015681365912399,0.0015681365912411,-0.0014941708629935,0.0014941708629902,-0.0014941708629919,0.0014941708629941,-0.0014941708629916,0.0014941708629919,-0.0014941708629918,0.0014941708629914,-4.5780954364446e-16,-7.628590481209e-16,-0.0015290432927638,0.0015290432927627,4.9883770202709e-16,-1.7916511486402e-15,-0.0015681365912409,0.0015681365912405,-0.0015681365912412,0.0015681365912398,-0.0015681365912406,0.0015681365912404,-0.0015681365912417,0.0015681365912401,-0.0014941708629928,0.0014941708629898,-0.0014941708629925,0.0014941708629917,0.69248942078767,0.8923284297623,1270536,32768,0.0063507272247755,0.006350727224776,0.0063507272247759,23.816357742068,23.809208396408,0.00010573086193654,0.00010573086193654,0.00010573086193654,490810.98242295,0.019235189901963
16977600,0.99957005557743,0.018746709679494,0.0062489032264977,0.0062489032264981,0.0062489032264981,-0.0015288453503744,0.0015288453503741,-3.0610829566051e-16,-1.4270152291937e-16,-8.6656176242711e-16,4.2019304574383e-16,-0.0015679432972014,0.0015679432972002,-0.001567943297201,0.0015679432972007,-0.0015679432972015,0.0015679432972008,-0.0015679432972006,0.0015679432972013,-0.0014939513238929,0.0014939513238949,-0.0014939513238932,0.0014939513238956,7.382127422251e-16,-4.3133976404276e-16,-1.0326743348609e-15,1.3970161456451e-15,-0.0015288453503742,0.0015288453503746,-0.0015679432972013,0.001567943297201,-0.0015679432972006,0.001567943297202,-0.0015679432972023,0.0015679432972011,-0.0015679432972006,0.0015679432972018,-0.0014939513238973,0.0014939513238941,-0.0014939513238957,0.0014939513238979,-0.0014939513238954,0.0014939513238957,-0.0014939513238956,0.0014939513238952,-4.3063390325338e-16,-7.498006235174e-16,-0.0015288453503749,0.0015288453503739,4.761619241683e-16,-1.7361234332091e-15,-0.0015679432972016,0.0015679432972012,-0.0015679432972018,0.0015679432972005,-0.0015679432972012,0.0015679432972011,-0.0015679432972024,0.0015679432972008,-0.0014939513238966,0.0014939513238937,-0.0014939513238963,0.0014939513238956,0.69509195317659,0.87068888535429,1270536,32768,0.0063499075631002,0.0063499075631006,0.0063499075631006,23.707595965187,23.700449085866,0.00010486076772149,0.00010486076772149,0.00010486076772149,489110.25297421,0.019232683971921
17064000,0.99958134938623,0.018746904222312,0.0062489680741038,0.0062489680741043,0.0062489680741042,-0.0015286107980452,0.0015286107980449,-3.0525538054001e-16,-1.2984897437944e-16,-8.9761963715977e-16,4.7192675943203e-16,-0.0015677318552188,0.0015677318552177,-0.0015677318552184,0.0015677318552182,-0.0015677318552189,0.0015677318552183,-0.001567731855218,0.0015677318552188,-0.0014936811835641,0.0014936811835661,-0.0014936811835643,0.0014936811835668,7.6344726544539e-16,-4.8527929269778e-16,-1.0177924365515e-15,1.362487788698e-15,-0.001528610798045,0.0015286107980454,-0.0015677318552187,0.0015677318552185,-0.001567731855218,0.0015677318552194,-0.0015677318552197,0.0015677318552185,-0.0015677318552181,0.0015677318552192,-0.0014936811835685,0.0014936811835653,-0.001493681183567,0.001493681183569,-0.0014936811835666,0.0014936811835669,-0.0014936811835669,0.0014936811835663,-4.19428363222e-16,-7.4656542823275e-16,-0.0015286107980457,0.0015286107980447,4.6419170161509e-16,-1.7084772189584e-15,-0.001567731855219,0.0015677318552186,-0.0015677318552193,0.001567731855218,-0.0015677318552187,0.0015677318552185,-0.0015677318552198,0.0015677318552183,-0.0014936811835677,0.0014936811835648,-0.0014936811835675,0.0014936811835668,0.69260577099252,0.80100918283415,1270536,32768,0.0063489363381655,0.006348936338166,0.0063489363381659,23.598834190257,23.591689775323,0.00010399067352205,0.00010399067352205,0.00010399067352205,488620.94225889,0.019229714557687
17150400,0.9995921795793,0.01874709029773,0.0062490300992431,0.0062490300992436,0.0062490300992435,-0.0015279313529171,0.0015279313529169,-2.9352044491659e-16,-1.152905955985e-16,-9.2655992952429e-16,5.2286637973219e-16,-0.0015671545518391,0.001567154551838,-0.0015671545518387,0.0015671545518385,-0.0015671545518391,0.0015671545518386,-0.0015671545518383,0.0015671545518391,-0.0014928965290514,0.0014928965290535,-0.0014928965290517,0.0014928965290542,7.9409338805091e-16,-5.3651302166017e-16,-9.8155824936337e-16,1.2949604398475e-15,-0.0015279313529169,0.0015279313529173,-0.001567154551839,0.0015671545518388,-0.0015671545518383,0.0015671545518397,-0.00156715455184,0.0015671545518388,-0.0015671545518384,0.0015671545518394,-0.0014928965290558,0.0014928965290526,-0.0014928965290544,0.0014928965290563,-0.0014928965290539,0.0014928965290543,-0.0014928965290543,0.0014928965290536,-4.0445823231393e-16,-7.3427168615107e-16,-0.0015279313529176,0.0015279313529166,4.2563405599529e-16,-1.6444791740548e-15,-0.0015671545518393,0.0015671545518389,-0.0015671545518395,0.0015671545518383,-0.001567154551839,0.0015671545518388,-0.0015671545518401,0.0015671545518386,-0.001492896529055,0.0014928965290522,-0.0014928965290548,0.0014928965290541,0.69082169732878,0.76411669621495,1270536,32768,0.0063461230543859,0.0063461230543863,0.0063461230543863,23.342765805107,23.326282563942,0.00010194212644085,0.00010194212644085,0.00010194212644085,493246.88572378,0.019221112876427
17236800,0.99960246368857,0.018747265908777,0.0062490886362586,0.006249088636259,0.006249088636259,-0.0015269877534244,0.0015269877534241,-3.0793176936641e-16,-1.3023131564035e-16,-9.5891188237081e-16,5.1510191104902e-16,-0.0015662859995737,0.0015662859995725,-0.0015662859995733,0.0015662859995731,-0.0015662859995738,0.0015662859995732,-0.0015662859995729,0.0015662859995737,-0.0014918797252991,0.0014918797253013,-0.0014918797252994,0.001491879725302,7.5850623991974e-16,-5.9445242812166e-16,-1.0232628576692e-15,1.2297271385624e-15,-0.0015269877534242,0.0015269877534245,-0.0015662859995739,0.0015662859995735,-0.0015662859995732,0.0015662859995744,-0.0015662859995748,0.0015662859995735,-0.0015662859995732,0.0015662859995742,-0.0014918797253036,0.0014918797253004,-0.0014918797253022,0.001491879725304,-0.0014918797253018,0.0014918797253021,-0.0014918797253022,0.0014918797253015,-4.0251711514314e-16,-7.3215410378294e-16,-0.0015269877534248,0.0015269877534238,4.2039892180739e-16,-1.6275973368421e-15,-0.0015662859995741,0.0015662859995737,-0.0015662859995743,0.0015662859995732,-0.0015662859995739,0.0015662859995735,-0.0015662859995749,0.0015662859995734,-0.0014918797253027,0.0014918797253001,-0.0014918797253027,0.0014918797253021,0.68663144480956,0.70801212796206,1270536,32768,0.0063422161664887,0.0063422161664892,0.0063422161664891,22.916767709994,22.889233421599,9.8534141679948e-05,9.8534141679948e-05,9.8534141679948e-05,496106.09054054,0.019209167218242
17323200,0.99961222894765,0.018747431334313,0.0062491437781041,0.0062491437781045,0.0062491437781045,-0.001525951429872,0.0015259514298758,1.5112185391933e-15,1.6043039307926e-15,8.9303154202881e-16,2.2978121563571e-15,-0.0015653547704094,0.0015653547704123,-0.0015653547704094,0.0015653547704133,-0.0015653547704073,0.0015653547704131,-0.001565354770409,0.0015653547704169,-0.001490744734725,0.001490744734729,-0.001490744734726,0.0014907447347305,-9.3379500261542e-16,-2.1561106028893e-15,-2.5173348618538e-15,-2.9316751452191e-16,-0.0015259514298752,0.0015259514298729,-0.0015653547704142,0.0015653547704126,-0.0015653547704143,0.0015653547704096,-0.0015653547704148,0.0015653547704118,-0.0015653547704147,0.0015653547704126,-0.00149074473473,0.0014907447347298,-0.0014907447347305,0.0014907447347317,-0.001490744734725,0.0014907447347273,-0.0014907447347337,0.0014907447347236,-1.9882039676159e-15,-2.2625485277544e-15,-0.001525951429876,0.0015259514298713,-1.2784609438957e-15,-3.2981933601039e-15,-0.0015653547704134,0.0015653547704123,-0.001565354770416,0.0015653547704079,-0.0015653547704138,0.0015653547704078,-0.0015653547704134,0.0015653547704114,-0.001490744734729,0.0014907447347239,-0.0014907447347276,0.001490744734724,0.68120080206442,0.65061669061448,1270536,32768,0.0063379253524285,0.006337925352429,0.0063379253524275,22.480687852128,22.452184279256,9.5045502817021e-05,9.5045502817021e-05,9.5045502817021e-05,501177.61711125,0.019196047741079
17409600,0.99962150634642,0.018747586998305,0.0062491956661012,0.0062491956661017,0.0062491956661016,-0.0015248877164799,0.0015248877164798,-1.3508410856733e-16,-1.4114274700949e-16,-1.0079103855002e-15,7.1433111885113e-16,-0.0015644081420519,0.0015644081420508,-0.0015644081420515,0.0015644081420512,-0.0015644081420518,0.0015644081420515,-0.001564408142051,0.001564408142052,-0.0014895755662868,0.0014895755662894,-0.0014895755662873,0.0014895755662898,8.6003255012536e-16,-7.4327141121565e-16,-1.024556935783e-15,1.2224920654713e-15,-0.0015248877164798,0.0015248877164801,-0.0015644081420518,0.0015644081420516,-0.0015644081420511,0.0015644081420525,-0.0015644081420529,0.0015644081420515,-0.0015644081420513,0.0015644081420521,-0.0014895755662915,0.0014895755662881,-0.0014895755662902,0.0014895755662918,-0.0014895755662896,0.00148957556629,-0.0014895755662902,0.0014895755662891,-4.993376867529e-16,-6.4783315031842e-16,-0.0015248877164804,0.0015248877164794,3.9522322031956e-16,-1.6477731910719e-15,-0.0015644081420521,0.0015644081420517,-0.0015644081420524,0.0015644081420511,-0.0015644081420518,0.0015644081420516,-0.0015644081420528,0.0015644081420514,-0.0014895755662906,0.001489575566288,-0.0014895755662906,0.0014895755662897,0.67475899505167,0.5932212532669,1270536,32768,0.00633352113526,0.0063335211352605,0.0063335211352604,22.043696677247,22.015135136913,9.1549573417973e-05,9.1549573417973e-05,9.1549573417973e-05,507156.18970535,0.019182581624829
17496000,0.99963032514516,0.018747735300314,0.0062492451001044,0.0062492451001048,0.0062492451001048,-0.0015238034572779,0.0015238034572777,-2.2137559006886e-16,-1.0846727463451e-16,-9.1467793956975e-16,5.5407130879596e-16,-0.001563450431806,0.0015634504318048,-0.0015634504318055,0.0015634504318053,-0.001563450431806,0.0015634504318055,-0.0015634504318051,0.001563450431806,-0.0014883813995932,0.0014883813995956,-0.0014883813995936,0.0014883813995961,7.5997678323094e-16,-5.5768884534153e-16,-7.5709451834098e-16,1.1273773241025e-15,-0.0015238034572777,0.0015238034572781,-0.0015634504318058,0.0015634504318057,-0.0015634504318052,0.0015634504318065,-0.0015634504318068,0.0015634504318057,-0.0015634504318053,0.0015634504318062,-0.0014883813995975,0.0014883813995948,-0.0014883813995966,0.0014883813995982,-0.0014883813995961,0.001488381399596,-0.0014883813995962,0.0014883813995954,-3.9104687731574e-16,-6.336571127984e-16,-0.0015238034572783,0.0015238034572775,2.4411018966009e-16,-1.4216036298085e-15,-0.0015634504318061,0.0015634504318058,-0.0015634504318062,0.0015634504318053,-0.0015634504318058,0.0015634504318056,-0.0015634504318068,0.0015634504318056,-0.0014883813995967,0.0014883813995943,-0.0014883813995967,0.0014883813995962,0.67632390054041,0.64441632657036,1270536,32768,0.0063290318488272,0.0063290318488277,0.0063290318488276,21.606617394141,21.57808599457,8.8052939153125e-05,8.8052939153125e-05,8.8052939153125e-05,513887.17733975,0.019168855522832
17582400,0.99963871257528,0.018747873510145,0.0062492911700482,0.0062492911700486,0.0062492911700486,-0.0015230890269474,0.001523089026947,-3.9763491134994e-16,-2.9004996270215e-16,-1.0992017142598e-15,3.922233119647e-16,-0.0015626896420261,0.0015626896420249,-0.0015626896420257,0.0015626896420254,-0.0015626896420262,0.0015626896420254,-0.0015626896420254,0.0015626896420258,-0.0014877238143888,0.001487723814391,-0.0014877238143894,0.0014877238143918,8.3609210501893e-16,-5.3174846133187e-16,-7.4338905468055e-16,1.1184952425028e-15,-0.0015230890269471,0.0015230890269475,-0.0015626896420255,0.0015626896420256,-0.0015626896420251,0.0015626896420265,-0.0015626896420264,0.0015626896420254,-0.0015626896420252,0.0015626896420261,-0.0014877238143927,0.0014877238143903,-0.001487723814392,0.0014877238143935,-0.0014877238143916,0.0014877238143922,-0.0014877238143922,0.0014877238143911,-2.5281580606243e-16,-5.1021970725582e-16,-0.0015230890269476,0.001523089026947,3.9445853779773e-16,-1.2660789692154e-15,-0.0015626896420259,0.0015626896420257,-0.0015626896420261,0.0015626896420253,-0.0015626896420257,0.0015626896420259,-0.0015626896420265,0.0015626896420254,-0.0014877238143929,0.00148772381439,-0.0014877238143923,0.0014877238143922,0.66278591872146,0.49702562604688,1270536,32768,0.0063260739923601,0.0063260739923605,0.0063260739923605,21.169529471603,21.141036852228,8.4556235772824e-05,8.4556235772824e-05,8.4556235772824e-05,509245.43572454,0.019159811528037
17668800,0.99964669396275,0.01874800363304,0.0062493345443463,0.0062493345443467,0.0062493345443467,-0.0015216833930661,0.001521683393066,-5.735118913701e-17,-1.5558348232553e-16,-1.0907902065197e-15,7.8897589732791e-16,-0.0015615576054671,0.001561557605466,-0.0015615576054667,0.0015615576054664,-0.0015615576054669,0.0015615576054668,-0.0015615576054662,0.0015615576054673,-0.0014860720276701,0.001486072027673,-0.0014860720276709,0.0014860720276736,9.3573611978621e-16,-8.256806583756e-16,-8.9979604126035e-16,1.1164364818671e-15,-0.0015216833930661,0.0015216833930663,-0.001561557605467,0.0015615576054669,-0.0015615576054664,0.0015615576054677,-0.0015615576054682,0.0015615576054667,-0.0015615576054666,0.0015615576054672,-0.001486072027675,0.0014860720276718,-0.001486072027674,0.0014860720276752,-0.0014860720276727,0.0014860720276734,-0.0014860720276737,0.0014860720276725,-5.4268930356723e-16,-5.9454066072034e-16,-0.0015216833930666,0.0015216833930657,3.3187221447283e-16,-1.4794842145375e-15,-0.0015615576054674,0.0015615576054669,-0.0015615576054676,0.0015615576054664,-0.001561557605467,0.0015615576054669,-0.001561557605468,0.0015615576054668,-0.001486072027674,0.0014860720276714,-0.0014860720276742,0.0014860720276732,0.65572844606007,0.46138441579537,1270536,32768,0.0063202538729585,0.0063202538729589,0.0063202538729589,20.732440710785,20.703987709885,8.1059525686278e-05,8.1059525686278e-05,8.1059525686278e-05,525991.85562796,0.019142017111443
17755200,0.9996542970429,0.018748126175352,0.0062493753917836,0.006249375391784,0.006249375391784,-0.0015206477484736,0.0015206477484735,-9.0908987498717e-17,-1.4181919693265e-16,-1.0947900843262e-15,8.9132571178781e-16,-0.0015606330906776,0.0015606330906765,-0.0015606330906773,0.0015606330906769,-0.0015606330906775,0.0015606330906773,-0.0015606330906766,0.0015606330906778,-0.0014849518231519,0.0014849518231547,-0.0014849518231525,0.001484951823155,9.6185296899322e-16,-9.0467824505355e-16,-8.1562214212695e-16,9.2697168165143e-16,-0.0015206477484736,0.0015206477484737,-0.0015606330906775,0.0015606330906775,-0.001560633090677,0.0015606330906782,-0.0015606330906787,0.0015606330906773,-0.0015606330906772,0.0015606330906777,-0.0014849518231566,0.0014849518231536,-0.0014849518231558,0.0014849518231568,-0.0014849518231546,0.0014849518231553,-0.0014849518231555,0.0014849518231537,-4.3063390325338e-16,-5.3213080259278e-16,-0.001520647748474,0.0015206477484732,2.3934562933179e-16,-1.2987838524566e-15,-0.0015606330906779,0.0015606330906774,-0.001560633090678,0.001560633090677,-0.0015606330906775,0.0015606330906774,-0.0015606330906784,0.0015606330906773,-0.0014849518231556,0.0014849518231534,-0.0014849518231557,0.001484951823155,0.64839576967369,0.42574320554387,1270536,32768,0.0063159658954264,0.0063159658954269,0.0063159658954269,20.304286295883,20.276433704714,7.7634290367059e-05,7.7634290367059e-05,7.7634290367059e-05,532103.44122819,0.019128906814775
17841600,0.99966154695232,0.018748241635241,0.0062494138784133,0.0062494138784137,0.0062494138784137,-0.0015196240447893,0.0015196240447892,-1.4402501189946e-16,-1.3690758227322e-16,-9.9608721727808e-16,7.2480138722691e-16,-0.0015597211103733,0.0015597211103721,-0.0015597211103729,0.0015597211103726,-0.0015597211103732,0.0015597211103729,-0.0015597211103724,0.0015597211103733,-0.0014838455468235,0.001483845546826,-0.0014838455468239,0.0014838455468265,9.0656054049189e-16,-6.9456701674853e-16,-5.5563008470584e-16,7.4921240619292e-16,-0.0015196240447893,0.0015196240447895,-0.0015597211103731,0.0015597211103732,-0.0015597211103727,0.0015597211103738,-0.0015597211103742,0.0015597211103731,-0.0015597211103729,0.0015597211103734,-0.0014838455468276,0.001483845546825,-0.0014838455468272,0.0014838455468278,-0.0014838455468261,0.0014838455468263,-0.0014838455468266,0.0014838455468254,-2.9934379642897e-16,-4.5854481530006e-16,-0.0015196240447897,0.0015196240447891,1.0155572107184e-16,-1.0007929558739e-15,-0.0015597211103736,0.0015597211103731,-0.0015597211103735,0.0015597211103728,-0.0015597211103732,0.0015597211103731,-0.0015597211103739,0.0015597211103732,-0.0014838455468265,0.0014838455468246,-0.0014838455468265,0.0014838455468264,0.64074584039672,0.39010199529236,1270536,32768,0.0063117273451328,0.0063117273451332,0.0063117273451332,19.884283807648,19.85698980913,7.4274270461182e-05,7.4274270461182e-05,7.4274270461182e-05,538410.06942072,0.019115947788966
17928000,0.9996684635745,0.018748350440398,0.0062494501467992,0.0062494501467996,0.0062494501467996,-0.0015185954602269,0.0015185954602268,-1.5528937366329e-16,-1.1758464316398e-16,-1.0593794013924e-15,8.1729856150173e-16,-0.001558806162569,0.0015588061625679,-0.0015588061625686,0.0015588061625683,-0.0015588061625689,0.0015588061625687,-0.001558806162568,0.0015588061625691,-0.001482734936809,0.0014827349368114,-0.0014827349368094,0.001482734936812,9.2667757298918e-16,-8.3026875350656e-16,-5.6280633606452e-16,7.5709451834098e-16,-0.0015185954602269,0.0015185954602271,-0.0015588061625688,0.0015588061625689,-0.0015588061625684,0.0015588061625695,-0.0015588061625699,0.0015588061625687,-0.0015588061625686,0.001558806162569,-0.0014827349368133,0.0014827349368108,-0.0014827349368128,0.0014827349368135,-0.0014827349368117,0.0014827349368121,-0.0014827349368125,0.0014827349368109,-3.2413715665589e-16,-5.1395488726628e-16,-0.0015185954602273,0.0015185954602267,1.0934960062123e-16,-1.0079103855002e-15,-0.0015588061625692,0.0015588061625688,-0.0015588061625691,0.0015588061625685,-0.0015588061625689,0.0015588061625687,-0.0015588061625696,0.0015588061625688,-0.0014827349368125,0.0014827349368105,-0.0014827349368124,0.0014827349368122,0.6329765924576,0.35698381891442,1270536,32768,0.0063074685725781,0.0063074685725786,0.0063074685725785,19.464789435537,19.437545913546,7.0918315484297e-05,7.0918315484297e-05,7.0918315484297e-05,544997.53802257,0.019102927087205
18014400,0.99967506527475,0.018748454217195,0.0062494847390648,0.0062494847390652,0.0062494847390652,-0.0015175713007186,0.0015175713007185,-1.8364144870333e-16,-1.0487914895517e-16,-1.02232170995e-15,7.4194792223556e-16,-0.0015578926680883,0.0015578926680872,-0.0015578926680879,0.0015578926680877,-0.0015578926680882,0.0015578926680879,-0.0015578926680874,0.0015578926680884,-0.00148163363513,0.0014816336351323,-0.0014816336351302,0.001481633635133,9.0067836724707e-16,-7.4356551987789e-16,-5.7133548726952e-16,7.9462278364294e-16,-0.0015175713007185,0.0015175713007188,-0.0015578926680881,0.0015578926680882,-0.0015578926680877,0.0015578926680888,-0.0015578926680892,0.0015578926680881,-0.0015578926680879,0.0015578926680884,-0.0014816336351342,0.0014816336351317,-0.0014816336351336,0.0014816336351343,-0.0014816336351325,0.0014816336351327,-0.0014816336351332,0.0014816336351318,-2.9957908335876e-16,-5.3110142227494e-16,-0.001517571300719,0.0015175713007183,1.3011367217545e-16,-1.0324978696635e-15,-0.0015578926680886,0.0015578926680882,-0.0015578926680885,0.0015578926680879,-0.0015578926680883,0.0015578926680881,-0.001557892668089,0.0015578926680882,-0.0014816336351332,0.001481633635131,-0.001481633635133,0.001481633635133,0.63257827099595,0.41091761673958,1270536,32768,0.0063032281149929,0.0063032281149933,0.0063032281149933,19.045340685488,19.018102017962,6.7562725483905e-05,6.7562725483905e-05,6.7562725483905e-05,551547.99213853,0.019089962515985
18100800,0.99968136920292,0.018748553403056,0.0062495178010185,0.0062495178010189,0.0062495178010189,-0.0015169353815517,0.0015169353815516,-1.8622960493105e-16,-1.0196747319898e-16,-1.0437328205611e-15,7.6121203961235e-16,-0.0015571834158713,0.0015571834158702,-0.0015571834158709,0.0015571834158706,-0.0015571834158712,0.0015571834158709,-0.0015571834158703,0.0015571834158714,-0.001481090844738,0.0014810908447404,-0.0014810908447383,0.001481090844741,9.1526615689423e-16,-7.6985883428224e-16,-7.2280144832367e-16,9.2197183439333e-16,-0.0015169353815516,0.0015169353815518,-0.0015571834158711,0.0015571834158711,-0.0015571834158706,0.0015571834158718,-0.0015571834158722,0.0015571834158709,-0.0015571834158708,0.0015571834158714,-0.0014810908447424,0.0014810908447396,-0.0014810908447416,0.0014810908447426,-0.0014810908447407,0.0014810908447411,-0.0014810908447414,0.00148109084474,-3.526951077595e-16,-5.8886436353908e-16,-0.0015169353815521,0.0015169353815513,2.0746425034486e-16,-1.2333740859742e-15,-0.0015571834158715,0.0015571834158711,-0.0015571834158715,0.0015571834158707,-0.0015571834158712,0.001557183415871,-0.001557183415872,0.001557183415871,-0.0014810908447416,0.0014810908447393,-0.0014810908447414,0.0014810908447411,0.63320477874135,0.45594907058729,1270536,32768,0.0063005953200699,0.0063005953200704,0.0063005953200703,18.625896315907,18.598658122379,6.4207170527253e-05,6.4207170527253e-05,6.4207170527253e-05,545752.82374827,0.019081912882792
18187200,0.99968739140009,0.018748648094025,0.0062495493646748,0.0062495493646752,0.0062495493646752,-0.0015162881370648,0.0015162881370685,1.6739194511451e-15,1.7201533328494e-15,6.5386237789436e-16,2.7938558260929e-15,-0.0015564648379279,0.0015564648379332,-0.0015564648379286,0.0015564648379315,-0.0015564648379291,0.0015564648379323,-0.0015564648379288,0.0015564648379342,-0.0014805273576474,0.0014805273576545,-0.0014805273576472,0.0014805273576567,1.39713378911e-15,-6.6262681602915e-16,-2.9481452303046e-16,1.2970192004831e-15,-0.0015162881370667,0.0015162881370676,-0.0015564648379299,0.0015564648379302,-0.0015564648379288,0.0015564648379311,-0.0015564648379303,0.0015564648379308,-0.0015564648379302,0.0015564648379305,-0.0014805273576545,0.0014805273576519,-0.0014805273576546,0.0014805273576568,-0.0014805273576526,0.0014805273576545,-0.0014805273576551,0.0014805273576512,-9.2435411455748e-16,-1.1255538503966e-15,-0.0015162881370682,0.0015162881370663,-4.3216326829704e-16,-1.8288264835475e-15,-0.0015564648379296,0.0015564648379301,-0.0015564648379308,0.0015564648379295,-0.0015564648379317,0.0015564648379289,-0.0015564648379313,0.0015564648379297,-0.0014805273576568,0.0014805273576518,-0.0014805273576551,0.0014805273576527,0.63274900476668,0.47363896485358,1270536,32768,0.0062979155618892,0.0062979155618912,0.0062979155618916,18.206452374198,18.179214226795,6.0851618993586e-05,6.0851618993586e-05,6.0851618993586e-05,540133.57975391,0.019073719905193
18273600,0.99969314688202,0.018748738523119,0.006249579507706,0.0062495795077064,0.0062495795077064,-0.0015155459355632,0.0015155459355634,4.0116421529683e-17,7.74682216343e-17,-9.7155855484717e-16,1.2211979873574e-15,-0.0015556938943174,0.0015556938943155,-0.0015556938943161,0.0015556938943164,-0.0015556938943166,0.0015556938943161,-0.0015556938943161,0.0015556938943166,-0.0014798240234554,0.0014798240234579,-0.0014798240234553,0.0014798240234592,8.5126811199057e-16,-1.2391386157541e-15,-9.839111186613e-16,6.4592144401385e-16,-0.0015155459355635,0.0015155459355632,-0.0015556938943161,0.0015556938943164,-0.0015556938943162,0.0015556938943172,-0.0015556938943178,0.001555693894317,-0.0015556938943161,0.0015556938943152,-0.0014798240234605,0.0014798240234575,-0.0014798240234594,0.00147982402346,-0.0014798240234597,0.0014798240234586,-0.0014798240234593,0.0014798240234578,-5.0880798567706e-17,-2.6666832405398e-16,-0.0015155459355634,0.0015155459355632,5.1969000617998e-16,-9.0932516191696e-16,-0.0015556938943166,0.0015556938943171,-0.0015556938943159,0.0015556938943163,-0.0015556938943159,0.0015556938943164,-0.001555693894317,0.0015556938943173,-0.0014798240234587,0.0014798240234576,-0.0014798240234595,0.0014798240234602,0.63223294071462,0.48561936632976,1270536,32768,0.0062948425422532,0.0062948425422535,0.0062948425422532,17.787008473873,17.759770331211,5.7496067790986e-05,5.7496067790986e-05,5.7496067790986e-05,537412.01699496,0.019064324887187
18360000,0.99969871209136,0.018748825925798,0.0062496086419325,0.0062496086419329,0.0062496086419329,-0.0015151325948671,0.0015151325948682,4.1957541755312e-16,4.7189734856581e-16,-6.7203829322086e-16,1.5376294970626e-15,-0.0015552551646405,0.0015552551646403,-0.0015552551646403,0.001555255164641,-0.0015552551646401,0.0015552551646413,-0.0015552551646399,0.001555255164642,-0.0014794426242249,0.0014794426242288,-0.0014794426242257,0.0014794426242295,9.8744042260819e-16,-1.0902608109277e-15,-8.3538624422955e-16,7.7791741162765e-16,-0.0015151325948678,0.0015151325948678,-0.0015552551646411,0.0015552551646403,-0.0015552551646405,0.0015552551646413,-0.0015552551646417,0.0015552551646404,-0.0015552551646407,0.0015552551646408,-0.0014794426242307,0.0014794426242277,-0.0014794426242301,0.0014794426242306,-0.0014794426242284,0.0014794426242285,-0.0014794426242292,0.0014794426242281,-7.3244821244518e-16,-9.3576553065243e-16,-0.0015151325948686,0.001515132594867,-1.9687633850418e-16,-1.6105390344321e-15,-0.0015552551646415,0.0015552551646406,-0.0015552551646412,0.0015552551646401,-0.0015552551646413,0.0015552551646404,-0.0015552551646421,0.0015552551646399,-0.0014794426242298,0.0014794426242271,-0.0014794426242301,0.0014794426242289,0.63198136421191,0.49759976780594,1270536,32768,0.0062931311657502,0.0062931311657508,0.0062931311657507,17.547099688078,17.531133473235,5.5576797504619e-05,5.5576797504619e-05,5.5576797504619e-05,535107.29386065,0.019059092691756
18446400,0.99970413854539,0.018748911148835,0.0062496370496114,0.0062496370496118,0.0062496370496118,-0.0015149710538314,0.0015149710538314,-1.3026072650657e-16,-7.9850501798452e-17,-1.1570234772564e-15,9.8841098119359e-16,-0.001555067967032,0.0015550679670313,-0.0015550679670316,0.0015550679670315,-0.001555067967032,0.0015550679670319,-0.001555067967031,0.0015550679670323,-0.0014793114880575,0.00147931148806,-0.0014793114880581,0.0014793114880606,8.1509274653492e-16,-1.2125511926875e-15,-9.5532375669147e-16,6.4650966133833e-16,-0.0015149710538316,0.0015149710538313,-0.0015550679670324,0.001555067967032,-0.0015550679670316,0.0015550679670323,-0.0015550679670333,0.0015550679670314,-0.0015550679670319,0.0015550679670318,-0.001479311488062,0.0014793114880585,-0.0014793114880613,0.0014793114880621,-0.0014793114880597,0.0014793114880602,-0.0014793114880613,0.0014793114880586,-4.9907298895688e-16,-7.0003743786621e-16,-0.001514971053832,0.0015149710538309,6.0380508358093e-17,-1.3328416355441e-15,-0.0015550679670326,0.0015550679670319,-0.0015550679670328,0.0015550679670314,-0.001555067967032,0.0015550679670317,-0.0015550679670331,0.0015550679670314,-0.0014793114880609,0.0014793114880586,-0.0014793114880609,0.0014793114880602,0.63198654856878,0.50958016928212,1270536,32768,0.0062924623591728,0.0062924623591733,0.0062924623591732,17.436391548185,17.428904109674,5.4691132385476e-05,5.4691132385476e-05,5.4691132385476e-05,532753.51045143,0.019057047873829
18532800,0.99970943291755,0.018748994332345,0.0062496647774482,0.0062496647774486,0.0062496647774486,-0.0015148263908361,0.0015148263908361,-1.360252562865e-16,-8.2497479758622e-17,-1.1747876404558e-15,9.7323497422195e-16,-0.0015548995461167,0.0015548995461157,-0.0015548995461165,0.0015548995461162,-0.0015548995461165,0.0015548995461165,-0.0015548995461156,0.0015548995461172,-0.0014791944401512,0.0014791944401539,-0.0014791944401517,0.0014791944401546,1.1004957923737e-15,-9.2479527755084e-16,-6.5662699931943e-16,9.3091273772546e-16,-0.0015148263908361,0.0015148263908364,-0.0015548995461166,0.0015548995461168,-0.0015548995461162,0.0015548995461174,-0.0015548995461178,0.0015548995461165,-0.0015548995461165,0.0015548995461169,-0.001479194440156,0.0014791944401531,-0.0014791944401551,0.0014791944401563,-0.001479194440154,0.001479194440155,-0.0014791944401549,0.0014791944401533,-2.8240313748388e-16,-4.8874977491222e-16,-0.0015148263908365,0.0015148263908359,2.6178612026078e-16,-1.1218480812524e-15,-0.001554899546117,0.0015548995461167,-0.001554899546117,0.0015548995461164,-0.0015548995461168,0.0015548995461165,-0.0015548995461174,0.0015548995461168,-0.001479194440155,0.0014791944401528,-0.0014791944401549,0.0014791944401549,0.63223493736814,0.5215605707583,1270536,32768,0.0062918634175357,0.0062918634175363,0.0062918634175362,17.333395163703,17.326674746112,5.3867161309626e-05,5.3867161309626e-05,5.3867161309626e-05,530411.58842263,0.019055216728116
18619200,0.99971459923103,0.018749075049047,0.0062496916830154,0.0062496916830159,0.0062496916830158,-0.0015146849087047,0.0015146849087047,-1.1196716771518e-16,-5.8409980321078e-17,-1.1476120000647e-15,9.8514637504271e-16,-0.0015547335354177,0.0015547335354165,-0.0015547335354173,0.001554733535417,-0.0015547335354175,0.0015547335354174,-0.0015547335354166,0.0015547335354179,-0.0014790797505975,0.0014790797506001,-0.0014790797505979,0.0014790797506008,1.0203217710467e-15,-9.9267555679608e-16,-7.4433020239972e-16,8.3491567036997e-16,-0.0015146849087047,0.0015146849087049,-0.0015547335354175,0.0015547335354175,-0.001554733535417,0.0015547335354182,-0.0015547335354187,0.0015547335354172,-0.0015547335354173,0.0015547335354177,-0.0014790797506021,0.0014790797505991,-0.0014790797506013,0.0014790797506021,-0.0014790797506002,0.0014790797506008,-0.0014790797506012,0.0014790797505994,-3.5560678351569e-16,-5.611887384222e-16,-0.0015146849087052,0.0015146849087044,1.8875893942632e-16,-1.1866696304103e-15,-0.0015547335354179,0.0015547335354175,-0.0015547335354179,0.0015547335354171,-0.0015547335354176,0.0015547335354174,-0.0015547335354184,0.0015547335354174,-0.0014790797506011,0.0014790797505989,-0.001479079750601,0.0014790797506007,0.62868590565582,0.48684635879891,1270536,32768,0.0062912776382422,0.0062912776382427,0.0062912776382426,17.231092013236,17.224445382551,5.3048736105886e-05,5.3048736105886e-05,5.3048736105886e-05,528003.10600806,0.019053425849286
18705600,0.99971964116589,0.018749154871889,0.0062497182906295,0.0062497182906299,0.0062497182906299,-0.0015143630221956,0.0015143630221957,-7.6056500055542e-17,-2.1469932343599e-17,-1.1044368484477e-15,1.0179100800164e-15,-0.0015544715236936,0.0015544715236926,-0.0015544715236933,0.0015544715236932,-0.0015544715236935,0.0015544715236936,-0.0015544715236927,0.001554471523694,-0.0014787064421476,0.0014787064421504,-0.001478706442148,0.001478706442151,9.4738282281096e-16,-1.0577912146163e-15,-8.0609302147034e-16,7.6227083079642e-16,-0.0015143630221958,0.0015143630221958,-0.0015544715236936,0.0015544715236935,-0.001554471523693,0.0015544715236942,-0.0015544715236948,0.0015544715236932,-0.0015544715236934,0.0015544715236936,-0.0014787064421523,0.0014787064421492,-0.0014787064421517,0.0014787064421522,-0.0014787064421504,0.0014787064421509,-0.0014787064421514,0.0014787064421496,-3.9901722206247e-16,-6.0527562689214e-16,-0.0015143630221962,0.0015143630221953,1.3399590651703e-16,-1.2305506428167e-15,-0.0015544715236939,0.0015544715236934,-0.001554471523694,0.0015544715236931,-0.0015544715236936,0.0015544715236934,-0.0015544715236944,0.0015544715236934,-0.0014787064421513,0.0014787064421491,-0.0014787064421512,0.0014787064421508,0.63701467166182,0.60384472993924,1270536,32768,0.006289944802323,0.0062899448023235,0.0062899448023234,17.128855444456,17.12221601899,5.2230843555645e-05,5.2230843555645e-05,5.2230843555645e-05,531323.03315411,0.019049351236907
18792000,0.99972456226295,0.018749233524133,0.006249744508044,0.0062497445080444,0.0062497445080444,-0.0015145985535435,0.0015145985535435,-1.4443676402659e-16,-8.9438444187511e-17,-1.1614939289225e-15,9.4250061901775e-16,-0.0015545076466412,0.0015545076466399,-0.0015545076466408,0.0015545076466406,-0.001554507646641,0.0015545076466409,-0.0015545076466402,0.0015545076466414,-0.0014791301592746,0.0014791301592774,-0.0014791301592751,0.0014791301592779,1.0772023863242e-15,-9.079134403382e-16,-6.5115657820174e-16,9.0744286647862e-16,-0.0015145985535435,0.0015145985535438,-0.0015545076466409,0.001554507646641,-0.0015545076466404,0.0015545076466417,-0.0015545076466422,0.0015545076466408,-0.0015545076466407,0.0015545076466413,-0.0014791301592793,0.0014791301592766,-0.0014791301592787,0.0014791301592795,-0.0014791301592776,0.0014791301592782,-0.0014791301592785,0.0014791301592767,-3.1187282544044e-16,-5.2024881263824e-16,-0.0015145985535439,0.0015145985535433,2.1387581918171e-16,-1.1418474702848e-15,-0.0015545076466412,0.001554507646641,-0.0015545076466413,0.0015545076466406,-0.0015545076466409,0.0015545076466409,-0.0015545076466418,0.001554507646641,-0.0014791301592782,0.0014791301592762,-0.0014791301592781,0.001479130159278,0.64309100527735,0.65815407065423,1270536,32768,0.0062909202551975,0.0062909202551979,0.0062909202551979,17.026625374458,17.019986655429,5.1413002995666e-05,5.1413002995666e-05,5.1413002995666e-05,517089.85291121,0.019052332963878
18878400,0.99972936594673,0.01874931087593,0.0062497702919763,0.0062497702919767,0.0062497702919767,-0.0015146343981377,0.0015146343981366,-4.434570409271e-16,-4.2645756024956e-16,-1.6196564029616e-15,3.2172546562551e-16,-0.0015544336510561,0.001554433651055,-0.001554433651055,0.0015544336510562,-0.0015544336510552,0.0015544336510544,-0.0015544336510587,0.0015544336510556,-0.0014792616437706,0.0014792616437716,-0.0014792616437699,0.0014792616437754,-3.5493033359253e-16,-2.0859362760786e-15,-2.041231759418e-15,-4.1828133943926e-16,-0.0015146343981388,0.0015146343981362,-0.0015544336510614,0.0015544336510563,-0.0015544336510604,0.0015544336510591,-0.0015544336510628,0.0015544336510566,-0.0015544336510618,0.0015544336510555,-0.0014792616437739,0.001479261643769,-0.0014792616437746,0.0014792616437707,-0.0014792616437707,0.00147926164377,-0.0014792616437667,0.0014792616437704,1.4232800491832e-15,1.2799903089394e-15,-0.0015146343981361,0.0015146343981391,2.0922302014506e-15,6.5339180403478e-16,-0.0015544336510558,0.0015544336510587,-0.001554433651056,0.0015544336510588,-0.0015544336510581,0.00155443365106,-0.0015544336510591,0.0015544336510591,-0.0014792616437712,0.0014792616437691,-0.0014792616437694,0.0014792616437731,0.64779517383074,0.68466835441078,1270536,32768,0.0062910687173994,0.006291068717401,0.0062910687174013,16.924395941407,16.917757291867,5.0595167531257e-05,5.0595167531257e-05,5.0595167531257e-05,508863.32372926,0.019052786840191
18964800,0.99973405553117,0.018749386964182,0.006249795654727,0.0062497956547274,0.0062497956547274,-0.0015145797924233,0.0015145797924224,-5.71923704594e-16,-5.6504156189756e-16,-1.3191361718837e-15,3.8737051903772e-16,-0.0015543109411552,0.0015543109411532,-0.0015543109411533,0.0015543109411514,-0.0015543109411555,0.0015543109411514,-0.0015543109411543,0.0015543109411532,-0.001479260548423,0.0014792605484277,-0.0014792605484257,0.0014792605484264,1.2530793663443e-15,-3.3763674425276e-16,-2.5287462779488e-16,1.3845459383661e-15,-0.0015145797924224,0.0015145797924231,-0.0015543109411527,0.0015543109411523,-0.0015543109411506,0.0015543109411541,-0.0015543109411555,0.0015543109411534,-0.0015543109411522,0.001554310941155,-0.001479260548432,0.0014792605484282,-0.0014792605484306,0.0014792605484329,-0.0014792605484253,0.0014792605484269,-0.0014792605484262,0.0014792605484295,-7.1324291680084e-16,-8.3547447682823e-16,-0.0015145797924236,0.0015145797924219,-2.8990290837103e-16,-1.7087125058882e-15,-0.0015543109411555,0.0015543109411507,-0.001554310941153,0.0015543109411509,-0.0015543109411535,0.0015543109411543,-0.0015543109411546,0.0015543109411509,-0.0014792605484307,0.0014792605484258,-0.001479260548428,0.0014792605484272,0.65264073094398,0.71118263816734,1270536,32768,0.0062908426007148,0.0062908426007145,0.0062908426007144,16.822166571084,16.815527928306,4.9777332568672e-05,4.9777332568672e-05,4.9777332568672e-05,503399.0956665,0.019052095700365
19051200,0.99973863422388,0.018749462912129,0.0062498209707095,0.0062498209707099,0.0062498209707099,-0.0015145189973178,0.0015145189973177,-1.3140775028931e-16,-1.4343679457497e-16,-1.0032046469043e-15,7.2536019368517e-16,-0.0015541857061235,0.0015541857061225,-0.0015541857061233,0.001554185706123,-0.0015541857061235,0.0015541857061233,-0.0015541857061226,0.0015541857061238,-0.0014792488443721,0.0014792488443747,-0.0014792488443725,0.0014792488443752,1.0050281206102e-15,-6.0021695790159e-16,-5.6233576220494e-16,1.0557324539806e-15,-0.0015145189973176,0.0015145189973181,-0.0015541857061233,0.0015541857061236,-0.0015541857061229,0.0015541857061241,-0.0015541857061244,0.0015541857061234,-0.0015541857061229,0.0015541857061238,-0.0014792488443763,0.0014792488443739,-0.0014792488443753,0.0014792488443766,-0.0014792488443749,0.0014792488443754,-0.0014792488443756,0.0014792488443746,-3.0772589330284e-16,-4.5001566409507e-16,-0.0015145189973181,0.0015145189973175,3.0549066746981e-16,-1.1096719826356e-15,-0.0015541857061239,0.0015541857061235,-0.0015541857061239,0.0015541857061231,-0.0015541857061235,0.0015541857061235,-0.0015541857061244,0.0015541857061234,-0.0014792488443754,0.0014792488443736,-0.0014792488443755,0.0014792488443753,0.66713140797765,0.8546504302107,1270536,32768,0.0062905908545814,0.0062905908545819,0.0062905908545818,16.71993720695,16.713298564745,4.8959497655601e-05,4.8959497655601e-05,4.8959497655601e-05,498134.93319595,0.019051326206858
19137600,0.99974315978957,0.018749539428971,0.0062498464763235,0.0062498464763239,0.0062498464763239,-0.0015151721882546,0.0015151721882543,-1.8208267279345e-16,-2.8716769781219e-16,-8.4473889968882e-16,3.6898872764765e-16,-0.0015546117136555,0.0015546117136544,-0.0015546117136552,0.0015546117136548,-0.0015546117136556,0.001554611713655,-0.0015546117136548,0.0015546117136554,-0.0014800996178943,0.0014800996178966,-0.0014800996178948,0.001480099617897,6.7433234078634e-16,-4.0828164492306e-16,-5.5727709321439e-16,1.0237334315287e-15,-0.0015151721882544,0.0015151721882548,-0.0015546117136553,0.0015546117136554,-0.0015546117136549,0.001554611713656,-0.0015546117136562,0.0015546117136554,-0.0015546117136549,0.0015546117136558,-0.0014800996178985,0.0014800996178963,-0.0014800996178977,0.0014800996178992,-0.0014800996178971,0.0014800996178969,-0.0014800996178972,0.0014800996178965,-4.2451644307877e-16,-4.5572137214255e-16,-0.0015151721882549,0.0015151721882542,1.8481788335229e-16,-1.1816109614197e-15,-0.0015546117136558,0.0015546117136553,-0.0015546117136558,0.0015546117136549,-0.0015546117136554,0.0015546117136553,-0.0015546117136562,0.0015546117136553,-0.0014800996178977,0.0014800996178957,-0.0014800996178978,0.0014800996178974,0.67994696899938,0.92151545833597,1270536,32768,0.0062932955839099,0.0062932955839103,0.0062932955839103,16.810100286136,16.815540805623,4.9680802289087e-05,4.9680802289087e-05,4.9680802289087e-05,482141.09087535,0.019059594745781
19224000,0.99974766843126,0.018749616341023,0.006249872113674,0.0062498721136744,0.0062498721136744,-0.0015158861699044,0.001515886169904,-2.5916855316684e-16,-3.7272390765812e-16,-7.7044705160672e-16,2.1472873430221e-16,-0.00155518127388,0.0015551812738789,-0.0015551812738796,0.0015551812738794,-0.0015551812738801,0.0015551812738794,-0.0015551812738794,0.0015551812738798,-0.0014809224272221,0.001480922427224,-0.0014809224272228,0.0014809224272246,7.2215440926674e-16,-1.4146626653796e-16,-6.3562764083541e-16,1.0679673743298e-15,-0.001515886169904,0.0015158861699046,-0.0015551812738798,0.0015551812738798,-0.0015551812738793,0.0015551812738804,-0.0015551812738806,0.0015551812738799,-0.0015551812738792,0.0015551812738803,-0.0014809224272262,0.0014809224272238,-0.0014809224272256,0.0014809224272269,-0.0014809224272246,0.0014809224272249,-0.0014809224272246,0.0014809224272247,-3.797825155519e-16,-5.6062993196394e-16,-0.0015158861699047,0.0015158861699039,2.0102327064178e-16,-1.258549787462e-15,-0.0015551812738802,0.0015551812738797,-0.0015551812738802,0.0015551812738795,-0.0015551812738798,0.0015551812738799,-0.0015551812738807,0.0015551812738796,-0.0014809224272257,0.0014809224272233,-0.0014809224272255,0.0014809224272251,0.68588740676778,0.89499689595304,1270536,32768,0.0062962517915128,0.0062962517915132,0.0062962517915132,17.027611922832,17.041441223027,5.1420895382656e-05,5.1420895382656e-05,5.1420895382656e-05,471502.25762784,0.019068632702317
19310400,0.99975216116949,0.018749693279645,0.0062498977598814,0.0062498977598819,0.0062498977598818,-0.0015163562991342,0.0015163562991338,-2.2408138976148e-16,-4.4304528879996e-16,-6.8933188256064e-16,1.8020037735511e-16,-0.001555630976829,0.0015556309768281,-0.0015556309768287,0.0015556309768285,-0.0015556309768293,0.0015556309768285,-0.0015556309768285,0.0015556309768289,-0.0014813848657667,0.0014813848657685,-0.0014813848657675,0.0014813848657691,5.9821701899835e-16,-1.4752490498012e-16,-9.4150064956613e-16,1.4730138239682e-15,-0.0015163562991339,0.0015163562991344,-0.0015556309768291,0.0015556309768288,-0.0015556309768283,0.0015556309768297,-0.0015556309768299,0.001555630976829,-0.0015556309768282,0.0015556309768296,-0.0014813848657713,0.0014813848657683,-0.0014813848657693,0.001481384865772,-0.0014813848657693,0.0014813848657694,-0.0014813848657689,0.0014813848657692,-6.5100952387062e-16,-6.1236364565215e-16,-0.0015163562991346,0.0015163562991336,4.9707305005364e-16,-1.7044185194195e-15,-0.0015556309768294,0.0015556309768289,-0.0015556309768297,0.0015556309768283,-0.001555630976829,0.0015556309768289,-0.0015556309768301,0.0015556309768286,-0.0014813848657704,0.0014813848657676,-0.0014813848657702,0.001481384865769,0.68846661483266,0.85648931418986,1270536,32768,0.0062981981644714,0.0062981981644718,0.0062981981644718,17.252752938172,17.267341640431,5.3222023505379e-05,5.3222023505379e-05,5.3222023505379e-05,468853.77398865,0.01907458376712
19396800,0.99975663699664,0.0187497699999,0.0062499233332996,0.0062499233333,0.0062499233333,-0.0015167494925498,0.0015167494925494,-1.5667168437582e-16,-4.2013422401138e-16,-7.2897773023073e-16,1.4552496607688e-16,-0.0015560451438742,0.0015560451438733,-0.001556045143874,0.0015560451438736,-0.0015560451438745,0.0015560451438737,-0.0015560451438737,0.0015560451438741,-0.0014817375789974,0.0014817375789996,-0.0014817375789981,0.0014817375789998,5.9257013268332e-16,-1.6052450785118e-16,-8.9891371527363e-16,1.3925456939791e-15,-0.0015167494925495,0.00151674949255,-0.0015560451438743,0.001556045143874,-0.0015560451438736,0.0015560451438749,-0.0015560451438751,0.0015560451438742,-0.0015560451438734,0.0015560451438748,-0.0014817375790017,0.0014817375789989,-0.0014817375790003,0.0014817375790026,-0.0014817375790001,0.0014817375790001,-0.0014817375789999,0.001481737579,-6.2242216190079e-16,-5.1613129136687e-16,-0.0015167494925502,0.0015167494925492,4.2004599141271e-16,-1.6624198024515e-15,-0.0015560451438746,0.0015560451438741,-0.0015560451438748,0.0015560451438735,-0.0015560451438742,0.0015560451438741,-0.0015560451438753,0.0015560451438739,-0.0014817375790009,0.0014817375789985,-0.0014817375790011,0.001481737579,0.68908574770971,0.81798173242667,1270536,32768,0.0062998260134263,0.0062998260134268,0.0062998260134267,17.478580288968,17.493242057834,5.5028642311745e-05,5.5028642311745e-05,5.5028642311745e-05,468866.90405903,0.0190795609266
19483200,0.99976109472447,0.018749846318228,0.0062499487727424,0.0062499487727429,0.0062499487727428,-0.0015171088649637,0.0015171088649633,-1.5158360451905e-16,-3.9451735953018e-16,-7.6280022638846e-16,2.1234645413806e-16,-0.0015564445719037,0.0015564445719027,-0.0015564445719034,0.001556444571903,-0.0015564445719038,0.0015564445719031,-0.0015564445719031,0.0015564445719035,-0.0014820442856811,0.0014820442856833,-0.0014820442856818,0.0014820442856836,6.2703966789798e-16,-2.2822832189908e-16,-9.0267830615031e-16,1.3669582403641e-15,-0.0015171088649633,0.0015171088649638,-0.0015564445719037,0.0015564445719034,-0.001556444571903,0.0015564445719043,-0.0015564445719045,0.0015564445719036,-0.0015564445719029,0.0015564445719042,-0.0014820442856854,0.0014820442856825,-0.001482044285684,0.0014820442856862,-0.0014820442856837,0.0014820442856838,-0.0014820442856837,0.0014820442856836,-6.0968725682575e-16,-5.1819005200255e-16,-0.0015171088649641,0.0015171088649631,4.2492819520591e-16,-1.6393616833318e-15,-0.001556444571904,0.0015564445719035,-0.0015564445719042,0.0015564445719029,-0.0015564445719036,0.0015564445719035,-0.0015564445719046,0.0015564445719033,-0.0014820442856845,0.0014820442856821,-0.0014820442856847,0.0014820442856836,0.68826333697955,0.77947415066348,1270536,32768,0.0063013138639764,0.0063013138639769,0.0063013138639768,17.704473571157,17.719142475238,5.6835788569254e-05,5.6835788569254e-05,5.6835788569254e-05,470110.83543592,0.019084109967336
19569600,0.99976553314814,0.018749922089727,0.0062499740299088,0.0062499740299092,0.0062499740299092,-0.0015174451590564,0.0015174451590533,-1.5625699116206e-15,-1.8220325734497e-15,-2.120111702631e-15,-1.1292007978084e-15,-0.0015568336706086,0.0015568336706055,-0.0015568336706099,0.0015568336706065,-0.0015568336706098,0.0015568336706074,-0.0015568336706088,0.0015568336706055,-0.0014823209762961,0.0014823209762954,-0.0014823209762942,0.0014823209762953,-3.5304803815419e-16,-1.227315447532e-15,-1.8438848470542e-15,3.8928222534229e-16,-0.0015174451590554,0.0015174451590543,-0.0015568336706091,0.0015568336706053,-0.001556833670606,0.0015568336706064,-0.0015568336706063,0.0015568336706057,-0.0015568336706034,0.001556833670604,-0.0014823209763017,0.0014823209762955,-0.0014823209762987,0.0014823209762978,-0.0014823209762999,0.0014823209762967,-0.0014823209762998,0.0014823209762972,-9.614706277323e-16,-8.4397421716699e-16,-0.0015174451590559,0.0015174451590543,3.9145862944287e-17,-1.9995271511122e-15,-0.0015568336706074,0.0015568336706066,-0.0015568336706058,0.0015568336706052,-0.0015568336706062,0.001556833670605,-0.0015568336706073,0.0015568336706057,-0.0014823209762985,0.0014823209762957,-0.0014823209763008,0.0014823209762973,0.68632164077295,0.74096656890029,1270536,32768,0.0063027061855486,0.0063027061855486,0.0063027061855497,17.930373287724,17.945042892642,5.8642986301793e-05,5.8642986301793e-05,5.8642986301793e-05,472197.53530939,0.019088366877134
19656000,0.99976995106283,0.018749997194973,0.0062499990649909,0.0062499990649913,0.0062499990649913,-0.0015177642304708,0.0015177642304705,-1.3976043629696e-16,-4.0387001498945e-16,-7.9479924884029e-16,2.676682935056e-16,-0.0015572148030688,0.0015572148030678,-0.0015572148030685,0.0015572148030681,-0.001557214803069,0.0015572148030682,-0.0015572148030681,0.0015572148030688,-0.0014825761521533,0.0014825761521555,-0.0014825761521541,0.0014825761521559,6.9668459911666e-16,-2.4422783312499e-16,-8.4297424771537e-16,1.3530763115063e-15,-0.0015177642304705,0.001517764230471,-0.0015572148030688,0.0015572148030686,-0.001557214803068,0.0015572148030695,-0.0015572148030696,0.0015572148030687,-0.001557214803068,0.0015572148030693,-0.0014825761521576,0.0014825761521548,-0.0014825761521563,0.0014825761521585,-0.0014825761521561,0.0014825761521563,-0.0014825761521561,0.001482576152156,-5.6854145497823e-16,-4.5686839592529e-16,-0.0015177642304712,0.0015177642304703,4.3501612232078e-16,-1.5551877841984e-15,-0.0015572148030691,0.0015572148030686,-0.0015572148030693,0.001557214803068,-0.0015572148030686,0.0015572148030687,-0.0015572148030697,0.0015572148030685,-0.0014825761521569,0.0014825761521546,-0.0014825761521572,0.0014825761521562,0.68347231885339,0.7024589871371,1270536,32768,0.006304027216961,0.0063040272169614,0.0063040272169614,18.156273637626,18.170943310046,6.045018910101e-05,6.045018910101e-05,6.045018910101e-05,474915.1888946,0.0190924057813
19742400,0.99977434726633,0.018750071532106,0.0062500238440349,0.0062500238440354,0.0062500238440353,-0.0015180699099751,0.0015180699099749,-6.2909842853366e-17,-3.0931408007894e-16,-7.0121387251517e-16,4.3328088121355e-16,-0.0015575895401408,0.0015575895401401,-0.0015575895401404,0.00155758954014,-0.0015575895401408,0.0015575895401404,-0.0015575895401397,0.0015575895401415,-0.001482815264896,0.001482815264899,-0.0014828152648971,0.0014828152648987,6.8121448348278e-16,-3.3804849637989e-16,-9.329126766287e-16,1.1748464621882e-15,-0.0015180699099749,0.0015180699099752,-0.0015575895401397,0.0015575895401387,-0.0015575895401385,0.0015575895401407,-0.0015575895401403,0.0015575895401396,-0.0015575895401397,0.0015575895401395,-0.0014828152649013,0.0014828152648983,-0.0014828152648995,0.0014828152649009,-0.0014828152648977,0.0014828152648978,-0.001482815264897,0.0014828152648973,-7.745645728781e-16,-6.7777341213456e-16,-0.0015180699099757,0.0015180699099744,2.4122792477013e-16,-1.6695372320777e-15,-0.0015575895401404,0.0015575895401389,-0.0015575895401394,0.0015575895401382,-0.0015575895401398,0.0015575895401391,-0.0015575895401415,0.0015575895401392,-0.0014828152648978,0.0014828152648956,-0.0014828152648987,0.0014828152648968,0.67985815246256,0.66395140537392,1270536,32768,0.0063052928149492,0.0063052928149496,0.0063052928149494,18.382174048368,18.39684372745,6.225739238694e-05,6.225739238694e-05,6.225739238694e-05,478136.22191025,0.019096275170126
19828800,0.99977872056027,0.018750144931507,0.0062500483105019,0.0062500483105024,0.0062500483105023,-0.0015183642596366,0.0015183642596338,-1.3563997393896e-15,-1.5755106927592e-15,-2.1428757130885e-15,-1.0280274179975e-15,-0.0015579586684486,0.0015579586684464,-0.001557958668447,0.0015579586684438,-0.0015579586684478,0.0015579586684434,-0.0015579586684465,0.0015579586684442,-0.0014830411319697,0.0014830411319719,-0.001483041131972,0.0014830411319695,-7.7997617226334e-17,-1.0722025390661e-15,-1.7215944652944e-15,3.7381210970841e-16,-0.0015183642596357,0.0015183642596348,-0.0015579586684476,0.0015579586684456,-0.0015579586684451,0.0015579586684453,-0.0015579586684472,0.001557958668447,-0.0015579586684457,0.0015579586684477,-0.0014830411319682,0.0014830411319613,-0.0014830411319653,0.0014830411319672,-0.0014830411319687,0.0014830411319657,-0.0014830411319701,0.0014830411319672,-1.6603610418158e-15,-1.5044540399618e-15,-0.0015183642596371,0.0015183642596341,-5.8539388132464e-16,-2.4219848335553e-15,-0.0015579586684501,0.0015579586684442,-0.0015579586684465,0.0015579586684428,-0.0015579586684465,0.0015579586684452,-0.001557958668449,0.0015579586684459,-0.0014830411319703,0.0014830411319636,-0.0014830411319689,0.0014830411319702,0.67484225843297,0.61660844382891,1270536,32768,0.0063065115145468,0.0063065115145469,0.0063065115145486,18.608074464942,18.622744144854,6.4064595719537e-05,6.4064595719537e-05,6.4064595719537e-05,481789.65540512,0.019100001145922
19915200,0.9997830303236,0.018750217540126,0.0062500725133751,0.0062500725133755,0.0062500725133755,-0.0015183356962001,0.0015183356961998,-1.1093778739733e-16,-3.8425296721797e-16,-8.3491567036997e-16,3.3575444881441e-16,-0.0015580273588855,0.0015580273588845,-0.0015580273588852,0.0015580273588849,-0.0015580273588856,0.0015580273588851,-0.0015580273588849,0.0015580273588854,-0.0014829271470914,0.0014829271470938,-0.0014829271470922,0.0014829271470941,6.9827278589276e-16,-3.5451858146539e-16,-8.7397330071558e-16,1.2813726196519e-15,-0.0015183356961998,0.0015183356962003,-0.0015580273588855,0.0015580273588853,-0.0015580273588848,0.0015580273588861,-0.0015580273588864,0.0015580273588854,-0.0015580273588848,0.001558027358886,-0.0014829271470959,0.001482927147093,-0.0014829271470946,0.0014829271470966,-0.0014829271470942,0.0014829271470944,-0.0014829271470943,0.001482927147094,-6.2662791577084e-16,-5.0557279039241e-16,-0.0015183356962005,0.0015183356961995,3.7113572088201e-16,-1.5789517641074e-15,-0.0015580273588859,0.0015580273588853,-0.001558027358886,0.0015580273588847,-0.0015580273588854,0.0015580273588853,-0.0015580273588864,0.0015580273588852,-0.001482927147095,0.0014829271470927,-0.0014829271470952,0.0014829271470942,0.67742587527181,0.67197055261496,1270536,32768,0.0063063931842903,0.0063063931842907,0.0063063931842907,18.687394481735,18.692861261856,6.4699155853877e-05,6.4699155853877e-05,6.4699155853877e-05,486861.54814606,0.019099639484582
20001600,0.99978725358823,0.018750289101804,0.0062500963672676,0.006250096367268,0.006250096367268,-0.0015184627000648,0.0015184627000643,-1.7511229749834e-16,-4.4780984912826e-16,-9.2191301266088e-16,2.8728534127708e-16,-0.0015580970474435,0.0015580970474424,-0.0015580970474431,0.0015580970474426,-0.0015580970474435,0.0015580970474429,-0.0015580970474429,0.0015580970474433,-0.0014831163892767,0.001483116389279,-0.0014831163892775,0.0014831163892793,7.1762513586823e-16,-3.7140041867803e-16,-8.5209161624485e-16,1.2753728029422e-15,-0.0015184627000644,0.0015184627000649,-0.0015580970474434,0.0015580970474433,-0.0015580970474427,0.0015580970474442,-0.0015580970474443,0.0015580970474434,-0.0015580970474428,0.0015580970474438,-0.0014831163892809,0.0014831163892781,-0.0014831163892796,0.0014831163892817,-0.0014831163892793,0.0014831163892796,-0.0014831163892794,0.0014831163892791,-6.7915572284709e-16,-5.5763002360908e-16,-0.0015184627000652,0.0015184627000641,2.9837323784357e-16,-1.6234798155707e-15,-0.0015580970474439,0.0015580970474432,-0.0015580970474441,0.0015580970474427,-0.0015580970474435,0.0015580970474432,-0.0015580970474444,0.0015580970474431,-0.0014831163892803,0.0014831163892779,-0.0014831163892804,0.0014831163892793,0.68135818122046,0.72486099433458,1270536,32768,0.0063069191698944,0.0063069191698948,0.0063069191698948,18.677582626884,18.677153681042,6.462066101507e-05,6.462066101507e-05,6.462066101507e-05,481849.3139103,0.019101247321451
20088000,0.99979139075787,0.018750359605284,0.0062501198684277,0.0062501198684281,0.0062501198684281,-0.0015185921005696,0.0015185921005693,-8.9791374582201e-17,-3.6337125219885e-16,-8.5926786760353e-16,4.0913456004356e-16,-0.0015581583511819,0.0015581583511809,-0.0015581583511816,0.0015581583511812,-0.001558158351182,0.0015581583511814,-0.0015581583511812,0.0015581583511818,-0.0014833137018493,0.0014833137018517,-0.00148331370185,0.001483313701852,7.2797776077911e-16,-4.2145771299146e-16,-8.6515004084835e-16,1.2297271385624e-15,-0.0015185921005694,0.0015185921005698,-0.0015581583511818,0.0015581583511817,-0.0015581583511812,0.0015581583511825,-0.0015581583511828,0.0015581583511817,-0.0015581583511812,0.0015581583511823,-0.0014833137018537,0.0014833137018508,-0.0014833137018525,0.0014833137018543,-0.001483313701852,0.0014833137018522,-0.0014833137018522,0.0014833137018517,-6.0015813616914e-16,-4.7866184779735e-16,-0.00151859210057,0.0015185921005691,3.6519472590474e-16,-1.5242475529306e-15,-0.0015581583511822,0.0015581583511817,-0.0015581583511824,0.0015581583511811,-0.0015581583511818,0.0015581583511817,-0.0015581583511828,0.0015581583511816,-0.0014833137018528,0.0014833137018505,-0.001483313701853,0.001483313701852,0.68520567598519,0.76002496014509,1270536,32768,0.0063074550483355,0.006307455048336,0.0063074550483359,18.662409164278,18.661446100227,6.4499273314226e-05,6.4499273314226e-05,6.4499273314226e-05,476238.46110187,0.019102885482405
20174400,0.99979544354058,0.018750429119089,0.006250143039696,0.0062501430396964,0.0062501430396964,-0.0015186822095063,0.0015186822095061,-3.4851876475568e-17,-3.113434298484e-16,-8.4750352111389e-16,4.7780893267685e-16,-0.0015581961710401,0.001558196171039,-0.0015581961710396,0.0015581961710394,-0.0015581961710401,0.0015581961710398,-0.0015581961710394,0.0015581961710402,-0.0014834527819921,0.0014834527819945,-0.0014834527819926,0.0014834527819948,7.4903594099557e-16,-4.5880951309608e-16,-8.4526829528085e-16,1.2147275967881e-15,-0.0015186822095061,0.0015186822095066,-0.0015581961710398,0.0015581961710395,-0.0015581961710391,0.0015581961710405,-0.0015581961710407,0.0015581961710397,-0.0015581961710393,0.0015581961710401,-0.0014834527819964,0.0014834527819933,-0.0014834527819952,0.0014834527819969,-0.0014834527819949,0.0014834527819949,-0.001483452781995,0.0014834527819946,-5.8830555708083e-16,-4.6683867957526e-16,-0.0015186822095068,0.0015186822095059,3.7169452734027e-16,-1.4845428835281e-15,-0.0015581961710402,0.0015581961710396,-0.0015581961710402,0.001558196171039,-0.0015581961710398,0.0015581961710396,-0.0015581961710406,0.0015581961710395,-0.0014834527819956,0.0014834527819931,-0.0014834527819956,0.0014834527819949,0.68960223248924,0.79246284097558,1270536,32768,0.0063078281839492,0.0063078281839497,0.0063078281839496,18.646752983884,18.645738519413,6.4374023871068e-05,6.4374023871068e-05,6.4374023871068e-05,471681.51424958,0.019104026228113
20260800,0.9997994137217,0.018750497720193,0.0062501659067308,0.0062501659067312,0.0062501659067312,-0.0015187708175069,0.0015187708175064,-1.6828897653434e-16,-4.4442759951249e-16,-9.8438169252088e-16,3.6460650858026e-16,-0.0015582323276171,0.001558232327616,-0.0015582323276167,0.0015582323276162,-0.0015582323276173,0.0015582323276165,-0.0015582323276163,0.0015582323276168,-0.0014835878025466,0.0014835878025486,-0.0014835878025473,0.0014835878025493,6.0268747066441e-16,-6.2556912458677e-16,-1.0102044330657e-15,1.0238510749936e-15,-0.0015187708175068,0.0015187708175068,-0.0015582323276166,0.0015582323276161,-0.0015582323276159,0.0015582323276171,-0.0015582323276176,0.001558232327616,-0.0015582323276158,0.0015582323276164,-0.0014835878025515,0.001483587802548,-0.0014835878025502,0.0014835878025517,-0.0014835878025495,0.0014835878025492,-0.0014835878025493,0.0014835878025486,-7.3065414960551e-16,-6.0448153350408e-16,-0.0015187708175074,0.0015187708175062,2.0175854229738e-16,-1.6280679107017e-15,-0.001558232327617,0.001558232327616,-0.0015582323276171,0.0015582323276154,-0.0015582323276163,0.0015582323276161,-0.0015582323276172,0.0015582323276159,-0.0014835878025493,0.0014835878025474,-0.0014835878025503,0.0014835878025494,0.69466144105689,0.82490072180607,1270536,32768,0.0063081950841215,0.0063081950841222,0.0063081950841221,18.631050422784,18.630030938599,6.4248403382269e-05,6.4248403382269e-05,6.4248403382269e-05,467108.83801517,0.019105147967355
20347200,0.99980330305788,0.018750565452518,0.0062501884841723,0.0062501884841727,0.0062501884841727,-0.0015188636958033,0.0015188636958031,-1.0155572107184e-16,-3.8287065650543e-16,-9.2520702967798e-16,4.3798661980941e-16,-0.0015582703191994,0.0015582703191987,-0.0015582703191992,0.0015582703191984,-0.0015582703191993,0.0015582703191993,-0.0015582703191987,0.0015582703191996,-0.001483727058364,0.0014837270583668,-0.0014837270583648,0.0014837270583663,5.7115902207217e-16,-6.7045010644476e-16,-1.0562030278402e-15,9.7067622886045e-16,-0.0015188636958033,0.0015188636958033,-0.0015582703191996,0.0015582703191988,-0.0015582703191986,0.0015582703192,-0.0015582703192006,0.0015582703191992,-0.001558270319199,0.0015582703192,-0.0014837270583693,0.0014837270583665,-0.0014837270583682,0.0014837270583686,-0.0014837270583676,0.0014837270583669,-0.0014837270583676,0.0014837270583661,-7.2036034642707e-16,-5.8933493739867e-16,-0.0015188636958039,0.0015188636958027,2.0155266623381e-16,-1.6175388205935e-15,-0.0015582703191999,0.0015582703191991,-0.0015582703191996,0.0015582703191981,-0.001558270319199,0.0015582703191992,-0.0015582703192002,0.001558270319199,-0.0014837270583681,0.0014837270583654,-0.001483727058367,0.0014837270583667,0.70007439813755,0.85369129707063,1270536,32768,0.006308579651563,0.0063085796515633,0.0063085796515635,18.615343334396,18.614323357784,6.4122746675166e-05,6.4122746675166e-05,6.4122746675166e-05,462358.3073468,0.019106323761685
20433600,0.99980711326793,0.01875063152155,0.0062502105071832,0.0062502105071836,0.0062502105071836,-0.0015189499184305,0.0015189499184303,-6.1498121274609e-17,-3.4604825199285e-16,-9.195013216305e-16,5.0974913339623e-16,-0.0015583043688283,0.0015583043688273,-0.0015583043688281,0.0015583043688277,-0.0015583043688284,0.001558304368828,-0.0015583043688276,0.0015583043688283,-0.0014838549500567,0.0014838549500592,-0.0014838549500574,0.0014838549500595,7.7879973761437e-16,-5.3316018291062e-16,-8.4773880804368e-16,1.1473767131349e-15,-0.0015189499184303,0.0015189499184307,-0.0015583043688283,0.0015583043688281,-0.0015583043688277,0.0015583043688289,-0.0015583043688293,0.0015583043688281,-0.0015583043688277,0.0015583043688286,-0.0014838549500612,0.0014838549500583,-0.0014838549500601,0.0014838549500617,-0.0014838549500595,0.0014838549500598,-0.0014838549500599,0.0014838549500591,-5.9489359111503e-16,-4.6260351483899e-16,-0.0015189499184309,0.0015189499184301,3.3160751667681e-16,-1.4590142516455e-15,-0.0015583043688287,0.0015583043688281,-0.0015583043688288,0.0015583043688276,-0.0015583043688282,0.0015583043688282,-0.0015583043688292,0.001558304368828,-0.0014838549500603,0.0014838549500581,-0.0014838549500605,0.0014838549500596,0.6970378038256,0.7763434264496,1270536,32768,0.0063089366429315,0.0063089366429319,0.0063089366429319,18.599635801632,18.59861577697,6.3997086413056e-05,6.3997086413056e-05,6.3997086413056e-05,457761.17222671,0.019107415295575
20520000,0.99981084603276,0.018750695233958,0.0062502317446524,0.0062502317446529,0.0062502317446528,-0.0015187380638787,0.0015187380638785,-4.3263384215662e-17,-3.2575475429822e-16,-9.177954913895e-16,5.4636566184525e-16,-0.0015581798133629,0.0015581798133619,-0.0015581798133626,0.0015581798133622,-0.0015581798133629,0.0015581798133625,-0.0015581798133621,0.0015581798133628,-0.0014835532695788,0.0014835532695813,-0.0014835532695795,0.0014835532695816,7.7838798548723e-16,-5.6886497450669e-16,-8.5797378948967e-16,1.117730559981e-15,-0.0015187380638786,0.0015187380638789,-0.0015581798133628,0.0015581798133627,-0.0015581798133622,0.0015581798133635,-0.0015581798133638,0.0015581798133626,-0.0015581798133623,0.0015581798133632,-0.0014835532695834,0.0014835532695805,-0.0014835532695822,0.0014835532695838,-0.0014835532695816,0.0014835532695818,-0.001483553269582,0.0014835532695813,-5.6130638188709e-16,-4.2983980986533e-16,-0.0015187380638791,0.0015187380638783,3.5063634712381e-16,-1.4171919998749e-15,-0.0015581798133632,0.0015581798133627,-0.0015581798133633,0.0015581798133622,-0.0015581798133628,0.0015581798133628,-0.0015581798133637,0.0015581798133627,-0.0014835532695823,0.0014835532695802,-0.0014835532695825,0.0014835532695817,0.68611391840527,0.6339437491568,1270536,32768,0.0063080592931812,0.0063080592931815,0.0063080592931815,18.583928225488,18.582908196155,6.38714258039e-05,6.38714258039e-05,6.38714258039e-05,462222.38800331,0.019104733354475
20606400,0.99981450299611,0.018750756356372,0.0062502521187902,0.0062502521187907,0.0062502521187906,-0.0015182697852788,0.0015182697852791,2.1346406705457e-16,-6.8497907435947e-17,-6.6497968532707e-16,8.1773972449509e-16,-0.0015579226014596,0.0015579226014592,-0.0015579226014592,0.0015579226014593,-0.0015579226014597,0.0015579226014597,-0.0015579226014587,0.0015579226014604,-0.0014828853950356,0.0014828853950389,-0.0014828853950362,0.0014828853950386,5.8780557235502e-16,-7.8221139809637e-16,-1.0193806233276e-15,9.4338294500448e-16,-0.0015182697852791,0.001518269785279,-0.0015579226014598,0.001557922601459,-0.0015579226014591,0.0015579226014601,-0.0015579226014608,0.0015579226014594,-0.0015579226014592,0.0015579226014601,-0.0014828853950409,0.0014828853950371,-0.0014828853950397,0.0014828853950408,-0.001482885395039,0.0014828853950385,-0.0014828853950393,0.0014828853950384,-6.2198099890743e-16,-4.9513193288285e-16,-0.0015182697852795,0.0015182697852786,2.3819860554905e-16,-1.5123067412436e-15,-0.0015579226014604,0.0015579226014597,-0.0015579226014604,0.0015579226014587,-0.0015579226014594,0.0015579226014594,-0.0015579226014607,0.0015579226014593,-0.0014828853950391,0.0014828853950374,-0.0014828853950394,0.0014828853950389,0.67193468869246,0.491544071864,1270536,32768,0.0063061201621044,0.0063061201621048,0.0063061201621048,18.568220645222,18.567200615341,6.3745765161776e-05,6.3745765161776e-05,6.3745765161776e-05,474828.06586622,0.019098805262627
20692800,0.99981803315538,0.01875081563616,0.0062502718787199,0.0062502718787203,0.0062502718787203,-0.0015172421209565,0.0015172421209564,1.1999633419436e-17,-3.1743147915679e-16,-1.0304391090278e-15,6.9627284698953e-16,-0.00155716349009,0.0015571634900891,-0.0015571634900898,0.0015571634900893,-0.00155716349009,0.0015571634900898,-0.0015571634900892,0.0015571634900901,-0.0014816155687025,0.0014816155687054,-0.0014816155687034,0.0014816155687057,8.5985608492801e-16,-7.185662835874e-16,-6.8903777389839e-16,9.2679521645408e-16,-0.0015172421209564,0.0015172421209567,-0.0015571634900899,0.0015571634900898,-0.0015571634900894,0.0015571634900905,-0.001557163490091,0.0015571634900897,-0.0015571634900895,0.0015571634900902,-0.0014816155687071,0.0014816155687045,-0.0014816155687064,0.0014816155687075,-0.0014816155687057,0.0014816155687059,-0.0014816155687064,0.0014816155687051,-6.1409888675937e-16,-4.1416381816788e-16,-0.001517242120957,0.0015172421209561,2.13258190991e-16,-1.2947839746501e-15,-0.0015571634900903,0.0015571634900898,-0.0015571634900904,0.0015571634900893,-0.0015571634900899,0.0015571634900898,-0.0015571634900907,0.0015571634900898,-0.0014816155687063,0.0014816155687043,-0.0014816155687067,0.0014816155687057,0.67516057238668,0.58805728786835,1270536,32768,0.0063018649179356,0.0063018649179361,0.006301864917936,18.315028607853,18.299098360611,6.1720228862822e-05,6.1720228862822e-05,6.1720228862822e-05,491175.99361505,0.019085796149893
20779200,0.99982141373694,0.01875087299639,0.0062502909987965,0.0062502909987969,0.0062502909987969,-0.0015167595552332,0.001516759555233,-1.2076101671619e-16,-2.7110936485382e-16,-1.0241451836559e-15,7.5544750983243e-16,-0.0015565714668188,0.0015565714668178,-0.0015565714668185,0.0015565714668182,-0.0015565714668188,0.0015565714668185,-0.001556571466818,0.0015565714668189,-0.0014812528687594,0.0014812528687618,-0.0014812528687602,0.0014812528687623,8.9379622455063e-16,-7.6574131301087e-16,-8.6250306288818e-16,1.0972017753566e-15,-0.0015167595552331,0.0015167595552334,-0.0015565714668188,0.0015565714668187,-0.0015565714668182,0.0015565714668195,-0.0015565714668199,0.0015565714668185,-0.0015565714668184,0.0015565714668191,-0.0014812528687639,0.0014812528687609,-0.0014812528687626,0.0014812528687642,-0.0014812528687619,0.0014812528687624,-0.0014812528687626,0.0014812528687611,-5.5404189792974e-16,-5.5563008470584e-16,-0.0015167595552337,0.0015167595552328,3.1766676608659e-16,-1.4366619933152e-15,-0.0015565714668192,0.0015565714668187,-0.0015565714668193,0.0015565714668182,-0.0015565714668188,0.0015565714668187,-0.0015565714668197,0.0015565714668185,-0.0014812528687629,0.0014812528687605,-0.0014812528687628,0.0014812528687618,0.6823136439871,0.70224007486516,1270536,32768,0.0062998671126941,0.0062998671126945,0.0062998671126945,17.929385487371,17.904653915224,5.8635083898964e-05,5.8635083898964e-05,5.8635083898964e-05,482862.35153224,0.019079687826615
20865600,0.99982465070041,0.018750927730911,0.0062503092436367,0.0062503092436371,0.0062503092436371,-0.0015163389794367,0.0015163389794365,-1.8131799027162e-16,-3.461070737253e-16,-1.16143510719e-15,7.8318195668176e-16,-0.0015559976151125,0.0015559976151114,-0.0015559976151115,0.0015559976151116,-0.0015559976151114,0.0015559976151114,-0.0015559976151106,0.0015559976151134,-0.0014809859143173,0.0014809859143164,-0.0014809859143175,0.0014809859143184,1.8712369526426e-15,6.1233423478592e-17,1.2234920349229e-17,1.835590982779e-15,-0.001516338979436,0.0015163389794379,-0.0015559976151117,0.0015559976151146,-0.001555997615114,0.0015559976151156,-0.0015559976151159,0.0015559976151139,-0.0015559976151122,0.0015559976151156,-0.0014809859143187,0.0014809859143182,-0.00148098591432,0.0014809859143205,-0.0014809859143146,0.0014809859143175,-0.0014809859143163,0.0014809859143187,-1.4330738676359e-15,-1.4123097960817e-15,-0.0015163389794385,0.0015163389794357,-7.4280083735606e-16,-2.3385756169437e-15,-0.0015559976151164,0.0015559976151136,-0.0015559976151162,0.0015559976151125,-0.0015559976151144,0.0015559976151138,-0.0015559976151173,0.0015559976151135,-0.0014809859143177,0.0014809859143138,-0.0014809859143165,0.0014809859143163,0.67990908075134,0.66276105870007,1270536,32768,0.0062981259548354,0.0062981259548369,0.0062981259548375,17.535739051098,17.510209469836,5.548591240878e-05,5.548591240878e-05,5.548591240878e-05,471857.51183153,0.019074364240141
20952000,0.9998277511925,0.018750979763533,0.006250326587844,0.0062503265878445,0.0062503265878444,-0.0015154717900837,0.0015154717900836,-5.1939589751774e-17,-2.2022856628612e-16,-1.0946136191288e-15,8.4050373495255e-16,-0.0015551817719394,0.0015551817719383,-0.001555181771939,0.0015551817719387,-0.0015551817719392,0.0015551817719391,-0.0015551817719384,0.0015551817719395,-0.0014800724126593,0.0014800724126619,-0.0014800724126598,0.0014800724126623,9.3944188893045e-16,-8.7638499174596e-16,-8.4026844802276e-16,9.559707957484e-16,-0.0015154717900837,0.0015154717900838,-0.0015551817719392,0.0015551817719391,-0.0015551817719387,0.0015551817719398,-0.0015551817719403,0.001555181771939,-0.0015551817719389,0.0015551817719394,-0.0014800724126639,0.0014800724126608,-0.001480072412663,0.001480072412664,-0.0014800724126619,0.0014800724126625,-0.0014800724126628,0.0014800724126613,-5.0483751873681e-16,-4.8827920105264e-16,-0.0015154717900842,0.0015154717900833,2.5899208796949e-16,-1.3319004878249e-15,-0.0015551817719396,0.0015551817719391,-0.0015551817719397,0.0015551817719386,-0.0015551817719392,0.0015551817719391,-0.0015551817719401,0.001555181771939,-0.0014800724126628,0.0014800724126606,-0.0014800724126629,0.0014800724126622,0.67472026288989,0.60352140130351,1270536,32768,0.0062945352707213,0.0062945352707218,0.0062945352707217,17.141371417265,17.115765024449,5.2330971338122e-05,5.2330971338122e-05,5.2330971338122e-05,474257.27093504,0.019063386937378
21038400,0.99983072206219,0.018751029477932,0.0062503431593103,0.0062503431593107,0.0062503431593106,-0.001514515603605,0.0015145156036078,1.3391943826485e-15,1.1294654956044e-15,3.0822587802865e-16,2.1849038409227e-15,-0.0015543202699318,0.0015543202699349,-0.0015543202699336,0.001554320269935,-0.0015543202699327,0.0015543202699344,-0.0015543202699312,0.0015543202699362,-0.0014790319748273,0.0014790319748329,-0.0014790319748287,0.0014790319748315,2.9552038381983e-16,-1.5017188294029e-15,-1.4441911750686e-15,7.8232904156126e-17,-0.001514515603607,0.0015145156036056,-0.0015543202699353,0.0015543202699352,-0.0015543202699351,0.001554320269935,-0.0015543202699383,0.0015543202699337,-0.001554320269935,0.001554320269934,-0.0014790319748344,0.0014790319748287,-0.0014790319748326,0.0014790319748302,-0.0014790319748359,0.0014790319748296,-0.0014790319748308,0.0014790319748318,-9.3229504843799e-16,-8.6820877093566e-16,-0.0015145156036073,0.0015145156036057,-2.2472842881841e-16,-1.5256004527769e-15,-0.0015543202699364,0.0015543202699342,-0.0015543202699363,0.0015543202699343,-0.001554320269936,0.0015543202699354,-0.0015543202699358,0.0015543202699349,-0.0014790319748325,0.0014790319748306,-0.0014790319748333,0.0014790319748301,0.67280847320461,0.59930568982545,1270536,32768,0.0062905760652426,0.0062905760652423,0.006290576065243,16.746934473461,16.721320579061,4.9175475787683e-05,4.9175475787683e-05,4.9175475787683e-05,479548.43688604,0.0190512831035
21124800,0.99983356976156,0.018751077079826,0.0062503590266083,0.0062503590266088,0.0062503590266087,-0.0015137190289787,0.0015137190289803,7.8915236252526e-16,6.0833435697944e-16,-3.65753532363e-16,1.532835525868e-15,-0.0015535446277697,0.0015535446277698,-0.0015535446277689,0.0015535446277705,-0.0015535446277696,0.0015535446277709,-0.0015535446277679,0.0015535446277714,-0.0014782232519831,0.0014782232519873,-0.0014782232519838,0.001478223251988,2.2154617309296e-15,4.549272787545e-16,5.2380752745136e-16,2.0831716546535e-15,-0.0015137190289784,0.0015137190289812,-0.0015535446277681,0.0015535446277709,-0.0015535446277682,0.0015535446277718,-0.00155354462777,0.0015535446277705,-0.0015535446277684,0.0015535446277708,-0.0014782232519872,0.001478223251987,-0.0014782232519871,0.0014782232519902,-0.0014782232519867,0.0014782232519888,-0.001478223251986,0.0014782232519876,-4.7283849628498e-16,-4.4086888469937e-16,-0.0015137190289801,0.0015137190289796,1.3643700841364e-16,-1.2684906602458e-15,-0.0015535446277699,0.0015535446277693,-0.0015535446277698,0.00155354462777,-0.0015535446277691,0.0015535446277687,-0.0015535446277703,0.0015535446277703,-0.0014782232519868,0.0014782232519859,-0.0014782232519887,0.0014782232519876,0.67212604068122,0.60848535776365,1270536,32768,0.0062872778400333,0.0062872778400345,0.0062872778400347,16.352490763689,16.326876133673,4.6019926109512e-05,4.6019926109512e-05,4.6019926109512e-05,480052.58845181,0.01904119987564
21211200,0.99983630036202,0.018751122703234,0.006250374234411,0.0062503742344114,0.0062503742344114,-0.0015129709631513,0.0015129709631515,8.8703172531909e-17,-9.3555965458886e-17,-9.3785370215435e-16,9.4955922691154e-16,-0.0015527940453336,0.0015527940453331,-0.0015527940453335,0.0015527940453332,-0.0015527940453339,0.0015527940453335,-0.0015527940453332,0.001552794045334,-0.0014774846611187,0.0014774846611215,-0.0014774846611193,0.0014774846611216,1.167729032562e-15,-6.064520615411e-16,-4.7592663723851e-16,1.107495578535e-15,-0.0015129709631512,0.0015129709631519,-0.0015527940453338,0.001552794045334,-0.001552794045333,0.0015527940453344,-0.0015527940453346,0.001552794045334,-0.0015527940453333,0.0015527940453341,-0.0014774846611225,0.0014774846611203,-0.0014774846611221,0.0014774846611232,-0.001477484661121,0.001477484661122,-0.0014774846611219,0.0014774846611211,-4.5530962001541e-16,-4.2119301519545e-16,-0.0015129709631519,0.0015129709631512,1.9561167125654e-16,-1.1844344045773e-15,-0.0015527940453342,0.0015527940453337,-0.0015527940453342,0.0015527940453332,-0.0015527940453336,0.0015527940453338,-0.0015527940453347,0.0015527940453339,-0.0014774846611218,0.0014774846611203,-0.0014774846611219,0.0014774846611217,0.67182167964678,0.61766502570186,1270536,32768,0.0062841804773298,0.0062841804773306,0.0062841804773305,15.958046390545,15.932431688286,4.2864371124357e-05,4.2864371124357e-05,4.2864371124357e-05,479046.58140519,0.019031730777351
21297600,0.99983893193572,0.018751166672374,0.006250388890791,0.0062503888907914,0.0062503888907914,-0.0015123725128324,0.0015123725128322,-7.3703630757614e-17,-2.5643334260799e-16,-1.0980841013433e-15,7.785938615508e-16,-0.0015521871460712,0.0015521871460701,-0.0015521871460708,0.0015521871460703,-0.001552187146071,0.0015521871460709,-0.0015521871460704,0.0015521871460712,-0.0014768995490325,0.0014768995490353,-0.0014768995490331,0.0014768995490356,9.9596957381318e-16,-7.6303551331825e-16,-6.4368621818082e-16,9.3067745079566e-16,-0.0015123725128322,0.0015123725128326,-0.001552187146071,0.0015521871460711,-0.0015521871460706,0.0015521871460718,-0.0015521871460721,0.001552187146071,-0.0015521871460708,0.0015521871460715,-0.001476899549037,0.0014768995490342,-0.0014768995490363,0.0014768995490372,-0.0014768995490353,0.0014768995490358,-0.0014768995490361,0.0014768995490346,-4.8060296496814e-16,-4.5036859448976e-16,-0.0015123725128328,0.001512372512832,1.9049418053355e-16,-1.1806109919681e-15,-0.0015521871460716,0.001552187146071,-0.0015521871460716,0.0015521871460706,-0.0015521871460712,0.001552187146071,-0.001552187146072,0.0015521871460712,-0.001476899549036,0.001476899549034,-0.0014768995490362,0.0014768995490356,0.67182493523469,0.62684469364006,1270536,32768,0.0062817025982433,0.0062817025982437,0.0062817025982437,15.63746515147,15.61648786709,4.0299721211756e-05,4.0299721211756e-05,4.0299721211756e-05,477739.62322247,0.019024155562664
21384000,0.99984147394367,0.018751209161986,0.0062504030539949,0.0062504030539954,0.0062504030539953,-0.0015118402894784,0.0015118402894783,-3.508716340536e-17,-2.1672867320545e-16,-1.0609675881685e-15,8.1756325929775e-16,-0.0015516445474242,0.0015516445474232,-0.0015516445474239,0.0015516445474236,-0.0015516445474241,0.0015516445474239,-0.0015516445474234,0.0015516445474244,-0.0014763815321864,0.001476381532189,-0.0014763815321869,0.0014763815321894,9.015606932338e-16,-8.5738557216519e-16,-7.2703661305994e-16,8.3744500486524e-16,-0.0015118402894783,0.0015118402894785,-0.0015516445474241,0.001551644547424,-0.0015516445474237,0.0015516445474247,-0.0015516445474253,0.0015516445474239,-0.0015516445474239,0.0015516445474243,-0.0014763815321909,0.0014763815321881,-0.0014763815321902,0.001476381532191,-0.0014763815321891,0.0014763815321894,-0.0014763815321899,0.0014763815321884,-4.763972110981e-16,-4.449275842383e-16,-0.0015118402894788,0.001511840289478,1.8520022461321e-16,-1.1774934401484e-15,-0.0015516445474246,0.0015516445474241,-0.0015516445474246,0.0015516445474236,-0.0015516445474241,0.001551644547424,-0.001551644547425,0.001551644547424,-0.0014763815321898,0.0014763815321878,-0.0014763815321899,0.0014763815321894,0.67208649909749,0.63602436157827,1270536,32768,0.006279498920798,0.0062794989207985,0.0062794989207985,15.348621213261,15.329787530369,3.7988969706084e-05,3.7988969706084e-05,3.7988969706084e-05,476284.87776267,0.019017418693896
21470400,0.99984393036925,0.018751250978807,0.0062504169929355,0.0062504169929359,0.0062504169929359,-0.0015113154940914,0.0015113154940916,1.1846696915071e-16,-8.5497388113481e-17,-8.8726701224888e-16,9.9596957381318e-16,-0.0015511080154916,0.0015511080154911,-0.0015511080154918,0.0015511080154917,-0.0015511080154921,0.0015511080154918,-0.0015511080154911,0.0015511080154925,-0.0014758713374108,0.0014758713374142,-0.0014758713374115,0.0014758713374143,9.2138361706885e-16,-8.339745226508e-16,-6.9115535626653e-16,8.553268115295e-16,-0.0015113154940915,0.0015113154940917,-0.0015511080154914,0.001551108015492,-0.0015511080154917,0.0015511080154924,-0.001551108015493,0.0015511080154918,-0.0015511080154918,0.0015511080154923,-0.001475871337415,0.0014758713374125,-0.0014758713374139,0.0014758713374158,-0.0014758713374141,0.0014758713374145,-0.0014758713374142,0.0014758713374133,-4.5945655215301e-16,-4.086933970502e-16,-0.001511315494092,0.0015113154940913,1.3802519518974e-16,-1.2146687750556e-15,-0.0015511080154925,0.001551108015492,-0.0015511080154924,0.0015511080154916,-0.0015511080154919,0.0015511080154918,-0.0015511080154928,0.001551108015492,-0.0014758713374147,0.0014758713374131,-0.0014758713374151,0.0014758713374144,0.68445628862651,0.79628828823982,1270536,32768,0.0062773259860653,0.0062773259860656,0.0062773259860657,15.061725950895,15.043087193648,3.5693807607161e-05,3.5693807607161e-05,3.5693807607161e-05,474721.67864605,0.019010775883923
