time,ASR_ext,ASR_strain,ASR_strain_xx,ASR_strain_yy,ASR_strain_zz,disp_x_101,disp_x_102,disp_x_103,disp_x_104,disp_x_105,disp_x_106,disp_x_p1_neg,disp_x_p1_pos,disp_x_p2_neg,disp_x_p2_pos,disp_x_p3_neg,disp_x_p3_pos,disp_x_p4_neg,disp_x_p4_pos,disp_x_p5_neg,disp_x_p5_pos,disp_x_p6_neg,disp_x_p6_pos,disp_y_101,disp_y_102,disp_y_103,disp_y_104,disp_y_105,disp_y_106,disp_y_p1_neg,disp_y_p1_pos,disp_y_p2_neg,disp_y_p2_pos,disp_y_p3_neg,disp_y_p3_pos,disp_y_p4_neg,disp_y_p4_pos,disp_y_p5_neg,disp_y_p5_pos,disp_y_p6_neg,disp_y_p6_pos,disp_y_p7_neg,disp_y_p7_pos,disp_y_p8_neg,disp_y_p8_pos,disp_z_101,disp_z_102,disp_z_103,disp_z_104,disp_z_105,disp_z_106,disp_z_p1_neg,disp_z_p1_pos,disp_z_p2_neg,disp_z_p2_pos,disp_z_p3_neg,disp_z_p3_pos,disp_z_p4_neg,disp_z_p4_pos,disp_z_p5_neg,disp_z_p5_pos,disp_z_p6_neg,disp_z_p6_pos,humidity,humidity_bc,ndof,nelem,strain_xx,strain_yy,strain_zz,temp,temp_bc,thermal_strain_xx,thermal_strain_yy,thermal_strain_zz,vonmises,vstrain
2419200,0,0,0,0,0,0,0,0,0,0,0,0,0,0,0,0,0,0,0,0,0,0,0,0,0,0,0,0,0,0,0,0,0,0,0,0,0,0,0,0,0,0,0,0,0,0,0,0,0,0,0,0,0,0,0,0,0,0,0,0,0,0,0,0,0,0,0,0,0,0,0,0,0,0,0,0,0
2505600,0.0094350757504544,0.00016976977058899,5.6589923529663e-05,5.6589923529663e-05,5.6589923529663e-05,-5.0619072384491e-05,5.0619072384609e-05,7.7874344337824e-17,3.9105652775622e-17,-1.1867031771796e-16,2.3877671288827e-16,-4.9672748098623e-05,4.9672748098635e-05,-4.9672748098636e-05,4.9672748098623e-05,-4.9672748098506e-05,4.9672748098754e-05,-4.9672748098519e-05,4.9672748098741e-05,-5.130658849091e-05,5.130658849118e-05,-5.1306588490948e-05,5.1306588491145e-05,1.1882035909018e-16,-2.3871122775644e-16,-8.6883834729077e-17,-3.1809230455727e-17,-5.0619072384609e-05,5.0619072384491e-05,-4.9672748098609e-05,4.967274809859e-05,-4.9672748098591e-05,4.9672748098609e-05,-4.9672748098726e-05,4.9672748098471e-05,-4.9672748098708e-05,4.967274809849e-05,-5.1306588491218e-05,5.1306588490926e-05,-5.1306588491163e-05,5.1306588490978e-05,-5.1306588491008e-05,5.1306588491257e-05,-5.1306588491355e-05,5.1306588490904e-05,-2.9377089682428e-17,9.3953931242481e-18,-5.0619072384559e-05,5.0619072384541e-05,1.8375817307866e-17,-3.6512211782875e-17,-4.9672748098607e-05,4.9672748098593e-05,-4.9672748098625e-05,4.9672748098574e-05,-4.9672748098594e-05,4.9672748098606e-05,-4.9672748098612e-05,4.9672748098588e-05,-5.1306588491127e-05,5.1306588491126e-05,-5.1306588491161e-05,5.1306588491085e-05,0.81632500510695,0.89000107803841,1270536,32768,0.00021089048454939,0.00021089048454939,0.00021089048454939,29.88804505053,31.134358786665,0.00015430436040424,0.00015430436040424,0.00015430436040424,296082.4842999,0.00063287195041474
2592000,0.020798936656598,0.00037512993004435,0.00012504331001477,0.00012504331001479,0.00012504331001479,-7.0490856330175e-05,7.0490856330503e-05,1.8369866202903e-16,1.4463896373188e-16,7.6546374796088e-18,3.3648604411174e-16,-6.9811699347621e-05,6.9811699347841e-05,-6.9811699347627e-05,6.9811699347807e-05,-6.9811699347563e-05,6.9811699348064e-05,-6.9811699347557e-05,6.9811699348007e-05,-7.1040295519255e-05,7.1040295519886e-05,-7.1040295519372e-05,7.1040295519857e-05,2.7294570581369e-16,-5.7359001398351e-17,9.4360168832202e-17,1.394911430531e-16,-7.0490856330228e-05,7.049085633047e-05,-6.9811699347371e-05,6.9811699347646e-05,-6.9811699347303e-05,6.9811699347816e-05,-6.9811699347523e-05,6.9811699347776e-05,-6.9811699347528e-05,6.981169934766e-05,-7.1040295519838e-05,7.1040295519985e-05,-7.1040295519842e-05,7.1040295519929e-05,-7.1040295519486e-05,7.1040295519963e-05,-7.1040295519804e-05,7.1040295519763e-05,9.6134471246128e-18,4.8680498138315e-17,-7.0490856330295e-05,7.049085633037e-05,4.9232870969587e-17,4.8141911650586e-18,-6.9811699347575e-05,6.9811699347636e-05,-6.9811699347551e-05,6.9811699347587e-05,-6.9811699347605e-05,6.9811699347659e-05,-6.9811699347494e-05,6.9811699347704e-05,-7.104029551974e-05,7.1040295519686e-05,-7.1040295519703e-05,7.1040295519684e-05,0.823493973571,0.89156329086413,1270536,32768,0.00029366871966741,0.00029366871966745,0.00029366871966738,31.683708466874,31.842440124136,0.00016866966773499,0.00016866966773499,0.00016866966773499,183057.17315763,0.00088139456088434
2678400,0.033282344015198,0.00060231249616278,0.00020077083205426,0.00020077083205426,0.00020077083205425,-9.0219007994763e-05,9.0219007994901e-05,9.6625724621028e-17,5.7624618283937e-17,-7.5446684126177e-17,2.3766461450917e-16,-8.9416163413793e-05,8.9416163413785e-05,-8.9416163413905e-05,8.9416163413784e-05,-8.9416163413653e-05,8.9416163413945e-05,-8.9416163413652e-05,8.941616341391e-05,-9.0894964617204e-05,9.0894964617627e-05,-9.0894964617253e-05,9.0894964617448e-05,6.2987965466774e-17,-2.5109986583617e-16,-1.0520312802842e-16,-6.3559639179005e-17,-9.0219007994904e-05,9.021900799473e-05,-8.9416163413684e-05,8.9416163413595e-05,-8.9416163413619e-05,8.941616341367e-05,-8.9416163413733e-05,8.9416163413565e-05,-8.9416163413812e-05,8.9416163413455e-05,-9.0894964617626e-05,9.0894964617339e-05,-9.0894964617667e-05,9.0894964617366e-05,-9.08949646172e-05,9.0894964617303e-05,-9.0894964617569e-05,9.0894964617157e-05,-5.3162897968783e-17,-1.4090562190056e-17,-9.0219007994853e-05,9.0219007994787e-05,-1.4221072908926e-17,-5.3885302370413e-17,-8.9416163413718e-05,8.9416163413565e-05,-8.9416163413691e-05,8.9416163413562e-05,-8.9416163413674e-05,8.941616341359e-05,-8.9416163413617e-05,8.9416163413639e-05,-9.0894964617293e-05,9.0894964617334e-05,-9.0894964617367e-05,9.0894964617252e-05,0.82856962933399,0.89127806232602,1270536,32768,0.00037584181407951,0.00037584181407945,0.00037584181407946,32.491670326842,32.550521461607,0.00017513336261474,0.00017513336261474,0.00017513336261474,202855.87654472,0.001128161646596
2764800,0.046395830133275,0.00084204242885016,0.00028068080961673,0.00028068080961671,0.00028068080961671,-0.00011005205775861,0.00011005205775869,5.7449072176162e-17,1.8858339331855e-17,-1.0079011946045e-16,1.79980714948e-16,-0.00010909190496207,0.00010909190496205,-0.00010909190496211,0.00010909190496205,-0.00010909190496199,0.00010909190496217,-0.00010909190496199,0.00010909190496215,-0.00011087080501485,0.00011087080501509,-0.00011087080501489,0.00011087080501503,1.171471565289e-16,-1.6550275650439e-16,-3.914034840687e-17,-1.5891058656713e-18,-0.00011005205775867,0.00011005205775863,-0.00010909190496201,0.00010909190496204,-0.00010909190496198,0.00010909190496209,-0.0001090919049621,0.00010909190496199,-0.0001090919049621,0.00010909190496197,-0.00011087080501507,0.00011087080501494,-0.00011087080501506,0.00011087080501493,-0.00011087080501485,0.00011087080501508,-0.00011087080501514,0.00011087080501486,-2.3212985712162e-17,1.6313839858685e-17,-0.00011005205775865,0.00011005205775864,1.2406790098726e-17,-2.3070067284104e-17,-0.00010909190496205,0.00010909190496203,-0.00010909190496205,0.00010909190496201,-0.00010909190496203,0.00010909190496205,-0.00010909190496202,0.00010909190496205,-0.00011087080501496,0.00011087080501498,-0.00011087080501501,0.00011087080501494,0.83258672990354,0.89099283378791,1270536,32768,0.00045844501951891,0.00045844501951889,0.00045844501951888,32.83026939697,32.854492038584,0.00017784215517576,0.00017784215517576,0.00017784215517576,231447.33498639,0.0013762817348102
2851200,0.059648364422344,0.00108519945686,0.00036173315228669,0.00036173315228667,0.00036173315228667,-0.00012932793804587,0.00012932793804593,5.0443771477407e-17,1.1863608163149e-17,-1.0056632115027e-16,1.6547104791425e-16,-0.00012821583553053,0.0001282158355305,-0.00012821583553056,0.00012821583553049,-0.00012821583553045,0.00012821583553061,-0.00012821583553045,0.0001282158355306,-0.00013028021373573,0.00013028021373596,-0.00013028021373577,0.00013028021373589,1.1540180543641e-16,-1.5245673961008e-16,-3.2651576046177e-17,2.7940322912902e-18,-0.00012932793804591,0.00012932793804588,-0.00012821583553046,0.0001282158355305,-0.00012821583553043,0.00012821583553054,-0.00012821583553055,0.00012821583553045,-0.00012821583553054,0.00012821583553043,-0.00013028021373593,0.00013028021373582,-0.00013028021373592,0.00013028021373581,-0.00013028021373573,0.00013028021373595,-0.00013028021373601,0.00013028021373575,-2.2592140707962e-17,1.6935144407669e-17,-0.00012932793804589,0.00012932793804589,1.1997795240297e-17,-2.1401919715455e-17,-0.00012821583553051,0.00012821583553048,-0.00012821583553051,0.00012821583553046,-0.00012821583553049,0.0001282158355305,-0.00012821583553048,0.0001282158355305,-0.00013028021373583,0.00013028021373586,-0.00013028021373588,0.00013028021373582,0.83593413265121,0.89070760524979,1270536,32768,0.00053872110765331,0.00053872110765329,0.00053872110765328,32.734779413275,32.729407863211,0.0001770782353062,0.0001770782353062,0.0001770782353062,255858.69544701,0.001617470682472
2937600,0.073000135764507,0.0013309577198804,0.00044365257329348,0.00044365257329346,0.00044365257329345,-0.00014876230311363,0.00014876230311368,4.4000034505619e-17,5.4318193557649e-18,-9.8820510513002e-17,1.5051562243929e-16,-0.00014748826856879,0.00014748826856875,-0.00014748826856882,0.00014748826856874,-0.00014748826856871,0.00014748826856885,-0.00014748826856872,0.00014748826856884,-0.00014985035589099,0.0001498503558912,-0.00014985035589104,0.00014985035589114,1.1170614627744e-16,-1.3950401030707e-16,-2.7715145968374e-17,6.8894954129972e-18,-0.00014876230311366,0.00014876230311364,-0.00014748826856871,0.00014748826856876,-0.00014748826856869,0.0001474882685688,-0.00014748826856879,0.00014748826856871,-0.00014748826856879,0.00014748826856869,-0.00014985035589118,0.00014985035589108,-0.00014985035589117,0.00014985035589107,-0.00014985035589099,0.0001498503558912,-0.00014985035589125,0.00014985035589102,-2.2308142030986e-17,1.7238443965605e-17,-0.00014876230311365,0.00014876230311364,1.16963338615e-17,-2.0742013404552e-17,-0.00014748826856876,0.00014748826856874,-0.00014748826856876,0.00014748826856872,-0.00014748826856874,0.00014748826856876,-0.00014748826856873,0.00014748826856876,-0.00014985035589109,0.00014985035589112,-0.00014985035589114,0.00014985035589108,0.8388111724683,0.89042237671169,1270536,32768,0.00061965068492044,0.00061965068492042,0.00061965068492042,32.612468298898,32.604323687838,0.00017609974639118,0.00017609974639118,0.00017609974639118,280723.7442092,0.001860681884534
3024000,0.086437971535931,0.0015782760051131,0.00052609200170437,0.00052609200170435,0.00052609200170434,-0.00016831916811008,0.00016831916811012,4.0073683864701e-17,1.4733005799139e-18,-9.7268168230111e-17,1.4067768768732e-16,-0.00016690044568051,0.00016690044568048,-0.00016690044568055,0.00016690044568047,-0.00016690044568045,0.00016690044568058,-0.00016690044568045,0.00016690044568056,-0.00016951919035801,0.00016951919035821,-0.00016951919035805,0.00016951919035814,1.0901137565966e-16,-1.3083607657708e-16,-2.4892621900429e-17,9.4316971622435e-18,-0.0001683191681101,0.00016831916811008,-0.00016690044568044,0.00016690044568049,-0.00016690044568042,0.00016690044568053,-0.00016690044568052,0.00016690044568045,-0.00016690044568052,0.00016690044568042,-0.00016951919035818,0.00016951919035809,-0.00016951919035818,0.00016951919035808,-0.000169519190358,0.00016951919035821,-0.00016951919035825,0.00016951919035804,-2.1834810902691e-17,1.7811955856975e-17,-0.00016831916811009,0.00016831916811009,1.1764346489643e-17,-2.0396435726419e-17,-0.00016690044568049,0.00016690044568047,-0.00016690044568049,0.00016690044568045,-0.00016690044568047,0.00016690044568049,-0.00016690044568046,0.00016690044568049,-0.0001695191903581,0.00016951919035813,-0.00016951919035814,0.00016951919035809,0.83891132534319,0.87677430802203,1270536,32768,0.00070108376784214,0.00070108376784211,0.00070108376784211,32.487657672971,32.479239512465,0.00017510126138377,0.00017510126138377,0.00017510126138377,298183.81815455,0.0021054658539754
3110400,0.099951549346906,0.0018258787227004,0.00060862624090015,0.00060862624090013,0.00060862624090012,-0.00018790335075092,0.00018790335075095,3.7011277419116e-17,-1.5220123270976e-18,-9.6111953551675e-17,1.328305009429e-16,-0.00018638014603512,0.00018638014603508,-0.00018638014603515,0.00018638014603507,-0.00018638014603506,0.00018638014603517,-0.00018638014603506,0.00018638014603516,-0.000189169078462,0.00018916907846219,-0.00018916907846204,0.00018916907846213,1.0681842794682e-16,-1.2401735106094e-16,-2.2660153336105e-17,1.1762508310504e-17,-0.00018790335075093,0.00018790335075092,-0.00018638014603505,0.0001863801460351,-0.00018638014603502,0.00018638014603513,-0.00018638014603512,0.00018638014603506,-0.00018638014603512,0.00018638014603503,-0.00018916907846217,0.00018916907846208,-0.00018916907846216,0.00018916907846207,-0.00018916907846199,0.0001891690784622,-0.00018916907846223,0.00018916907846203,-2.1616986674719e-17,1.7968201083791e-17,-0.00018790335075093,0.00018790335075092,1.2052940614467e-17,-2.0139090646958e-17,-0.0001863801460351,0.00018638014603507,-0.0001863801460351,0.00018638014603506,-0.00018638014603508,0.00018638014603509,-0.00018638014603507,0.00018638014603509,-0.00018916907846209,0.00018916907846211,-0.00018916907846213,0.00018916907846208,0.83525576244756,0.84958561210054,1270536,32768,0.000782623961548,0.00078262396154797,0.00078262396154796,32.362598223499,32.354155337091,0.00017410078578799,0.00017410078578799,0.00017410078578799,303186.53941567,0.0023506316845593
3196800,0.11353089117654,0.0020732361179246,0.0006910787059749,0.00069107870597487,0.00069107870597486,-0.00020747262735434,0.00020747262735437,3.5068322069186e-17,-3.403388675871e-18,-9.6161584388429e-17,1.2876444868742e-16,-0.00020588805471809,0.00020588805471805,-0.00020588805471813,0.00020588805471804,-0.00020588805471803,0.00020588805471814,-0.00020588805471803,0.00020588805471813,-0.00020876116370356,0.00020876116370375,-0.0002087611637036,0.00020876116370368,1.0591404381043e-16,-1.2096965004846e-16,-2.1521401359491e-17,1.2635643401532e-17,-0.00020747262735435,0.00020747262735434,-0.00020588805471802,0.00020588805471807,-0.000205888054718,0.00020588805471811,-0.00020588805471809,0.00020588805471803,-0.00020588805471809,0.00020588805471801,-0.00020876116370372,0.00020876116370364,-0.00020876116370371,0.00020876116370363,-0.00020876116370355,0.00020876116370375,-0.00020876116370379,0.0002087611637036,-2.1219020891124e-17,1.8313778761924e-17,-0.00020747262735435,0.00020747262735434,1.2165069541947e-17,-1.9756749386044e-17,-0.00020588805471807,0.00020588805471805,-0.00020588805471807,0.00020588805471803,-0.00020588805471805,0.00020588805471807,-0.00020588805471804,0.00020588805471807,-0.00020876116370365,0.00020876116370368,-0.00020876116370369,0.00020876116370364,0.83036995201464,0.82666567875123,1270536,32768,0.00086409546382268,0.00086409546382265,0.00086409546382264,32.237513609258,32.229071161718,0.00017310010887406,0.00017310010887406,0.00017310010887406,296746.4843457,0.00259565083109
3283200,0.12716569866989,0.0023177087012833,0.00077256956709446,0.00077256956709443,0.00077256956709442,-0.00022681260376345,0.00022681260376347,3.2842746676633e-17,-5.7011125996294e-18,-9.5069705979859e-17,1.2297602257869e-16,-0.00022526402452546,0.00022526402452542,-0.0002252640245255,0.00022526402452541,-0.00022526402452541,0.00022526402452551,-0.00022526402452541,0.0002252640245255,-0.00022802127057201,0.00022802127057218,-0.00022802127057205,0.00022802127057212,1.0409608464195e-16,-1.1590270925179e-16,-2.0297174052912e-17,1.4369046329616e-17,-0.00022681260376346,0.00022681260376345,-0.00022526402452539,0.00022526402452544,-0.00022526402452537,0.00022526402452548,-0.00022526402452546,0.00022526402452541,-0.00022526402452546,0.00022526402452538,-0.00022802127057216,0.00022802127057208,-0.00022802127057215,0.00022802127057207,-0.000228021270572,0.00022802127057219,-0.00022802127057223,0.00022802127057205,-2.117122823351e-17,1.8402011360596e-17,-0.00022681260376346,0.00022681260376345,1.236175470982e-17,-2.0036152615173e-17,-0.00022526402452544,0.00022526402452542,-0.00022526402452544,0.0002252640245254,-0.00022526402452542,0.00022526402452544,-0.00022526402452541,0.00022526402452544,-0.00022802127057209,0.00022802127057212,-0.00022802127057213,0.00022802127057208,0.81721011915912,0.76479338888033,1270536,32768,0.00094460585027222,0.00094460585027219,0.00094460585027219,32.11242643997,32.103986986345,0.00017209941151976,0.00017209941151976,0.00017209941151976,267154.93627399,0.0028378381744521
3369600,0.14084614056817,0.0025595366669949,0.00085317888899833,0.0008531788889983,0.0008531788889983,-0.00024594294179748,0.0002459429417975,3.1901598957462e-17,-6.6009012881732e-18,-9.4365683369619e-17,1.2015441760031e-16,-0.00024450669084734,0.0002445066908473,-0.00024450669084738,0.00024450669084729,-0.00024450669084729,0.00024450669084739,-0.00024450669084729,0.00024450669084738,-0.00024700778102248,0.00024700778102265,-0.00024700778102252,0.00024700778102258,1.0337551841946e-16,-1.1318771866348e-16,-2.0821055107529e-17,1.6850588167275e-17,-0.00024594294179749,0.00024594294179748,-0.00024450669084727,0.00024450669084732,-0.00024450669084725,0.00024450669084736,-0.00024450669084734,0.00024450669084729,-0.00024450669084734,0.00024450669084727,-0.00024700778102263,0.00024700778102256,-0.00024700778102262,0.00024700778102255,-0.00024700778102247,0.00024700778102267,-0.00024700778102269,0.00024700778102252,-2.1725439243921e-17,1.7804603140419e-17,-0.00024594294179748,0.00024594294179748,1.3095188186284e-17,-2.2216233074035e-17,-0.00024450669084732,0.0002445066908473,-0.00024450669084732,0.00024450669084728,-0.0002445066908473,0.00024450669084732,-0.0002445066908473,0.00024450669084732,-0.00024700778102256,0.00024700778102259,-0.0002470077810226,0.00024700778102255,0.80543206920969,0.73261215393987,1270536,32768,0.0010242371833384,0.0010242371833383,0.0010242371833383,31.987339011309,31.978902810972,0.00017109871209047,0.00017109871209047,0.00017109871209047,227010.50972461,0.0030774386202011
3456000,0.1545611874896,0.0027982704597847,0.00093275681992826,0.00093275681992823,0.00093275681992822,-0.00026482096833881,0.00026482096833883,3.2004077444461e-17,-6.5402413765859e-18,-9.4942871619267e-17,1.2101836179565e-16,-0.00026357671973914,0.0002635767197391,-0.00026357671973917,0.00026357671973909,-0.00026357671973908,0.00026357671973918,-0.00026357671973908,0.00026357671973917,-0.00026567791090165,0.00026567791090183,-0.0002656779109017,0.00026567791090176,1.0432585703433e-16,-1.1371527607637e-16,-1.970895672843e-17,1.5995834867637e-17,-0.00026482096833881,0.00026482096833881,-0.00026357671973907,0.00026357671973912,-0.00026357671973904,0.00026357671973915,-0.00026357671973913,0.00026357671973908,-0.00026357671973913,0.00026357671973906,-0.0002656779109018,0.00026567791090173,-0.00026567791090179,0.00026567791090172,-0.00026567791090164,0.00026567791090184,-0.00026567791090187,0.00026567791090169,-2.082013601796e-17,1.8661194619196e-17,-0.00026482096833881,0.00026482096833881,1.2892988480993e-17,-2.0433199309199e-17,-0.00026357671973911,0.00026357671973909,-0.00026357671973911,0.00026357671973908,-0.00026357671973909,0.00026357671973911,-0.00026357671973909,0.00026357671973911,-0.00026567791090173,0.00026567791090176,-0.00026567791090178,0.00026567791090173,0.79287083888995,0.70043091899941,1270536,32768,0.0011028120594684,0.0011028120594684,0.0011028120594684,31.862251556598,31.853818635599,0.00017009801245278,0.00017009801245278,0.00017009801245278,193023.67665083,0.0033139163319868
3542400,0.168437883862,0.0030357540007897,0.0010119180002633,0.0010119180002632,0.0010119180002632,-0.00028384198564596,0.00028384198564597,3.1070741986631e-17,-7.4225673633092e-18,-9.4111095558867e-17,1.1819859499641e-16,-0.00028286821301893,0.00028286821301888,-0.00028286821301896,0.00028286821301887,-0.00028286821301887,0.00028286821301897,-0.00028286821301887,0.00028286821301896,-0.00028443060370367,0.00028443060370384,-0.00028443060370371,0.00028443060370377,1.0275237569134e-16,-1.1168408812777e-16,-1.9964463628752e-17,1.6709048373571e-17,-0.00028384198564596,0.00028384198564596,-0.00028286821301886,0.00028286821301891,-0.00028286821301883,0.00028286821301894,-0.00028286821301892,0.00028286821301887,-0.00028286821301892,0.00028286821301885,-0.00028443060370382,0.00028443060370374,-0.00028443060370381,0.00028443060370373,-0.00028443060370366,0.00028443060370386,-0.00028443060370388,0.00028443060370371,-2.170705745253e-17,1.7742105049693e-17,-0.00028384198564596,0.00028384198564595,1.2393003755183e-17,-2.1738306497894e-17,-0.0002828682130189,0.00028286821301888,-0.00028286821301891,0.00028286821301886,-0.00028286821301888,0.0002828682130189,-0.00028286821301888,0.0002828682130189,-0.00028443060370375,0.00028443060370378,-0.0002844306037038,0.00028443060370374,0.77944564919747,0.66824968405895,1270536,32768,0.0011819758671798,0.0011819758671798,0.0011819758671798,31.866077898626,31.866037061444,0.00017012862318901,0.00017012862318901,0.00017012862318901,192222.95434458,0.0035522228016291
3628800,0.18260904417403,0.0032744589325995,0.0010914863108665,0.0010914863108665,0.0010914863108665,-0.00030321126241024,0.00030321126241026,3.2003617899677e-17,-6.564137705393e-18,-9.4476893207529e-17,1.2031250100627e-16,-0.00030258488374401,0.00030258488374397,-0.00030258488374405,0.00030258488374396,-0.00030258488374396,0.00030258488374406,-0.00030258488374396,0.00030258488374405,-0.00030347797760672,0.00030347797760689,-0.00030347797760676,0.00030347797760683,1.0412365732904e-16,-1.1280170104429e-16,-2.0697897105216e-17,1.7767839557639e-17,-0.00030321126241025,0.00030321126241024,-0.00030258488374394,0.00030258488374399,-0.00030258488374392,0.00030258488374403,-0.00030258488374401,0.00030258488374396,-0.00030258488374401,0.00030258488374394,-0.00030347797760687,0.0003034779776068,-0.00030347797760686,0.00030347797760679,-0.0003034779776067,0.00030347797760691,-0.00030347797760693,0.00030347797760676,-2.218866038695e-17,1.7367116505336e-17,-0.00030321126241025,0.00030321126241024,1.2812108598877e-17,-2.3080177269368e-17,-0.00030258488374399,0.00030258488374397,-0.00030258488374399,0.00030258488374395,-0.00030258488374397,0.00030258488374399,-0.00030258488374397,0.00030258488374399,-0.0003034779776068,0.00030347797760683,-0.00030347797760685,0.00030347797760679,0.76722953489703,0.64735214500615,1270536,32768,0.0012625826614892,0.0012625826614891,0.0012625826614891,32.003033557052,32.011945642157,0.00017122426845641,0.00017122426845641,0.00017122426845641,213414.65955946,0.0037949312458689
3715200,0.1970715298695,0.0035157336760698,0.0011719112253566,0.0011719112253566,0.0011719112253566,-0.00032280057514533,0.00032280057514535,3.0353852122418e-17,-8.3765823364537e-18,-9.0914502036134e-17,1.131840423052e-16,-0.00032257186639388,0.00032257186639384,-0.00032257186639392,0.00032257186639383,-0.00032257186639383,0.00032257186639392,-0.00032257186639383,0.00032257186639391,-0.0003227319368042,0.00032273193680437,-0.00032273193680424,0.0003227319368043,1.0064030786062e-16,-1.0550412986243e-16,-1.9817409297632e-17,2.030085041119e-17,-0.00032280057514533,0.00032280057514534,-0.00032257186639381,0.00032257186639386,-0.00032257186639379,0.0003225718663939,-0.00032257186639388,0.00032257186639383,-0.00032257186639387,0.00032257186639381,-0.00032273193680434,0.00032273193680427,-0.00032273193680433,0.00032273193680427,-0.00032273193680418,0.00032273193680438,-0.0003227319368044,0.00032273193680424,-2.2898197534607e-17,1.6856102704692e-17,-0.00032280057514534,0.00032280057514533,1.3058424603504e-17,-2.4455135265346e-17,-0.00032257186639386,0.00032257186639384,-0.00032257186639387,0.00032257186639382,-0.00032257186639384,0.00032257186639386,-0.00032257186639384,0.00032257186639386,-0.00032273193680428,0.0003227319368043,-0.00032273193680432,0.00032273193680427,0.76016952268346,0.65446358265355,1270536,32768,0.0013440985325776,0.0013440985325775,0.0013440985325775,32.148102199377,32.15785422287,0.00017238481759501,0.00017238481759501,0.00017238481759501,253894.33058852,0.0040404366924632
3801600,0.21181495454393,0.0037599539575764,0.0012533179858588,0.0012533179858588,0.0012533179858588,-0.00034263493153062,0.00034263493153063,2.9846514680052e-17,-8.8214216880933e-18,-9.1326254163271e-17,1.1236789076748e-16,-0.00034283799478885,0.00034283799478881,-0.00034283799478889,0.0003428379947888,-0.0003428379947888,0.00034283799478889,-0.0003428379947888,0.00034283799478888,-0.00034223057684805,0.00034223057684822,-0.00034223057684809,0.00034223057684815,1.0015135220964e-16,-1.0565669873097e-16,-2.3227231600489e-17,2.3061795477978e-17,-0.00034263493153062,0.00034263493153062,-0.00034283799478878,0.00034283799478883,-0.00034283799478875,0.00034283799478887,-0.00034283799478885,0.0003428379947888,-0.00034283799478884,0.00034283799478878,-0.00034223057684819,0.00034223057684812,-0.00034223057684818,0.00034223057684812,-0.00034223057684803,0.00034223057684823,-0.00034223057684825,0.0003422305768481,-2.3441379470183e-17,1.6330383470936e-17,-0.00034263493153062,0.00034263493153061,1.5547319157719e-17,-2.8013850078463e-17,-0.00034283799478883,0.00034283799478881,-0.00034283799478883,0.00034283799478879,-0.00034283799478881,0.00034283799478883,-0.00034283799478881,0.00034283799478882,-0.00034223057684813,0.00034223057684815,-0.00034223057684818,0.00034223057684811,0.75514537423976,0.66157502030094,1270536,32768,0.0014266273035873,0.0014266273035873,0.0014266273035873,32.293923186594,32.303762803583,0.00017355138549275,0.00017355138549275,0.00017355138549275,300432.45926663,0.0042890539916188
3888000,0.22682708094967,0.00400729045865,0.0013357634862167,0.0013357634862167,0.0013357634862167,-0.00036272312929742,0.00036272312929743,2.8679270926783e-17,-9.9574163959995e-18,-9.1092805412617e-17,1.1007751956028e-16,-0.00036338451083661,0.00036338451083657,-0.00036338451083665,0.00036338451083656,-0.00036338451083656,0.00036338451083665,-0.00036338451083656,0.00036338451083664,-0.00036198380676792,0.00036198380676808,-0.00036198380676796,0.00036198380676801,9.8963888485844e-17,-1.0427438801843e-16,-2.3252966108435e-17,2.3745598117689e-17,-0.00036272312929742,0.00036272312929742,-0.00036338451083654,0.00036338451083658,-0.00036338451083651,0.00036338451083662,-0.0003633845108366,0.00036338451083655,-0.00036338451083659,0.00036338451083653,-0.00036198380676806,0.00036198380676799,-0.00036198380676804,0.00036198380676798,-0.0003619838067679,0.00036198380676809,-0.00036198380676811,0.00036198380676796,-2.3150028076651e-17,1.6653902999401e-17,-0.00036272312929742,0.00036272312929741,1.6095096541143e-17,-2.8164580767861e-17,-0.00036338451083658,0.00036338451083656,-0.00036338451083659,0.00036338451083654,-0.00036338451083656,0.00036338451083658,-0.00036338451083656,0.00036338451083658,-0.00036198380676799,0.00036198380676801,-0.00036198380676804,0.00036198380676798,0.75149665489676,0.66868645794834,1270536,32768,0.0015102053237793,0.0015102053237793,0.0015102053237793,32.439818897466,32.449671384295,0.00017471855117973,0.00017471855117973,0.00017471855117973,350216.57379039,0.0045408949741704
3974400,0.24209436690525,0.0042578029941983,0.0014192676647328,0.0014192676647327,0.0014192676647327,-0.0003830698920264,0.00038306989202641,2.9858462844456e-17,-8.8214216880933e-18,-9.269753580097e-17,1.1413254274093e-16,-0.00038420419384086,0.00038420419384082,-0.0003842041938409,0.00038420419384081,-0.00038420419384081,0.0003842041938409,-0.00038420419384081,0.00038420419384089,-0.00038200060031166,0.00038200060031183,-0.0003820006003117,0.00038200060031176,1.0082044941624e-16,-1.0807758065704e-16,-2.2558134393891e-17,2.0922154960175e-17,-0.0003830698920264,0.0003830698920264,-0.00038420419384079,0.00038420419384083,-0.00038420419384076,0.00038420419384087,-0.00038420419384085,0.0003842041938408,-0.00038420419384085,0.00038420419384078,-0.00038200060031181,0.00038200060031173,-0.00038200060031179,0.00038200060031173,-0.00038200060031164,0.00038200060031184,-0.00038200060031186,0.0003820006003117,-2.3105911777315e-17,1.6694342940459e-17,-0.0003830698920264,0.00038306989202639,1.4418677166369e-17,-2.6366841569913e-17,-0.00038420419384083,0.00038420419384081,-0.00038420419384084,0.00038420419384079,-0.00038420419384082,0.00038420419384083,-0.00038420419384081,0.00038420419384083,-0.00038200060031174,0.00038200060031176,-0.00038200060031179,0.00038200060031173,0.74887652282743,0.67579789559573,1270536,32768,0.001594851980221,0.001594851980221,0.001594851980221,32.585722157324,32.595579965008,0.00017588577725859,0.00017588577725859,0.00017588577725859,399386.00568642,0.0047960204729183
4060800,0.25760263527753,0.0045115180841004,0.0015038393613668,0.0015038393613668,0.0015038393613668,-0.00040367726551131,0.00040367726551129,1.5538128262024e-17,-2.3037899149171e-17,-1.1274287931184e-16,9.3636845341003e-17,-0.00040528832437441,0.0004052883243743,-0.00040528832437445,0.00040528832437434,-0.00040528832437439,0.00040528832437442,-0.00040528832437439,0.0004052883243744,-0.00040228753103949,0.00040228753103972,-0.00040228753103959,0.00040228753103965,1.1883828133679e-16,-8.9361240663673e-17,-7.371098347417e-18,4.145461594288e-17,-0.00040367726551127,0.00040367726551131,-0.00040528832437429,0.00040528832437434,-0.00040528832437419,0.00040528832437439,-0.00040528832437432,0.00040528832437429,-0.0004052883243743,0.0004052883243743,-0.00040228753103996,0.00040228753103987,-0.00040228753103986,0.00040228753103982,-0.0004022875310396,0.0004022875310398,-0.00040228753103982,0.00040228753103965,-1.7683283317245e-18,3.8428973080075e-17,-0.00040367726551127,0.0004036772655113,4.1226681729643e-17,-5.3307195031195e-18,-0.00040528832437432,0.00040528832437426,-0.00040528832437432,0.00040528832437432,-0.00040528832437433,0.00040528832437433,-0.00040528832437432,0.00040528832437434,-0.00040228753103964,0.00040228753103965,-0.00040228753103975,0.00040228753103971,0.74707193205322,0.68290933324313,1270536,32768,0.0016805755124677,0.0016805755124677,0.0016805755124677,32.731626183144,32.741488545721,0.00017705300946515,0.00017705300946515,0.00017705300946515,442432.17332157,0.0050544577944676
4147200,0.27333672722304,0.0047684262887551,0.001589475429585,0.001589475429585,0.001589475429585,-0.00042454437485427,0.00042454437485427,2.2847647608284e-17,-1.5865324148767e-17,-9.3429131098295e-17,1.0471003647438e-16,-0.00042662783181091,0.00042662783181084,-0.00042662783181098,0.00042662783181082,-0.00042662783181088,0.0004266278318109,-0.00042662783181083,0.00042662783181092,-0.00042284675971375,0.0004228467597139,-0.00042284675971384,0.00042284675971379,8.3339365804287e-17,-1.1769493391232e-16,-4.74875198771e-17,4.8785274349239e-18,-0.00042454437485427,0.00042454437485425,-0.00042662783181053,0.00042662783181058,-0.0004266278318105,0.00042662783181061,-0.00042662783181061,0.00042662783181058,-0.00042662783181063,0.00042662783181055,-0.00042284675971423,0.00042284675971408,-0.00042284675971416,0.00042284675971408,-0.00042284675971374,0.00042284675971392,-0.00042284675971396,0.00042284675971384,3.0513773707512e-19,4.03811193257e-17,-0.00042454437485423,0.00042454437485427,4.8072060843304e-17,-2.2241967581981e-18,-0.00042662783181064,0.00042662783181058,-0.00042662783181055,0.00042662783181061,-0.00042662783181056,0.00042662783181063,-0.00042662783181056,0.00042662783181062,-0.00042284675971386,0.00042284675971391,-0.00042284675971383,0.0004228467597138,0.74593885387001,0.69002077089052,1270536,32768,0.0017673720061687,0.0017673720061686,0.0017673720061686,32.877530286371,32.887397126434,0.00017822024229096,0.00017822024229096,0.00017822024229096,477428.58805316,0.0053161976447481
4233600,0.28928022912371,0.0050284727693118,0.0016761575897707,0.0016761575897706,0.0016761575897706,-0.00044566664384393,0.00044566664384389,4.247112900675e-18,-3.4190131985525e-17,-1.2277014651512e-16,7.1328703310017e-17,-0.00044821124802006,0.00044821124801989,-0.00044821124802008,0.00044821124801988,-0.00044821124801994,0.00044821124801993,-0.00044821124801995,0.00044821124802,-0.00044367628908081,0.00044367628908094,-0.00044367628908088,0.00044367628908086,1.2006986135992e-16,-7.4957268930416e-17,-4.2939864687197e-18,5.0443311932623e-17,-0.00044566664384386,0.00044566664384392,-0.00044821124801995,0.0004482112480201,-0.00044821124801996,0.00044821124802013,-0.00044821124802,0.00044821124802003,-0.00044821124802,0.00044821124802002,-0.00044367628908081,0.00044367628908078,-0.00044367628908084,0.00044367628908087,-0.00044367628908085,0.0004436762890812,-0.00044367628908109,0.00044367628908098,2.2820994010769e-17,6.3479678386458e-17,-0.00044566664384384,0.00044566664384393,6.667811008833e-17,1.480469478556e-17,-0.00044821124802002,0.00044821124802011,-0.00044821124802,0.00044821124802006,-0.00044821124801995,0.00044821124802007,-0.00044821124801997,0.00044821124802007,-0.00044367628908098,0.00044367628908112,-0.00044367628908099,0.00044367628908122,0.74537356849619,0.69713220853792,1270536,32768,0.0018552221514709,0.0018552221514709,0.0018552221514708,33.02343439698,33.033305707146,0.00017938747517584,0.00017938747517584,0.00017938747517584,504142.52257121,0.0055811843041057
4320000,0.30550320151283,0.005292940731765,0.001764313577255,0.001764313577255,0.001764313577255,-0.00046729629691633,0.00046729629691625,-1.2265250305022e-17,-5.168775920973e-17,-1.2375173417535e-16,6.3413503937454e-17,-0.00047028497026271,0.00047028497026254,-0.00047028497026273,0.00047028497026255,-0.00047028497026262,0.00047028497026267,-0.00047028497026267,0.00047028497026268,-0.00046502995770762,0.00046502995770775,-0.00046502995770774,0.00046502995770768,6.8314089522046e-17,-1.1985295622152e-16,-5.0395519275008e-17,2.3528692979286e-19,-0.0004672962969163,0.00046729629691626,-0.00047028497026279,0.0004702849702629,-0.00047028497026282,0.00047028497026296,-0.00047028497026297,0.00047028497026283,-0.00047028497026289,0.00047028497026282,-0.00046502995770785,0.00046502995770763,-0.0004650299577077,0.00046502995770776,-0.00046502995770785,0.00046502995770803,-0.00046502995770813,0.00046502995770794,7.7865268328325e-18,4.9072030294924e-17,-0.00046729629691624,0.00046729629691632,5.3468954795428e-17,7.0733133268979e-18,-0.00047028497026285,0.00047028497026292,-0.00047028497026288,0.00047028497026288,-0.00047028497026281,0.00047028497026293,-0.00047028497026285,0.00047028497026293,-0.00046502995770791,0.00046502995770794,-0.00046502995770794,0.00046502995770793,0.74516038402242,0.70348514477375,1270536,32768,0.0019451745657509,0.0019451745657508,0.0019451745657508,33.247050919845,33.262008750992,0.00018117640735876,0.00018117640735876,0.00018117640735876,522533.55204331,0.0058525845493969
4406400,0.32207125957664,0.0055628931305831,0.0018542977101944,0.0018542977101944,0.0018542977101943,-0.00048951064333103,0.00048951064333099,5.3077422638819e-18,-3.5256275886149e-17,-1.0645998301471e-16,7.5997678323094e-17,-0.00049293002656633,0.00049293002656626,-0.00049293002656637,0.00049293002656623,-0.00049293002656631,0.00049293002656636,-0.00049293002656631,0.00049293002656637,-0.00048697928919603,0.00048697928919616,-0.00048697928919617,0.00048697928919608,7.1975742366948e-17,-1.1035324643113e-16,-4.1586964840888e-17,3.5881256793411e-18,-0.00048951064333102,0.00048951064333099,-0.00049293002656614,0.0004929300265662,-0.00049293002656609,0.0004929300265662,-0.00049293002656617,0.00049293002656621,-0.00049293002656624,0.0004929300265661,-0.0004869792891963,0.00048697928919611,-0.00048697928919626,0.00048697928919617,-0.00048697928919608,0.00048697928919622,-0.00048697928919626,0.00048697928919623,-1.7753134124527e-17,2.2991944670696e-17,-0.00048951064333099,0.00048951064333101,2.2227262148869e-17,-1.8220031625835e-17,-0.00049293002656619,0.00049293002656623,-0.00049293002656614,0.00049293002656618,-0.00049293002656617,0.00049293002656623,-0.00049293002656615,0.00049293002656623,-0.00048697928919612,0.00048697928919605,-0.00048697928919606,0.00048697928919619,0.74487408674982,0.70739061052005,1270536,32768,0.0020375501476795,0.0020375501476794,0.0020375501476794,33.544652209022,33.564636033845,0.00018355721767217,0.00018355721767217,0.00018355721767217,534800.94005741,0.0061313721308615
4492800,0.33896988499771,0.0058381640773808,0.0019460546924603,0.0019460546924602,0.0019460546924602,-0.00051216159092147,0.00051216159092153,5.8957757704502e-17,1.8209002551001e-17,-5.4877000015907e-17,1.1670966989382e-16,-0.00051599974380342,0.00051599974380334,-0.00051599974380345,0.00051599974380333,-0.00051599974380338,0.00051599974380352,-0.00051599974380339,0.00051599974380351,-0.00050937428813378,0.000509374288134,-0.00050937428813395,0.00050937428813403,1.137354960469e-16,-5.7347512778732e-17,1.2389327396905e-18,4.8991150412807e-17,-0.00051216159092148,0.00051216159092154,-0.00051599974380322,0.00051599974380336,-0.00051599974380317,0.0005159997438033,-0.00051599974380325,0.00051599974380321,-0.00051599974380322,0.00051599974380331,-0.00050937428813381,0.00050937428813372,-0.00050937428813383,0.00050937428813384,-0.00050937428813383,0.00050937428813419,-0.00050937428813389,0.00050937428813403,-1.7150211366933e-17,2.3381638648166e-17,-0.0005121615909215,0.00051216159092151,2.4050735854764e-17,-1.9315586392683e-17,-0.00051599974380329,0.00051599974380335,-0.00051599974380323,0.00051599974380326,-0.00051599974380323,0.00051599974380331,-0.00051599974380324,0.00051599974380329,-0.00050937428813389,0.00050937428813396,-0.00050937428813395,0.00050937428813391,0.74473857142479,0.71129607626636,1270536,32768,0.0021317324890599,0.0021317324890599,0.0021317324890599,33.846790614766,33.867263316698,0.00018597432491813,0.00018597432491813,0.00018597432491813,542552.12402155,0.0064156920562059
4579200,0.35617749199636,0.0061184770302976,0.0020394923434326,0.0020394923434325,0.0020394923434325,-0.00053522015502256,0.00053522015502248,-1.2931590242912e-17,-5.2954264636506e-17,-1.261432052352e-16,4.9711716635298e-17,-0.00053946108194527,0.00053946108194514,-0.00053946108194531,0.00053946108194512,-0.00053946108194524,0.0005394610819452,-0.00053946108194522,0.00053946108194517,-0.00053218821165896,0.00053218821165901,-0.00053218821165898,0.000532188211659,1.1445238591112e-16,-5.8788645223713e-17,9.5401497314449e-18,5.7204134805889e-17,-0.00053522015502246,0.00053522015502252,-0.00053946108194521,0.00053946108194532,-0.00053946108194514,0.00053946108194534,-0.00053946108194523,0.00053946108194527,-0.00053946108194529,0.00053946108194523,-0.00053218821165888,0.00053218821165888,-0.00053218821165878,0.00053218821165886,-0.00053218821165878,0.00053218821165881,-0.00053218821165893,0.00053218821165881,-1.7777030453334e-17,2.3197820734265e-17,-0.00053522015502249,0.0005352201550225,2.459483687991e-17,-1.7830337648365e-17,-0.00053946108194526,0.00053946108194525,-0.00053946108194524,0.00053946108194523,-0.00053946108194526,0.00053946108194526,-0.00053946108194525,0.00053946108194525,-0.00053218821165877,0.0005321882116587,-0.00053218821165879,0.00053218821165892,0.74477366897676,0.71520154201266,1270536,32768,0.0022276005793999,0.0022276005793998,0.0022276005793998,34.149351707617,34.169890599551,0.00018839481366093,0.00018839481366093,0.00018839481366093,545696.51473798,0.0067051834972334
4665600,0.37366972081611,0.006403513852394,0.0021345046174647,0.0021345046174647,0.0021345046174647,-0.00055866022049501,0.00055866022049502,2.1949697098879e-17,-1.7841366723199e-17,-8.4486389587027e-17,9.0578115253696e-17,-0.00056328575225768,0.00056328575225769,-0.00056328575225772,0.00056328575225766,-0.00056328575225774,0.00056328575225779,-0.00056328575225766,0.0005632857522577,-0.00055539603497571,0.0005553960349758,-0.00055539603497575,0.00055539603497582,4.4671429436142e-17,-1.2929016792118e-16,-6.2115749465315e-17,-1.1080543849933e-17,-0.00055866022049504,0.00055866022049497,-0.00056328575225741,0.00056328575225746,-0.00056328575225743,0.00056328575225752,-0.00056328575225755,0.00056328575225739,-0.00056328575225751,0.00056328575225745,-0.00055539603497595,0.00055539603497574,-0.00055539603497591,0.0005553960349758,-0.00055539603497578,0.00055539603497575,-0.00055539603497587,0.00055539603497574,-3.12012527055e-17,1.0242334162545e-17,-0.00055866022049501,0.000558660220495,6.9483171454454e-18,-3.8491471170801e-17,-0.00056328575225757,0.00056328575225747,-0.00056328575225751,0.00056328575225749,-0.00056328575225749,0.0005632857522575,-0.00056328575225747,0.00056328575225752,-0.00055539603497581,0.00055539603497571,-0.00055539603497576,0.00055539603497577,0.74497907735,0.71910700775897,1270536,32768,0.0023250453739864,0.0023250453739863,0.0023250453739863,34.451954974893,34.472517882404,0.00019081563979914,0.00019081563979914,0.00019081563979914,544629.69565912,0.0069995214384604
4752000,0.39141985671678,0.0066929173696365,0.0022309724565455,0.0022309724565455,0.0022309724565455,-0.0005824531272376,0.00058245312723758,5.5568155372173e-18,-3.4554091455048e-17,-1.0452621856048e-16,7.7490279783968e-17,-0.0005874433323097,0.00058744333230964,-0.00058744333230975,0.00058744333230969,-0.00058744333230972,0.00058744333230976,-0.00058744333230975,0.00058744333230971,-0.00057897004273659,0.00057897004273671,-0.00057897004273672,0.00057897004273668,1.2418370627302e-16,-5.4910087240409e-17,8.7754672096181e-18,6.0226101310416e-17,-0.00058245312723754,0.00058245312723763,-0.00058744333230975,0.00058744333230985,-0.00058744333230967,0.00058744333230996,-0.00058744333230975,0.00058744333230986,-0.00058744333230978,0.00058744333230985,-0.00057897004273667,0.00057897004273678,-0.00057897004273662,0.00057897004273667,-0.00057897004273652,0.00057897004273691,-0.00057897004273691,0.00057897004273689,-1.2279036648565e-18,4.0947278500514e-17,-0.00058245312723755,0.00058245312723759,3.9873781883334e-17,-4.360160917724e-18,-0.00058744333230981,0.0005874433323098,-0.00058744333230972,0.00058744333230982,-0.00058744333230974,0.00058744333230982,-0.00058744333230978,0.0005874433323098,-0.00057897004273674,0.00057897004273686,-0.00057897004273679,0.00057897004273676,0.74534807691039,0.72301247350527,1270536,32768,0.0024239472843697,0.0024239472843696,0.0024239472843696,34.754562520179,34.775145165257,0.00019323650016143,0.00019323650016143,0.00019323650016143,539779.26485621,0.0072983486905318
4838400,0.40939894732812,0.0069862915037032,0.0023287638345678,0.0023287638345677,0.0023287638345677,-0.00060656713393833,0.00060656713393829,-9.5217679400549e-19,-4.1381088777319e-17,-1.1445606226939e-16,7.1615459255702e-17,-0.00061190062125468,0.00061190062125465,-0.00061190062125478,0.00061190062125458,-0.00061190062125467,0.00061190062125472,-0.00061190062125469,0.00061190062125474,-0.00060287929941821,0.00060287929941827,-0.00060287929941825,0.00060287929941824,1.0861065260735e-16,-7.6354285076062e-17,-1.4782636635892e-17,3.6925342544367e-17,-0.00060656713393828,0.00060656713393831,-0.00061190062125451,0.00061190062125463,-0.00061190062125459,0.00061190062125462,-0.00061190062125459,0.00061190062125462,-0.00061190062125463,0.00061190062125457,-0.00060287929941834,0.00060287929941832,-0.00060287929941842,0.00060287929941835,-0.0006028792994182,0.00060287929941847,-0.0006028792994185,0.00060287929941829,1.8786190800649e-18,4.4344233549398e-17,-0.00060656713393827,0.00060656713393831,4.4535404179855e-17,1.5293650436536e-18,-0.00061190062125461,0.0006119006212546,-0.00061190062125455,0.00061190062125456,-0.00061190062125458,0.00061190062125464,-0.00061190062125457,0.00061190062125465,-0.00060287929941831,0.00060287929941842,-0.00060287929941836,0.00060287929941842,0.7458719183368,0.72691793925158,1270536,32768,0.0025241739565886,0.0025241739565885,0.0025241739565885,35.057170497762,35.07777244811,0.0001956573639821,0.0001956573639821,0.0001956573639821,531565.77325391,0.0076012691110995
4924800,0.42757591766998,0.0072832020748677,0.0024277340249559,0.0024277340249559,0.0024277340249559,-0.0006309674359905,0.00063096743599051,2.7273063885443e-17,-1.2940781138607e-17,-8.5034166970451e-17,1.0038663913944e-16,-0.00063662155997895,0.00063662155997891,-0.00063662155997898,0.00063662155997892,-0.00063662155997891,0.000636621559979,-0.00063662155997887,0.00063662155997898,-0.0006270896844625,0.00062708968446266,-0.00062708968446263,0.00062708968446261,7.272939581394e-17,-1.1121719062646e-16,-4.0980365725016e-17,5.7571770633691e-18,-0.0006309674359905,0.00063096743599048,-0.00063662155997893,0.00063662155997895,-0.00063662155997887,0.00063662155997898,-0.00063662155997893,0.00063662155997891,-0.00063662155997894,0.00063662155997885,-0.0006270896844626,0.00062708968446251,-0.00062708968446251,0.00062708968446249,-0.00062708968446251,0.00062708968446262,-0.00062708968446271,0.00062708968446259,-4.0024512572733e-17,2.4411018966009e-18,-0.0006309674359905,0.00063096743599047,2.8675594568505e-18,-3.4895992774904e-17,-0.00063662155997893,0.0006366215599789,-0.00063662155997892,0.00063662155997885,-0.0006366215599789,0.00063662155997892,-0.00063662155997888,0.00063662155997893,-0.00062708968446259,0.00062708968446258,-0.00062708968446263,0.00062708968446256,0.74654145535095,0.73082340499788,1270536,32768,0.0026255803537508,0.0026255803537507,0.0026255803537507,35.359778515147,35.380399730963,0.00019807822812117,0.00019807822812117,0.00019807822812117,520392.00647422,0.0079078477805666
5011200,0.44591771278795,0.0075827482207208,0.0025275827402403,0.0025275827402403,0.0025275827402403,-0.00065558169310703,0.00065558169310709,5.2932206486838e-17,1.2194480408171e-17,-6.4200244608949e-17,1.2810638055566e-16,-0.00066154311708916,0.00066154311708915,-0.00066154311708921,0.00066154311708917,-0.00066154311708914,0.00066154311708926,-0.00066154311708915,0.00066154311708929,-0.00065151733440537,0.00065151733440561,-0.00065151733440538,0.00065151733440542,1.0418064088235e-16,-8.6280452426698e-17,-1.1198187314829e-17,3.4616589545775e-17,-0.00065558169310704,0.00065558169310706,-0.00066154311708892,0.00066154311708906,-0.00066154311708893,0.00066154311708907,-0.00066154311708904,0.00066154311708902,-0.00066154311708904,0.00066154311708899,-0.0006515173344056,0.00065151733440556,-0.00065151733440556,0.00065151733440558,-0.0006515173344055,0.00065151733440565,-0.00065151733440575,0.00065151733440563,-4.656107759104e-18,3.6682702898018e-17,-0.00065558169310703,0.00065558169310706,3.0138785163154e-17,-8.0659300619615e-18,-0.00066154311708904,0.00066154311708905,-0.00066154311708901,0.00066154311708898,-0.00066154311708896,0.00066154311708903,-0.000661543117089,0.00066154311708907,-0.00065151733440556,0.00065151733440567,-0.00065151733440568,0.00065151733440564,0.74628282219098,0.72885757449027,1270536,32768,0.0027278655148227,0.0027278655148226,0.0027278655148226,35.662386532184,35.683027013817,0.00020049909225747,0.00020049909225747,0.00020049909225747,508740.29110788,0.0082171777013597
5097600,0.4642739857574,0.0078789342615554,0.0026263114205185,0.0026263114205185,0.0026263114205184,-0.00067973182609412,0.00067973182609414,4.0305753981001e-17,-4.9630836753182e-19,-8.4251102657234e-17,1.0921725172322e-16,-0.0006860775251657,0.00068607752516565,-0.00068607752516573,0.00068607752516561,-0.00068607752516566,0.00068607752516576,-0.00068607752516568,0.00068607752516573,-0.00067538325097043,0.0006753832509706,-0.00067538325097053,0.00067538325097048,1.0898931750999e-16,-8.3890819545989e-17,-1.4106186712738e-17,3.1476979576351e-17,-0.0006797318260941,0.00067973182609413,-0.0006860775251657,0.00068607752516571,-0.00068607752516566,0.0006860775251658,-0.00068607752516573,0.00068607752516574,-0.00068607752516568,0.00068607752516572,-0.00067538325097029,0.00067538325097025,-0.00067538325097033,0.00067538325097017,-0.0006753832509702,0.00067538325097042,-0.00067538325097039,0.00067538325097033,1.6242150872263e-17,5.7630592366139e-17,-0.00067973182609407,0.00067973182609414,5.9593767686598e-17,2.1050827499905e-17,-0.00068607752516569,0.0006860775251657,-0.00068607752516567,0.0006860775251657,-0.00068607752516565,0.00068607752516574,-0.00068607752516569,0.00068607752516573,-0.00067538325097028,0.00067538325097031,-0.0006753832509703,0.00067538325097042,0.73725814253933,0.68033219149736,1270536,32768,0.0028282117715011,0.002828211771501,0.002828211771501,35.864769846626,35.878820791791,0.00020211815877301,0.00020211815877301,0.00020211815877301,514981.44635138,0.0085207365350692
5184000,0.48251141486302,0.0081721929027272,0.0027240643009091,0.002724064300909,0.002724064300909,-0.00070344966651033,0.00070344966651039,5.2682214123933e-17,1.1940811686988e-17,-6.4027455769882e-17,1.2288595180088e-16,-0.00071019604567236,0.00071019604567238,-0.00071019604567245,0.00071019604567239,-0.00071019604567238,0.00071019604567247,-0.00071019604567238,0.00071019604567247,-0.0006988140373047,0.00069881403730494,-0.00069881403730479,0.00069881403730475,1.272461127186e-16,-5.8733499849543e-17,1.5738489788176e-17,6.6439146800259e-17,-0.00070344966651031,0.00070344966651039,-0.00071019604567247,0.00071019604567262,-0.00071019604567244,0.00071019604567265,-0.00071019604567255,0.00071019604567261,-0.00071019604567256,0.00071019604567261,-0.00069881403730471,0.00069881403730477,-0.00069881403730473,0.00069881403730481,-0.00069881403730454,0.00069881403730482,-0.00069881403730479,0.00069881403730476,-3.9259830050906e-17,2.5660980780534e-18,-0.00070344966651036,0.00070344966651032,-4.8013239110856e-18,-4.80058863943e-17,-0.00071019604567256,0.00071019604567251,-0.00071019604567254,0.00071019604567253,-0.00071019604567251,0.00071019604567252,-0.00071019604567255,0.00071019604567252,-0.00069881403730467,0.00069881403730467,-0.00069881403730473,0.00069881403730475,0.73476987385437,0.68861650922473,1270536,32768,0.0029267519913826,0.0029267519913825,0.0029267519913825,35.979150756502,35.987182183576,0.00020303320605201,0.00020303320605201,0.00020303320605201,526631.48648109,0.008818920917227
5270400,0.50059505931206,0.0084703218687892,0.0028234406229298,0.0028234406229297,0.0028234406229297,-0.00072758406119098,0.00072758406119099,2.8945806901939e-17,-1.1863608163149e-17,-8.5302541124746e-17,1.0057045705334e-16,-0.00073452010940554,0.0007345201094055,-0.00073452010940559,0.00073452010940549,-0.00073452010940551,0.00073452010940559,-0.0007345201094055,0.00073452010940558,-0.00072291031315042,0.00072291031315058,-0.00072291031315049,0.0007229103131505,1.0391594308633e-16,-8.1743826311629e-17,-1.2723876000205e-17,3.8638525501921e-17,-0.00072758406119096,0.00072758406119099,-0.00073452010940545,0.00073452010940553,-0.00073452010940543,0.00073452010940557,-0.00073452010940551,0.00073452010940552,-0.00073452010940551,0.0007345201094055,-0.00072291031315051,0.00072291031315047,-0.00072291031315048,0.00072291031315047,-0.00072291031315038,0.00072291031315058,-0.00072291031315058,0.00072291031315049,-1.8205326192723e-17,2.337428593161e-17,-0.00072758406119096,0.00072758406119097,2.1271408996586e-17,-2.076407155422e-17,-0.00073452010940551,0.00073452010940551,-0.0007345201094055,0.00073452010940548,-0.00073452010940548,0.00073452010940552,-0.00073452010940549,0.00073452010940552,-0.00072291031315047,0.00072291031315049,-0.00072291031315051,0.00072291031315049,0.7533161684849,0.80400170950033,1270536,32768,0.0030270130221874,0.0030270130221874,0.0030270130221873,36.088078773434,36.095543575362,0.00020390463018747,0.00020390463018747,0.00020390463018747,494041.07293663,0.0091224023852378
5356800,0.51849793124643,0.0087642350667787,0.0029214116889263,0.0029214116889262,0.0029214116889262,-0.00075144301918464,0.00075144301918465,2.8966026872468e-17,-1.1720230190307e-17,-8.6254717918752e-17,1.0218805469566e-16,-0.00075856779857766,0.00075856779857762,-0.0007585677985777,0.00075856779857761,-0.00075856779857762,0.0007585677985777,-0.00075856779857762,0.0007585677985777,-0.00074667769846698,0.00074667769846714,-0.00074667769846705,0.00074667769846706,1.0462915659226e-16,-8.3570976375802e-17,-1.3477529447197e-17,3.8403238572129e-17,-0.00075144301918462,0.00075144301918465,-0.00075856779857757,0.00075856779857765,-0.00075856779857754,0.00075856779857769,-0.00075856779857763,0.00075856779857763,-0.00075856779857763,0.00075856779857761,-0.00074667769846707,0.00074667769846703,-0.00074667769846705,0.00074667769846703,-0.00074667769846694,0.00074667769846714,-0.00074667769846714,0.00074667769846704,-1.8738398143035e-17,2.2793421323683e-17,-0.00075144301918462,0.00075144301918463,2.1094943799241e-17,-2.187433175418e-17,-0.00075856779857763,0.00075856779857762,-0.00075856779857762,0.0007585677985776,-0.0007585677985776,0.00075856779857763,-0.00075856779857761,0.00075856779857763,-0.00074667769846703,0.00074667769846705,-0.00074667769846707,0.00074667769846705,0.74989212737385,0.74770296004574,1270536,32768,0.0031261199017378,0.0031261199017377,0.0031261199017377,36.196494955933,36.203904967147,0.00020477195964746,0.00020477195964746,0.00020477195964746,460918.66960329,0.0094224802349913
5443200,0.53619313282543,0.0090499335416719,0.0030166445138907,0.0030166445138906,0.0030166445138906,-0.00077456219476222,0.0007745621947622,1.126987630125e-17,-2.9642476795623e-17,-9.9574163959995e-17,8.5548857129373e-17,-0.00078200179226759,0.00078200179226754,-0.00078200179226763,0.00078200179226752,-0.00078200179226757,0.00078200179226762,-0.00078200179226753,0.00078200179226762,-0.00076954136936856,0.00076954136936876,-0.00076954136936868,0.00076954136936862,9.6114710820384e-17,-8.9019339343818e-17,-2.2859595772688e-17,2.7396221887756e-17,-0.0007745621947622,0.0007745621947622,-0.00078200179226751,0.0007820017922676,-0.00078200179226749,0.00078200179226763,-0.00078200179226758,0.00078200179226759,-0.00078200179226763,0.00078200179226756,-0.00076954136936875,0.00076954136936866,-0.00076954136936868,0.0007695413693686,-0.00076954136936859,0.00076954136936874,-0.00076954136936873,0.00076954136936868,-3.5807729627851e-18,3.7440032703289e-17,-0.00077456219476218,0.00077456219476221,3.436659718287e-17,-6.7130302156526e-18,-0.00078200179226757,0.00078200179226761,-0.00078200179226758,0.00078200179226763,-0.00078200179226757,0.00078200179226761,-0.00078200179226757,0.00078200179226763,-0.00076954136936862,0.0007695413693687,-0.00076954136936865,0.00076954136936864,0.73725457188296,0.67633392771571,1270536,32768,0.0032221443681763,0.0032221443681763,0.0032221443681762,36.304859727727,36.312266358933,0.00020563887782182,0.00020563887782182,0.00020563887782182,464376.32947581,0.0097133105821396
5529600,0.55365409028796,0.0093246716395266,0.0031082238798422,0.0031082238798422,0.0031082238798422,-0.00079677357426413,0.00079677357426414,2.6728962860297e-17,-1.3881928857779e-17,-8.7023076798857e-17,9.9261673506363e-17,-0.00080469484454072,0.00080469484454068,-0.00080469484454076,0.00080469484454066,-0.00080469484454068,0.00080469484454076,-0.00080469484454068,0.00080469484454075,-0.00079132740645624,0.0007913274064564,-0.00079132740645631,0.00079132740645632,1.0230569816056e-16,-8.4412862421467e-17,-1.4543673347821e-17,3.608713285698e-17,-0.00079677357426411,0.00079677357426413,-0.00080469484454063,0.00080469484454071,-0.0008046948445406,0.00080469484454075,-0.00080469484454068,0.00080469484454069,-0.00080469484454069,0.00080469484454067,-0.00079132740645633,0.00079132740645628,-0.00079132740645631,0.00079132740645629,-0.0007913274064562,0.00079132740645639,-0.0007913274064564,0.0007913274064563,-1.7845043081477e-17,2.3322816915717e-17,-0.00079677357426411,0.00079677357426412,2.0800835137e-17,-2.0602311789987e-17,-0.00080469484454068,0.00080469484454068,-0.00080469484454068,0.00080469484454066,-0.00080469484454066,0.00080469484454069,-0.00080469484454066,0.00080469484454069,-0.00079132740645628,0.00079132740645631,-0.00079132740645632,0.0007913274064563,0.71857263251144,0.60141412576628,1270536,32768,0.0033143895333369,0.0033143895333368,0.0033143895333368,36.413219248034,36.420627750718,0.00020650575398427,0.00020650575398427,0.00020650575398427,498025.97876936,0.0099927740430456
5616000,0.570855800868,0.0095880116009385,0.0031960038669795,0.0031960038669795,0.0031960038669795,-0.00081804125340021,0.00081804125340022,2.6067218370254e-17,-1.4613524155103e-17,-8.6445888549208e-17,9.7379378068021e-17,-0.0008266092178545,0.00082660921785446,-0.00082660921785455,0.00082660921785445,-0.00082660921785447,0.00082660921785454,-0.00082660921785446,0.00082660921785453,-0.00081203456104735,0.00081203456104751,-0.00081203456104742,0.00081203456104743,1.0193806233276e-16,-8.2298956411609e-17,-1.3323122399521e-17,3.6226834471545e-17,-0.00081804125340019,0.00081804125340021,-0.00082660921785441,0.00082660921785449,-0.00082660921785438,0.00082660921785453,-0.00082660921785446,0.00082660921785447,-0.00082660921785447,0.00082660921785445,-0.00081203456104744,0.0008120345610474,-0.00081203456104742,0.0008120345610474,-0.00081203456104731,0.0008120345610475,-0.0008120345610475,0.00081203456104741,-1.8278853358283e-17,2.294782837136e-17,-0.00081804125340019,0.0008180412534002,1.9955272733057e-17,-2.0469962891979e-17,-0.00082660921785447,0.00082660921785446,-0.00082660921785446,0.00082660921785444,-0.00082660921785444,0.00082660921785447,-0.00082660921785445,0.00082660921785447,-0.00081203456104739,0.00081203456104742,-0.00081203456104743,0.00081203456104741,0.69949358183578,0.54799038503428,1270536,32768,0.0034027073349647,0.0034027073349646,0.0034027073349646,36.521578229161,36.528989142504,0.00020737262583329,0.00020737262583329,0.00020737262583329,555526.73350219,0.01026041245885
5702400,0.58777495022201,0.0098399386260087,0.003279979542003,0.0032799795420029,0.0032799795420029,-0.00083838282592578,0.00083838282592579,2.5467971970938e-17,-1.5356148527262e-17,-8.7287774594874e-17,9.6997036807107e-17,-0.0008477411613124,0.00084774116131236,-0.00084774116131244,0.00084774116131234,-0.00084774116131237,0.00084774116131244,-0.00084774116131236,0.00084774116131243,-0.00083171642067778,0.00083171642067794,-0.00083171642067785,0.00083171642067786,1.0146013575662e-16,-8.3199664189723e-17,-1.3690758227322e-17,3.5145985137809e-17,-0.00083838282592576,0.00083838282592578,-0.00084774116131231,0.00084774116131238,-0.00084774116131228,0.00084774116131242,-0.00084774116131236,0.00084774116131237,-0.00084774116131237,0.00084774116131235,-0.00083171642067787,0.00083171642067782,-0.00083171642067785,0.00083171642067783,-0.00083171642067774,0.00083171642067793,-0.00083171642067793,0.00083171642067784,-1.8183268043055e-17,2.3183115301153e-17,-0.00083838282592576,0.00083838282592577,1.97641021026e-17,-2.0021447182061e-17,-0.00084774116131236,0.00084774116131236,-0.00084774116131235,0.00084774116131234,-0.00084774116131234,0.00084774116131237,-0.00084774116131234,0.00084774116131237,-0.00083171642067782,0.00083171642067785,-0.00083171642067786,0.00083171642067784,0.68090202188524,0.50714110322116,1270536,32768,0.0034871718544821,0.0034871718544821,0.0034871718544821,36.629937154662,36.637350534289,0.00020823949723729,0.00020823949723729,0.00020823949723729,627425.48860928,0.010516441034091
5788800,0.60439001948338,0.010080079471864,0.0033600264906212,0.0033600264906212,0.0033600264906211,-0.00085776886071552,0.00085776886071552,2.4800712943479e-17,-1.5808340595458e-17,-8.7618646839895e-17,9.6783808026982e-17,-0.0008680530636158,0.00086805306361576,-0.00086805306361584,0.00086805306361574,-0.00086805306361577,0.00086805306361584,-0.00086805306361576,0.00086805306361583,-0.00085035250686472,0.00085035250686487,-0.00085035250686478,0.00085035250686479,1.0094544559769e-16,-8.3673914407586e-17,-1.3499587596865e-17,3.4322480883534e-17,-0.0008577688607155,0.00085776886071552,-0.00086805306361571,0.00086805306361578,-0.00086805306361568,0.00086805306361582,-0.00086805306361576,0.00086805306361576,-0.00086805306361577,0.00086805306361575,-0.00085035250686481,0.00085035250686476,-0.00085035250686479,0.00085035250686476,-0.00085035250686467,0.00085035250686486,-0.00085035250686487,0.00085035250686477,-1.8499434854964e-17,2.2918417505136e-17,-0.0008577688607155,0.00085776886071551,1.911706304567e-17,-1.9844981984717e-17,-0.00086805306361576,0.00086805306361576,-0.00086805306361575,0.00086805306361574,-0.00086805306361574,0.00086805306361577,-0.00086805306361574,0.00086805306361577,-0.00085035250686476,0.00085035250686478,-0.0008503525068648,0.00085035250686478,0.66158207459864,0.46629182140805,1270536,32768,0.0035676618513709,0.0035676618513709,0.0035676618513708,36.738296074236,36.745711926074,0.00020910636859389,0.00020910636859389,0.00020910636859389,710286.33358899,0.010760483387169
5875200,0.62062204520466,0.010311573010571,0.0034371910035236,0.0034371910035235,0.0034371910035235,-0.00087633114247541,0.00087633114247541,2.4956958170294e-17,-1.5705402563673e-17,-8.7739966663069e-17,9.7048505822999e-17,-0.00088756167694542,0.00088756167694537,-0.00088756167694546,0.00088756167694536,-0.00088756167694539,0.00088756167694546,-0.00088756167694538,0.00088756167694545,-0.00086820400026369,0.00086820400026385,-0.00086820400026376,0.00086820400026377,1.00592515203e-16,-8.4350364330741e-17,-1.3999572322675e-17,3.3498976629259e-17,-0.00087633114247538,0.00087633114247541,-0.00088756167694532,0.00088756167694539,-0.00088756167694529,0.00088756167694543,-0.00088756167694537,0.00088756167694537,-0.00088756167694538,0.00088756167694535,-0.00086820400026378,0.00086820400026374,-0.00086820400026376,0.00086820400026374,-0.00086820400026365,0.00086820400026384,-0.00086820400026384,0.00086820400026374,-1.8977361431105e-17,2.2491959944886e-17,-0.00087633114247539,0.00087633114247539,1.8352380523843e-17,-2.0374377576751e-17,-0.00088756167694537,0.00088756167694537,-0.00088756167694537,0.00088756167694535,-0.00088756167694535,0.00088756167694538,-0.00088756167694535,0.00088756167694538,-0.00086820400026373,0.00086820400026376,-0.00086820400026377,0.00086820400026375,0.65346455814841,0.49184196051334,1270536,32768,0.0036447255011387,0.0036447255011386,0.0036447255011386,36.784579614672,36.787895818362,0.00020947663691737,0.00020947663691737,0.00020947663691737,785008.66753654,0.01099419288009
5961600,0.63641182713445,0.010530416414415,0.0035101388048052,0.0035101388048051,0.0035101388048051,-0.00089386758221906,0.00089386758221907,2.4609542313022e-17,-1.5834075103404e-17,-8.8107602490871e-17,9.6864687909099e-17,-0.00090609819335968,0.00090609819335963,-0.00090609819335972,0.00090609819335962,-0.00090609819335964,0.00090609819335971,-0.00090609819335964,0.00090609819335971,-0.00088498799750648,0.00088498799750663,-0.00088498799750655,0.00088498799750656,1.0126896512616e-16,-8.3894495904267e-17,-1.352899846309e-17,3.4543062380214e-17,-0.00089386758221904,0.00089386758221906,-0.00090609819335959,0.00090609819335966,-0.00090609819335956,0.0009060981933597,-0.00090609819335964,0.00090609819335964,-0.00090609819335965,0.00090609819335962,-0.00088498799750657,0.00088498799750652,-0.00088498799750655,0.00088498799750652,-0.00088498799750644,0.00088498799750663,-0.00088498799750663,0.00088498799750653,-1.8881776115877e-17,2.2462549078662e-17,-0.00089386758221904,0.00089386758221905,1.8778838084093e-17,-2.0469962891979e-17,-0.00090609819335964,0.00090609819335964,-0.00090609819335963,0.00090609819335961,-0.00090609819335961,0.00090609819335964,-0.00090609819335962,0.00090609819335965,-0.00088498799750652,0.00088498799750655,-0.00088498799750656,0.00088498799750654,0.63568686466895,0.44077103288462,1270536,32768,0.003717524572041,0.0037175245720409,0.0037175245720409,36.780618277264,36.78047504981,0.00020944494621811,0.00020944494621811,0.00020944494621811,851744.60635743,0.011215019997473
6048000,0.65174974705915,0.010738219234274,0.0035794064114245,0.0035794064114245,0.0035794064114245,-0.00091040065323634,0.00091040065323634,2.4771302077255e-17,-1.6036274808695e-17,-8.8026722608754e-17,9.6842629759431e-17,-0.00092370841583268,0.00092370841583263,-0.00092370841583272,0.00092370841583262,-0.00092370841583264,0.00092370841583272,-0.00092370841583264,0.00092370841583271,-0.00090072271519566,0.00090072271519581,-0.00090072271519573,0.00090072271519574,1.0115132166126e-16,-8.3938612203603e-17,-1.3168715351844e-17,3.3932786906064e-17,-0.00091040065323632,0.00091040065323634,-0.00092370841583259,0.00092370841583266,-0.00092370841583256,0.0009237084158327,-0.00092370841583264,0.00092370841583264,-0.00092370841583265,0.00092370841583262,-0.00090072271519575,0.0009007227151957,-0.00090072271519573,0.0009007227151957,-0.00090072271519561,0.00090072271519581,-0.00090072271519581,0.00090072271519571,-1.9010448655608e-17,2.2543428960779e-17,-0.00091040065323632,0.00091040065323633,1.8433260405959e-17,-1.9984683599281e-17,-0.00092370841583264,0.00092370841583264,-0.00092370841583263,0.00092370841583262,-0.00092370841583261,0.00092370841583264,-0.00092370841583262,0.00092370841583265,-0.0009007227151957,0.00090072271519572,-0.00090072271519574,0.00090072271519572,0.62194257043856,0.42834657677503,1270536,32768,0.003786153324964,0.0037861533249639,0.0037861533249639,36.773525376704,36.773054281258,0.00020938820301363,0.00020938820301363,0.00020938820301363,930353.94124077,0.011423241962809
6134400,0.66663057023236,0.010937308015961,0.0036457693386537,0.0036457693386537,0.0036457693386536,-0.00092628447990942,0.00092628447990943,2.4822771093147e-17,-1.5808340595458e-17,-8.8287744046493e-17,9.7335261768684e-17,-0.00094062590599635,0.0009406259059963,-0.00094062590599639,0.00094062590599628,-0.00094062590599631,0.00094062590599638,-0.0009406259059963,0.00094062590599637,-0.00091587985555607,0.00091587985555622,-0.00091587985555613,0.00091587985555614,1.0106308906259e-16,-8.4762116457878e-17,-1.3087835469728e-17,3.3116635368345e-17,-0.0009262844799094,0.00092628447990943,-0.00094062590599625,0.00094062590599632,-0.00094062590599622,0.00094062590599636,-0.0009406259059963,0.0009406259059963,-0.00094062590599631,0.00094062590599628,-0.00091587985555616,0.00091587985555611,-0.00091587985555613,0.00091587985555611,-0.00091587985555602,0.00091587985555621,-0.00091587985555622,0.00091587985555611,-1.9212648360898e-17,2.2293436597874e-17,-0.00092628447990941,0.00092628447990941,1.7631814301353e-17,-1.9808218401937e-17,-0.0009406259059963,0.0009406259059963,-0.00094062590599629,0.00094062590599628,-0.00094062590599628,0.00094062590599631,-0.00094062590599628,0.00094062590599631,-0.0009158798555561,0.00091587985555613,-0.00091587985555614,0.00091587985555612,0.61473971052939,0.44713313593456,1270536,32768,0.0038520825634695,0.0038520825634694,0.0038520825634694,36.766137658209,36.765633512706,0.00020932910126567,0.00020932910126567,0.00020932910126567,990689.57242191,0.011623314292167
6220800,0.68105146593072,0.01112876314649,0.0037095877154967,0.0037095877154966,0.0037095877154966,-0.00094163014084509,0.0009416301408451,2.4714318523945e-17,-1.5911278627242e-17,-8.8761994264357e-17,9.7724955746154e-17,-0.00095692630033129,0.00095692630033124,-0.00095692630033133,0.00095692630033122,-0.00095692630033125,0.00095692630033132,-0.00095692630033124,0.00095692630033131,-0.00093058393906468,0.00093058393906484,-0.00093058393906475,0.00093058393906476,1.0187924060031e-16,-8.4585651260534e-17,-1.2536381728026e-17,3.3381333164362e-17,-0.00094163014084507,0.0009416301408451,-0.00095692630033119,0.00095692630033126,-0.00095692630033116,0.0009569263003313,-0.00095692630033125,0.00095692630033124,-0.00095692630033125,0.00095692630033123,-0.00093058393906477,0.00093058393906473,-0.00093058393906475,0.00093058393906473,-0.00093058393906464,0.00093058393906483,-0.00093058393906483,0.00093058393906473,-1.8822954383429e-17,2.2749305024347e-17,-0.00094163014084508,0.00094163014084508,1.8028860995378e-17,-1.9278822809903e-17,-0.00095692630033124,0.00095692630033124,-0.00095692630033124,0.00095692630033122,-0.00095692630033122,0.00095692630033125,-0.00095692630033122,0.00095692630033125,-0.00093058393906472,0.00093058393906475,-0.00093058393906476,0.00093058393906474,0.61042739770723,0.46591969509408,1270536,32768,0.0039157738721881,0.003915773872188,0.003915773872188,36.758720262575,36.758212744154,0.0002092697621006,0.0002092697621006,0.0002092697621006,1028938.2796216,0.011816633082268
6307200,0.69501127438052,0.011313347865423,0.0037711159551412,0.0037711159551411,0.0037711159551411,-0.0009564487251592,0.00095644872515921,2.4477193415014e-17,-1.6124507407367e-17,-8.8920077670312e-17,9.7489668816361e-17,-0.00097262487144558,0.00097262487144553,-0.00097262487144562,0.00097262487144552,-0.00097262487144554,0.00097262487144562,-0.00097262487144554,0.00097262487144561,-0.00094482975537732,0.00094482975537747,-0.00094482975537738,0.00094482975537739,1.0140866674072e-16,-8.4879759922775e-17,-1.2896664839271e-17,3.3278395132578e-17,-0.00095644872515918,0.00095644872515921,-0.00097262487144549,0.00097262487144556,-0.00097262487144546,0.0009726248714456,-0.00097262487144554,0.00097262487144554,-0.00097262487144555,0.00097262487144552,-0.0009448297553774,0.00094482975537736,-0.00094482975537738,0.00094482975537736,-0.00094482975537727,0.00094482975537746,-0.00094482975537747,0.00094482975537736,-1.8778838084093e-17,2.2675777858787e-17,-0.00095644872515918,0.00095644872515919,1.8234737058947e-17,-1.9337644542351e-17,-0.00097262487144554,0.00097262487144554,-0.00097262487144553,0.00097262487144552,-0.00097262487144551,0.00097262487144555,-0.00097262487144552,0.00097262487144555,-0.00094482975537735,0.00094482975537738,-0.00094482975537739,0.00094482975537737,0.60817730044635,0.4847062542536,1270536,32768,0.0039772737226781,0.0039772737226781,0.003977273722678,36.751299830316,36.750791975602,0.00020921039864253,0.00020921039864253,0.00020921039864253,1052399.9179712,0.012003335371653
6393600,0.70851027446516,0.011490652870978,0.0038302176236594,0.0038302176236594,0.0038302176236593,-0.00097069778336348,0.00097069778336348,2.4254773739194e-17,-1.6308325321268e-17,-8.9151688241826e-17,9.7335261768684e-17,-0.00098769891050101,0.00098769891050096,-0.00098769891050105,0.00098769891050095,-0.00098769891050097,0.00098769891050104,-0.00098769891050096,0.00098769891050104,-0.00095854460944289,0.00095854460944304,-0.00095854460944295,0.00095854460944296,1.0187188788375e-16,-8.4725352875098e-17,-1.2859901256491e-17,3.3454860329922e-17,-0.00097069778336346,0.00097069778336348,-0.00098769891050091,0.00098769891050099,-0.00098769891050089,0.00098769891050103,-0.00098769891050097,0.00098769891050097,-0.00098769891050097,0.00098769891050095,-0.00095854460944297,0.00095854460944293,-0.00095854460944295,0.00095854460944292,-0.00095854460944283,0.00095854460944303,-0.00095854460944303,0.00095854460944293,-1.9308233676127e-17,2.2322847464098e-17,-0.00097069778336346,0.00097069778336347,1.7852395798033e-17,-1.9867040134385e-17,-0.00098769891050097,0.00098769891050096,-0.00098769891050096,0.00098769891050094,-0.00098769891050094,0.00098769891050097,-0.00098769891050095,0.00098769891050097,-0.00095854460944292,0.00095854460944295,-0.00095854460944296,0.00095854460944294,0.60425497655554,0.48538089711844,1270536,32768,0.004036406332941,0.0040364063329409,0.0040364063329409,36.743879085966,36.743371207051,0.00020915103268773,0.00020915103268773,0.00020915103268773,1066636.2494674,0.012182883824369
6480000,0.7215501259956,0.01166469022042,0.0038882300734733,0.0038882300734733,0.0038882300734732,-0.00098466261087169,0.00098466261087169,2.4661011328914e-17,-1.6006863942471e-17,-8.8956841253092e-17,9.7570548698477e-17,-0.0010023546617942,0.0010023546617941,-0.0010023546617942,0.0010023546617941,-0.0010023546617942,0.0010023546617942,-0.0010023546617941,0.0010023546617942,-0.00097210845181329,0.00097210845181344,-0.00097210845181336,0.00097210845181337,1.0173218626919e-16,-8.4769469174434e-17,-1.2845195823379e-17,3.3381333164362e-17,-0.00098466261087167,0.00098466261087169,-0.0010023546617941,0.0010023546617942,-0.0010023546617941,0.0010023546617942,-0.0010023546617941,0.0010023546617941,-0.0010023546617942,0.0010023546617941,-0.00097210845181338,0.00097210845181333,-0.00097210845181336,0.00097210845181333,-0.00097210845181324,0.00097210845181344,-0.00097210845181344,0.00097210845181334,-1.9333968184073e-17,2.2425785495882e-17,-0.00098466261087167,0.00098466261087167,1.7984744696042e-17,-1.9940567299945e-17,-0.0010023546617941,0.0010023546617941,-0.0010023546617941,0.0010023546617941,-0.0010023546617941,0.0010023546617942,-0.0010023546617941,0.0010023546617942,-0.00097210845181333,0.00097210845181335,-0.00097210845181337,0.00097210845181335,0.61393249003296,0.56135094059269,1270536,32768,0.0040943561990634,0.0040943561990633,0.0040943561990633,36.736458309501,36.735950438499,0.00020909166647601,0.00020909166647601,0.00020909166647601,1065229.5054879,0.01235887101281
6566400,0.73413430419886,0.011836086230116,0.0039453620767053,0.0039453620767053,0.0039453620767053,-0.00099858314735483,0.00099858314735483,2.4267640993167e-17,-1.6212740006039e-17,-8.9383298813341e-17,9.7504374249473e-17,-0.0010167632058784,0.0010167632058784,-0.0010167632058785,0.0010167632058783,-0.0010167632058784,0.0010167632058784,-0.0010167632058784,0.0010167632058784,-0.00098580062551329,0.00098580062551344,-0.00098580062551335,0.00098580062551336,1.0166601182018e-16,-8.5254748467132e-17,-1.31760680684e-17,3.2925464737889e-17,-0.00099858314735481,0.00099858314735483,-0.0010167632058783,0.0010167632058784,-0.0010167632058783,0.0010167632058784,-0.0010167632058784,0.0010167632058784,-0.0010167632058784,0.0010167632058783,-0.00098580062551337,0.00098580062551333,-0.00098580062551335,0.00098580062551332,-0.00098580062551324,0.00098580062551343,-0.00098580062551343,0.00098580062551333,-1.8694281843698e-17,2.2969886521028e-17,-0.00099858314735481,0.00099858314735482,1.8528845721188e-17,-1.9161179345006e-17,-0.0010167632058784,0.0010167632058784,-0.0010167632058784,0.0010167632058783,-0.0010167632058783,0.0010167632058784,-0.0010167632058783,0.0010167632058784,-0.00098580062551332,0.00098580062551335,-0.00098580062551336,0.00098580062551334,0.62631025833519,0.61978136300686,1270536,32768,0.0041521191350953,0.0041521191350953,0.0041521191350953,36.729623143346,36.729153963061,0.00020903698514677,0.00020903698514677,0.00020903698514677,1029345.9857865,0.012534320059462
6652800,0.74657611036235,0.012009824664217,0.0040032748880723,0.0040032748880723,0.0040032748880723,-0.0010135419973967,0.0010135419973967,2.809289178144e-17,-1.2918722988939e-17,-8.3475391060574e-17,9.7747013895822e-17,-0.001032061506088,0.0010320615060879,-0.001032061506088,0.0010320615060879,-0.0010320615060879,0.001032061506088,-0.0010320615060879,0.001032061506088,-0.0010006432194741,0.0010006432194743,-0.0010006432194742,0.0010006432194742,1.0813640238949e-16,-7.31374715828e-17,-2.6175670939456e-18,4.3432496696451e-17,-0.0010135419973967,0.0010135419973967,-0.0010320615060879,0.001032061506088,-0.0010320615060879,0.001032061506088,-0.0010320615060879,0.0010320615060879,-0.0010320615060879,0.0010320615060879,-0.0010006432194742,0.0010006432194742,-0.0010006432194742,0.0010006432194742,-0.001000643219474,0.0010006432194742,-0.0010006432194742,0.0010006432194741,-4.6925037060564e-17,-4.911614659426e-18,-0.0010135419973967,0.0010135419973967,-9.1761902619216e-18,-4.6704455563883e-17,-0.001032061506088,0.0010320615060879,-0.001032061506088,0.0010320615060879,-0.0010320615060879,0.0010320615060879,-0.001032061506088,0.0010320615060879,-0.0010006432194741,0.0010006432194741,-0.0010006432194742,0.0010006432194741,0.64171142327037,0.67821178542102,1270536,32768,0.0042141870877861,0.004214187087786,0.004214187087786,37.168829067482,37.197859537707,0.00021255063253985,0.00021255063253985,0.00021255063253985,979308.91411128,0.012722877575768
6739200,0.75886870485368,0.012186438750044,0.0040621462500146,0.0040621462500145,0.0040621462500145,-0.0010287815715708,0.0010287815715709,2.7164611316241e-17,-1.3058424603504e-17,-8.2508508833456e-17,9.9041092009683e-17,-0.0010475126204187,0.0010475126204187,-0.0010475126204188,0.0010475126204187,-0.0010475126204187,0.0010475126204188,-0.0010475126204187,0.0010475126204188,-0.0010158644371344,0.0010158644371346,-0.0010158644371345,0.0010158644371346,1.0123955425993e-16,-8.0210784909698e-17,-1.138200522873e-17,3.5851845927187e-17,-0.0010287815715708,0.0010287815715709,-0.0010475126204186,0.0010475126204187,-0.0010475126204186,0.0010475126204188,-0.0010475126204187,0.0010475126204187,-0.0010475126204187,0.0010475126204187,-0.0010158644371346,0.0010158644371345,-0.0010158644371345,0.0010158644371345,-0.0010158644371344,0.0010158644371346,-0.0010158644371346,0.0010158644371345,-2.3657365519017e-17,1.8014155562266e-17,-0.0010287815715708,0.0010287815715708,1.5337766735872e-17,-2.3572809278622e-17,-0.0010475126204187,0.0010475126204187,-0.0010475126204187,0.0010475126204187,-0.0010475126204187,0.0010475126204187,-0.0010475126204187,0.0010475126204187,-0.0010158644371345,0.0010158644371344,-0.0010158644371345,0.0010158644371345,0.65967566587502,0.73664220783519,1270536,32768,0.0042774160830533,0.0042774160830532,0.0042774160830532,37.634716470876,37.666565112353,0.00021627773176701,0.00021627773176701,0.00021627773176701,919060.10423131,0.012914997266275
6825600,0.7709875502277,0.012370159449947,0.0041233864833156,0.0041233864833156,0.0041233864833156,-0.0010445845208354,0.0010445845208354,2.6738153755992e-17,-1.321283165118e-17,-8.3468038344018e-17,1.0102632547981e-16,-0.0010632945373842,0.0010632945373841,-0.0010632945373842,0.0010632945373841,-0.0010632945373841,0.0010632945373842,-0.0010632945373841,0.0010632945373842,-0.0010318624740596,0.0010318624740598,-0.0010318624740597,0.0010318624740597,1.0445269139492e-16,-8.022549034281e-17,-8.0806354950736e-18,3.8028250027771e-17,-0.0010445845208354,0.0010445845208354,-0.001063294537384,0.0010632945373841,-0.001063294537384,0.0010632945373842,-0.0010632945373841,0.0010632945373841,-0.0010632945373841,0.0010632945373841,-0.0010318624740597,0.0010318624740597,-0.0010318624740597,0.0010318624740597,-0.0010318624740596,0.0010318624740598,-0.0010318624740598,0.0010318624740597,-1.1558470426074e-17,2.9896145516805e-17,-0.0010445845208354,0.0010445845208354,2.5602159048086e-17,-1.19555171201e-17,-0.0010632945373841,0.0010632945373841,-0.0010632945373841,0.0010632945373841,-0.0010632945373841,0.0010632945373841,-0.0010632945373841,0.0010632945373841,-0.0010318624740597,0.0010318624740597,-0.0010318624740597,0.0010318624740597,0.69529555197095,0.88014327974572,1270536,32768,0.0043429787350775,0.0043429787350774,0.0043429787350774,38.103096235434,38.135270687,0.00022002476988347,0.00022002476988347,0.00022002476988347,839828.08798777,0.013114244001299
6912000,0.78290711416989,0.012545733098547,0.0041819110328491,0.0041819110328491,0.004181911032849,-0.0010598545838893,0.0010598545838893,1.4407648091535e-17,-2.6109496490452e-17,-9.6739691727646e-17,9.0953103798053e-17,-0.0010786400926025,0.0010786400926024,-0.0010786400926025,0.0010786400926024,-0.0010786400926024,0.0010786400926025,-0.0010786400926024,0.0010786400926025,-0.0010471199557596,0.0010471199557597,-0.0010471199557597,0.0010471199557596,1.0956282940136e-16,-7.8438780219695e-17,-6.1836346236186e-18,4.1469321375992e-17,-0.0010598545838892,0.0010598545838893,-0.0010786400926023,0.0010786400926024,-0.0010786400926023,0.0010786400926025,-0.0010786400926024,0.0010786400926024,-0.0010786400926024,0.0010786400926024,-0.0010471199557596,0.0010471199557596,-0.0010471199557596,0.0010471199557596,-0.0010471199557596,0.0010471199557598,-0.0010471199557598,0.0010471199557597,-4.0851693185286e-17,7.2056622249064e-19,-0.0010598545838893,0.0010598545838892,-3.4263659151085e-18,-4.2822221222301e-17,-0.0010786400926025,0.0010786400926024,-0.0010786400926024,0.0010786400926024,-0.0010786400926024,0.0010786400926024,-0.0010786400926024,0.0010786400926024,-0.0010471199557597,0.0010471199557596,-0.0010471199557597,0.0010471199557597,0.67511468573948,0.66927950108049,1270536,32768,0.0044063261153901,0.00440632611539,0.00440632611539,38.571726799629,38.603976261646,0.00022377381439703,0.00022377381439703,0.00022377381439703,771384.86707255,0.013306797558347
6998400,0.79460236144418,0.01271490207766,0.0042383006925533,0.0042383006925532,0.0042383006925532,-0.0010741083167869,0.0010741083167869,2.6467941422558e-17,-1.432309185114e-17,-8.8526707334564e-17,1.0183512430097e-16,-0.0010931942851684,0.0010931942851683,-0.0010931942851684,0.0010931942851683,-0.0010931942851683,0.0010931942851684,-0.0010931942851683,0.0010931942851684,-0.0010611165150949,0.0010611165150951,-0.001061116515095,0.001061116515095,1.0765112309679e-16,-8.2578359640738e-17,-7.4997708871475e-18,3.8322358690012e-17,-0.0010741083167869,0.0010741083167869,-0.0010931942851682,0.0010931942851683,-0.0010931942851682,0.0010931942851684,-0.0010931942851683,0.0010931942851683,-0.0010931942851683,0.0010931942851683,-0.001061116515095,0.001061116515095,-0.001061116515095,0.001061116515095,-0.0010611165150948,0.001061116515095,-0.001061116515095,0.0010611165150949,-1.3422384073027e-17,2.8881470632074e-17,-0.0010741083167869,0.0010741083167869,2.5337461252069e-17,-1.2058455151884e-17,-0.0010931942851683,0.0010931942851683,-0.0010931942851683,0.0010931942851683,-0.0010931942851683,0.0010931942851683,-0.0010931942851683,0.0010931942851683,-0.0010611165150949,0.0010611165150949,-0.001061116515095,0.001061116515095,0.66252468836259,0.61390026052372,1270536,32768,0.0044654534725063,0.0044654534725063,0.0044654534725063,39.040383075758,39.072681836293,0.00022752306460607,0.00022752306460607,0.00022752306460607,762521.35205548,0.013486557058322
7084800,0.80604910423353,0.012878346096427,0.0042927820321424,0.0042927820321424,0.0042927820321424,-0.0010880246879489,0.0010880246879489,1.4223830177634e-17,-2.6991822477175e-17,-9.9269026222919e-17,9.0761933167596e-17,-0.001107410840427,0.001107410840427,-0.001107410840427,0.0011074108404269,-0.001107410840427,0.001107410840427,-0.001107410840427,0.001107410840427,-0.0010747984624595,0.0010747984624597,-0.0010747984624596,0.0010747984624596,1.1462885110846e-16,-7.5196232218487e-17,-2.3602220144846e-18,4.4998625322885e-17,-0.0010880246879488,0.0010880246879489,-0.001107410840427,0.0011074108404271,-0.001107410840427,0.0011074108404271,-0.001107410840427,0.001107410840427,-0.001107410840427,0.001107410840427,-0.0010747984624597,0.0010747984624596,-0.0010747984624596,0.0010747984624596,-0.0010747984624595,0.0010747984624597,-0.0010747984624597,0.0010747984624596,-1.2006986135992e-17,3.0307897643943e-17,-0.0010880246879489,0.0010880246879489,2.6866826295722e-17,-1.2661377909478e-17,-0.001107410840427,0.0011074108404271,-0.001107410840427,0.001107410840427,-0.001107410840427,0.0011074108404271,-0.001107410840427,0.0011074108404271,-0.0010747984624596,0.0010747984624596,-0.0010747984624596,0.0010747984624596,0.65396936636614,0.59419810702723,1270536,32768,0.0045231779585415,0.0045231779585415,0.0045231779585415,39.509041989354,39.541387410939,0.00023127233591483,0.00023127233591483,0.00023127233591483,747714.25993823,0.013662082882747
7171200,0.81722476860987,0.013034082281599,0.0043446940938663,0.0043446940938663,0.0043446940938663,-0.0011013783000511,0.0011013783000511,4.3215591558048e-17,1.9337644542351e-18,-7.3431580245041e-17,1.1742288339975e-16,-0.0011211190607395,0.0011211190607395,-0.0011211190607395,0.0011211190607395,-0.0011211190607395,0.0011211190607396,-0.0011211190607394,0.0011211190607395,-0.0010878634257497,0.0010878634257498,-0.0010878634257497,0.0010878634257497,9.6489699364741e-17,-9.3850074121128e-17,-2.1072885649573e-17,2.9454982523444e-17,-0.0011013783000511,0.0011013783000511,-0.0011211190607394,0.0011211190607395,-0.0011211190607394,0.0011211190607395,-0.0011211190607395,0.0011211190607395,-0.0011211190607395,0.0011211190607394,-0.0010878634257496,0.0010878634257496,-0.0010878634257496,0.0010878634257496,-0.0010878634257496,0.0010878634257497,-0.0010878634257497,0.0010878634257496,-3.7462090852957e-18,3.880763798271e-17,-0.0011013783000511,0.0011013783000511,3.723415663972e-17,-6.0586384421662e-18,-0.0011211190607394,0.0011211190607395,-0.0011211190607394,0.0011211190607395,-0.0011211190607394,0.0011211190607395,-0.0011211190607394,0.0011211190607395,-0.0010878634257497,0.0010878634257497,-0.0010878634257496,0.0010878634257497,0.63821023237157,0.53332239675741,1270536,32768,0.004578564835834,0.0045785648358339,0.0045785648358339,39.977701159414,40.010092985586,0.00023502160927531,0.00023502160927531,0.00023502160927531,736027.68906482,0.013830530162126
7257600,0.82810818535344,0.01318104346878,0.0043936811562599,0.0043936811562598,0.0043936811562598,-0.0011139534637708,0.0011139534637708,2.9135139353257e-17,-1.1933458970432e-17,-8.2725413971859e-17,1.037027143062e-16,-0.001134159087093,0.0011341590870929,-0.001134159087093,0.0011341590870929,-0.0011341590870929,0.001134159087093,-0.0011341590870929,0.001134159087093,-0.0011000474850468,0.001100047485047,-0.0011000474850469,0.0011000474850469,1.02232170995e-16,-8.4012139369164e-17,-1.4381913583589e-17,3.6543001283454e-17,-0.0011139534637707,0.0011139534637708,-0.0011341590870929,0.001134159087093,-0.0011341590870929,0.001134159087093,-0.001134159087093,0.001134159087093,-0.0011341590870929,0.0011341590870929,-0.0011000474850469,0.0011000474850469,-0.0011000474850469,0.0011000474850469,-0.0011000474850468,0.0011000474850469,-0.0011000474850469,0.0011000474850468,-2.2881653922356e-17,1.9293528243015e-17,-0.0011139534637708,0.0011139534637708,1.8705310918532e-17,-2.4116910303768e-17,-0.001134159087093,0.001134159087093,-0.001134159087093,0.0011341590870929,-0.0011341590870929,0.001134159087093,-0.0011341590870929,0.001134159087093,-0.0011000474850469,0.0011000474850469,-0.0011000474850469,0.0011000474850469,0.61842693396379,0.46898638272369,1270536,32768,0.004630719905984,0.0046307199059839,0.004630719905984,40.446360339556,40.478798560232,0.00023877088271644,0.00023877088271644,0.00023877088271644,738817.54009224,0.013989175221853
7344000,0.83858102867136,0.01331822141545,0.0044394071384835,0.0044394071384835,0.0044394071384835,-0.0011253625111386,0.0011253625111386,3.4370273541148e-17,-6.3895106871874e-18,-8.0379897390486e-17,1.0751142148223e-16,-0.0011461148386535,0.0011461148386535,-0.0011461148386536,0.0011461148386535,-0.0011461148386535,0.0011461148386536,-0.0011461148386535,0.0011461148386536,-0.0011110090737103,0.0011110090737104,-0.0011110090737103,0.0011110090737104,1.051585521843e-16,-8.237248357717e-17,-1.2146687750556e-17,3.8542940186693e-17,-0.0011253625111386,0.0011253625111386,-0.0011461148386534,0.0011461148386535,-0.0011461148386534,0.0011461148386536,-0.0011461148386535,0.0011461148386535,-0.0011461148386535,0.0011461148386535,-0.0011110090737104,0.0011110090737103,-0.0011110090737103,0.0011110090737103,-0.0011110090737102,0.0011110090737104,-0.0011110090737104,0.0011110090737103,-1.8477376705296e-17,2.3366933215054e-17,-0.0011253625111386,0.0011253625111386,2.2161087699865e-17,-2.0675838955548e-17,-0.0011461148386535,0.0011461148386535,-0.0011461148386535,0.0011461148386535,-0.0011461148386535,0.0011461148386535,-0.0011461148386535,0.0011461148386535,-0.0011110090737103,0.0011110090737104,-0.0011110090737104,0.0011110090737103,0.59995525652194,0.42818194048028,1270536,32768,0.0046780359810829,0.0046780359810828,0.0046780359810828,40.737777711934,40.75839951913,0.00024110222169547,0.00024110222169547,0.00024110222169547,750429.88765767,0.014133123586262
7430400,0.84851020726759,0.013444731497924,0.0044815771659748,0.0044815771659747,0.0044815771659747,-0.001135465615108,0.001135465615108,2.5326432177235e-17,-1.5264239570312e-17,-8.8350242137219e-17,9.8629339882545e-17,-0.001156792591558,0.001156792591558,-0.001156792591558,0.0011567925915579,-0.001156792591558,0.001156792591558,-0.001156792591558,0.001156792591558,-0.0011206612136263,0.0011206612136265,-0.0011206612136264,0.0011206612136264,1.0237187260956e-16,-8.4445949645969e-17,-1.4234859252468e-17,3.6234187188101e-17,-0.001135465615108,0.001135465615108,-0.0011567925915579,0.001156792591558,-0.0011567925915579,0.001156792591558,-0.001156792591558,0.001156792591558,-0.001156792591558,0.0011567925915579,-0.0011206612136264,0.0011206612136263,-0.0011206612136264,0.0011206612136263,-0.0011206612136263,0.0011206612136265,-0.0011206612136265,0.0011206612136264,-2.0139090646958e-17,2.18375681714e-17,-0.001135465615108,0.001135465615108,1.9587636905256e-17,-2.2940475654804e-17,-0.001156792591558,0.001156792591558,-0.001156792591558,0.0011567925915579,-0.0011567925915579,0.001156792591558,-0.0011567925915579,0.001156792591558,-0.0011206612136263,0.0011206612136264,-0.0011206612136264,0.0011206612136264,0.58368533830382,0.40318419993588,1270536,32768,0.0047199339439341,0.0047199339439341,0.0047199339439341,40.784539751005,40.788401559428,0.00024147631800804,0.00024147631800804,0.00024147631800804,762893.3195257,0.014260606616446
7516800,0.85790643069856,0.013561281881862,0.0045204272939541,0.0045204272939541,0.004520427293954,-0.0011447689599118,0.0011447689599118,2.4627924104412e-17,-1.5734813429898e-17,-8.8519354618008e-17,9.8070533424287e-17,-0.0011666707056018,0.0011666707056017,-0.0011666707056018,0.0011666707056017,-0.0011666707056017,0.0011666707056018,-0.0011666707056017,0.0011666707056018,-0.0011295266405799,0.0011295266405801,-0.00112952664058,0.00112952664058,1.0246745792479e-16,-8.3747441573147e-17,-1.3764285392882e-17,3.6219481754989e-17,-0.0011447689599118,0.0011447689599118,-0.0011666707056017,0.0011666707056017,-0.0011666707056016,0.0011666707056018,-0.0011666707056017,0.0011666707056017,-0.0011666707056017,0.0011666707056017,-0.00112952664058,0.00112952664058,-0.00112952664058,0.00112952664058,-0.0011295266405799,0.0011295266405801,-0.0011295266405801,0.00112952664058,-2.0083945272788e-17,2.1969917069408e-17,-0.0011447689599118,0.0011447689599118,1.9602342338368e-17,-2.2396374629658e-17,-0.0011666707056017,0.0011666707056017,-0.0011666707056017,0.0011666707056017,-0.0011666707056017,0.0011666707056017,-0.0011666707056017,0.0011666707056017,-0.00112952664058,0.00112952664058,-0.00112952664058,0.00112952664058,0.56836289329141,0.38129582520854,1270536,32768,0.0047585136057457,0.0047585136057457,0.0047585136057457,40.816142556517,40.818403599726,0.00024172914045214,0.00024172914045214,0.00024172914045214,773645.12541101,0.014378007863739
7603200,0.86678908004665,0.01366879606932,0.00455626535644,0.00455626535644,0.00455626535644,-0.0011533525896816,0.0011533525896816,2.5069087097774e-17,-1.5543642799441e-17,-8.7982606309418e-17,9.7967595392503e-17,-0.0011758258716462,0.0011758258716461,-0.0011758258716462,0.0011758258716461,-0.0011758258716461,0.0011758258716462,-0.0011758258716461,0.0011758258716462,-0.0011376855691272,0.0011376855691274,-0.0011376855691273,0.0011376855691273,1.0162189552085e-16,-8.3968023069827e-17,-1.428632826836e-17,3.5778318761627e-17,-0.0011533525896816,0.0011533525896816,-0.0011758258716461,0.0011758258716462,-0.0011758258716461,0.0011758258716462,-0.0011758258716461,0.0011758258716461,-0.0011758258716461,0.0011758258716461,-0.0011376855691273,0.0011376855691273,-0.0011376855691273,0.0011376855691273,-0.0011376855691272,0.0011376855691274,-0.0011376855691274,0.0011376855691273,-2.0061887123119e-17,2.1969917069408e-17,-0.0011533525896816,0.0011533525896816,1.9425877141023e-17,-2.2602250693227e-17,-0.0011758258716461,0.0011758258716461,-0.0011758258716461,0.0011758258716461,-0.0011758258716461,0.0011758258716462,-0.0011758258716461,0.0011758258716462,-0.0011376855691273,0.0011376855691273,-0.0011376855691273,0.0011376855691273,0.55472228490057,0.36716775327241,1270536,32768,0.0047941072890176,0.0047941072890176,0.0047941072890176,40.846307502584,40.848405640024,0.00024197046002067,0.00024197046002067,0.00024197046002067,783593.79374671,0.014486335111903
7689600,0.87517850870232,0.013768356373995,0.0045894521246652,0.0045894521246651,0.0045894521246651,-0.0011613193107725,0.0011613193107725,2.4749243927587e-17,-1.597010035969e-17,-8.8489943751784e-17,9.7364672634908e-17,-0.0011843392886756,0.0011843392886756,-0.0011843392886756,0.0011843392886755,-0.0011843392886756,0.0011843392886756,-0.0011843392886756,0.0011843392886756,-0.00114525866581,0.0011452586658101,-0.0011452586658101,0.0011452586658101,1.0143807760695e-16,-8.416654641684e-17,-1.4352502717365e-17,3.5543031831834e-17,-0.0011613193107724,0.0011613193107725,-0.0011843392886755,0.0011843392886756,-0.0011843392886755,0.0011843392886756,-0.0011843392886756,0.0011843392886756,-0.0011843392886756,0.0011843392886755,-0.0011452586658101,0.00114525866581,-0.0011452586658101,0.00114525866581,-0.0011452586658099,0.0011452586658101,-0.0011452586658101,0.00114525866581,-2.019055966285e-17,2.1881684470736e-17,-0.0011613193107724,0.0011613193107725,1.9234706510566e-17,-2.2690483291899e-17,-0.0011843392886756,0.0011843392886756,-0.0011843392886755,0.0011843392886755,-0.0011843392886755,0.0011843392886756,-0.0011843392886755,0.0011843392886756,-0.00114525866581,0.0011452586658101,-0.0011452586658101,0.00114525866581,0.54397473329523,0.3653920339003,1270536,32768,0.0048271416477074,0.0048271416477074,0.0048271416477074,40.876326232517,40.878407680322,0.00024221060986013,0.00024221060986013,0.00024221060986013,790622.91026793,0.014586883905215
7776000,0.88309523150906,0.013860669507705,0.0046202231692351,0.0046202231692351,0.0046202231692351,-0.001168744520829,0.001168744520829,2.4848505601093e-17,-1.571275528023e-17,-8.7784082962405e-17,9.7467610666693e-17,-0.0011922733755827,0.0011922733755827,-0.0011922733755827,0.0011922733755826,-0.0011922733755827,0.0011922733755827,-0.0011922733755827,0.0011922733755827,-0.001152327313458,0.0011523273134582,-0.0011523273134581,0.0011523273134581,1.0123220154338e-16,-8.3776852439371e-17,-1.4021630472343e-17,3.5704791596067e-17,-0.0011687445208289,0.001168744520829,-0.0011922733755826,0.0011922733755827,-0.0011922733755826,0.0011922733755827,-0.0011922733755827,0.0011922733755827,-0.0011922733755827,0.0011922733755826,-0.0011523273134581,0.0011523273134581,-0.0011523273134581,0.0011523273134581,-0.001152327313458,0.0011523273134582,-0.0011523273134582,0.0011523273134581,-2.0451581100589e-17,2.1572870375383e-17,-0.0011687445208289,0.001168744520829,1.904353588011e-17,-2.2558134393891e-17,-0.0011922733755827,0.0011922733755827,-0.0011922733755826,0.0011922733755826,-0.0011922733755826,0.0011922733755827,-0.0011922733755826,0.0011922733755827,-0.0011523273134581,0.0011523273134581,-0.0011523273134581,0.0011523273134581,0.5345556385007,0.3636163145282,1270536,32768,0.0048579295806746,0.0048579295806746,0.0048579295806746,40.906329837199,40.908409720621,0.00024245063869759,0.00024245063869759,0.00024245063869759,793247.50618133,0.014680604357568
7862400,0.89055972542994,0.013946322430138,0.0046487741433793,0.0046487741433793,0.0046487741433792,-0.0011756467465928,0.0011756467465928,2.4657334970636e-17,-1.5808340595458e-17,-8.7945842726638e-17,9.730585090246e-17,-0.0011996533335584,0.0011996533335583,-0.0011996533335584,0.0011996533335583,-0.0011996533335583,0.0011996533335584,-0.0011996533335583,0.0011996533335584,-0.0011588995061915,0.0011588995061917,-0.0011588995061916,0.0011588995061916,1.0120279067715e-16,-8.3769499722815e-17,-1.378634354255e-17,3.544009380005e-17,-0.0011756467465928,0.0011756467465928,-0.0011996533335583,0.0011996533335584,-0.0011996533335583,0.0011996533335584,-0.0011996533335583,0.0011996533335583,-0.0011996533335583,0.0011996533335583,-0.0011588995061916,0.0011588995061916,-0.0011588995061916,0.0011588995061916,-0.0011588995061915,0.0011588995061917,-0.0011588995061917,0.0011588995061916,-2.0341290352248e-17,2.1646397540943e-17,-0.0011756467465928,0.0011756467465928,1.9072946746334e-17,-2.233755289721e-17,-0.0011996533335583,0.0011996533335583,-0.0011996533335583,0.0011996533335583,-0.0011996533335583,0.0011996533335584,-0.0011996533335583,0.0011996533335583,-0.0011588995061916,0.0011588995061916,-0.0011588995061916,0.0011588995061916,0.52606272259478,0.36184059515609,1270536,32768,0.0048865481189887,0.0048865481189887,0.0048865481189886,40.936331869869,40.938411760919,0.00024269065495895,0.00024269065495895,0.00024269065495895,793580.92392971,0.014767729004634
7948800,0.89759230163984,0.014025823157168,0.0046752743857226,0.0046752743857226,0.0046752743857226,-0.0011820624710007,0.0011820624710007,2.398456140576e-17,-1.6198034572927e-17,-8.8541412767676e-17,9.6497052081297e-17,-0.0012065159480765,0.0012065159480764,-0.0012065159480765,0.0012065159480764,-0.0012065159480764,0.0012065159480765,-0.0012065159480764,0.0012065159480765,-0.0011650098644649,0.001165009864465,-0.0011650098644649,0.0011650098644649,1.0118073252749e-16,-8.3240104130781e-17,-1.374957995977e-17,3.5204806870257e-17,-0.0011820624710007,0.0011820624710007,-0.0012065159480764,0.0012065159480764,-0.0012065159480763,0.0012065159480765,-0.0012065159480764,0.0012065159480764,-0.0012065159480764,0.0012065159480764,-0.001165009864465,0.0011650098644649,-0.0011650098644649,0.0011650098644649,-0.0011650098644648,0.001165009864465,-0.001165009864465,0.0011650098644649,-1.9661164070816e-17,2.1940506203184e-17,-0.0011820624710007,0.0011820624710007,1.9484698873471e-17,-2.176404100584e-17,-0.0012065159480764,0.0012065159480764,-0.0012065159480764,0.0012065159480764,-0.0012065159480764,0.0012065159480764,-0.0012065159480764,0.0012065159480764,-0.0011650098644649,0.0011650098644649,-0.001165009864465,0.0011650098644649,0.51827076599331,0.36006487578398,1270536,32768,0.0049131487228466,0.0049131487228465,0.0049131487228465,40.966333738924,40.968413801217,0.00024293066991139,0.00024293066991139,0.00024293066991139,792067.10777005,0.014848717236357
8035200,0.90421300782082,0.0140996244798,0.0046998748266001,0.0046998748266,0.0046998748266,-0.0011880259704445,0.0011880259704445,2.3877947015697e-17,-1.6227445439151e-17,-8.8048780758422e-17,9.6070594521048e-17,-0.0012128959915372,0.0012128959915372,-0.0012128959915373,0.0012128959915372,-0.0012128959915372,0.0012128959915373,-0.0012128959915372,0.0012128959915372,-0.0011706912074515,0.0011706912074516,-0.0011706912074516,0.0011706912074516,1.0068074780168e-16,-8.3048933500324e-17,-1.3764285392882e-17,3.5366566634489e-17,-0.0011880259704445,0.0011880259704445,-0.0012128959915371,0.0012128959915372,-0.0012128959915371,0.0012128959915372,-0.0012128959915372,0.0012128959915372,-0.0012128959915372,0.0012128959915372,-0.0011706912074516,0.0011706912074515,-0.0011706912074516,0.0011706912074515,-0.0011706912074514,0.0011706912074516,-0.0011706912074516,0.0011706912074515,-2.0230999603908e-17,2.141111061115e-17,-0.0011880259704445,0.0011880259704445,1.8675900052308e-17,-2.2572839827003e-17,-0.0012128959915372,0.0012128959915372,-0.0012128959915372,0.0012128959915372,-0.0012128959915372,0.0012128959915372,-0.0012128959915372,0.0012128959915372,-0.0011706912074515,0.0011706912074515,-0.0011706912074516,0.0011706912074515,0.5110357036057,0.35828915641187,1270536,32768,0.0049378736722691,0.0049378736722691,0.0049378736722691,40.996335590938,40.998415841515,0.0002431706847275,0.0002431706847275,0.0002431706847275,789023.16227731,0.014924000769961
8121600,0.91045230652852,0.014168253697859,0.0047227512326196,0.0047227512326195,0.0047227512326195,-0.0011936426315942,0.0011936426315942,2.3719863609743e-17,-1.6205387289483e-17,-8.7798788395517e-17,9.5320617432333e-17,-0.0012188993962033,0.0012188993962032,-0.0012188993962033,0.0012188993962032,-0.0012188993962032,0.0012188993962033,-0.0012188993962032,0.0012188993962033,-0.0011760477511801,0.0011760477511803,-0.0011760477511802,0.0011760477511802,9.726908731968e-17,-8.5894434807506e-17,-1.6712724731849e-17,3.1690208356476e-17,-0.0011936426315942,0.0011936426315942,-0.0012188993962031,0.0012188993962032,-0.0012188993962031,0.0012188993962033,-0.0012188993962032,0.0012188993962032,-0.0012188993962032,0.0012188993962032,-0.0011760477511802,0.0011760477511802,-0.0011760477511802,0.0011760477511801,-0.0011760477511801,0.0011760477511803,-0.0011760477511803,0.0011760477511802,-2.2462549078662e-17,1.9264117376791e-17,-0.0011936426315942,0.0011936426315942,1.6337736187492e-17,-2.4396313532897e-17,-0.0012188993962032,0.0012188993962032,-0.0012188993962032,0.0012188993962032,-0.0012188993962032,0.0012188993962032,-0.0012188993962032,0.0012188993962032,-0.0011760477511802,0.0011760477511802,-0.0011760477511802,0.0011760477511802,0.50425769113012,0.35651343703977,1270536,32768,0.0049611600479382,0.0049611600479382,0.0049611600479382,41.059585236626,41.063890215266,0.00024367668189301,0.00024367668189301,0.00024367668189301,784635.83124526,0.014994909219444
8208000,0.91634036389616,0.014232201022129,0.0047440670073764,0.0047440670073763,0.0047440670073763,-0.0011989682111332,0.0011989682111332,2.7973410137404e-17,-1.2176098616781e-17,-8.3762147006259e-17,9.945284413682e-17,-0.0012245842614456,0.0012245842614456,-0.0012245842614456,0.0012245842614455,-0.0012245842614456,0.0012245842614456,-0.0012245842614456,0.0012245842614456,-0.001181133024438,0.0011811330244382,-0.0011811330244381,0.0011811330244381,1.0397476481878e-16,-7.9041702977289e-17,-9.3305973095982e-18,3.8042955460883e-17,-0.0011989682111331,0.0011989682111332,-0.0012245842614455,0.0012245842614456,-0.0012245842614455,0.0012245842614456,-0.0012245842614456,0.0012245842614456,-0.0012245842614456,0.0012245842614456,-0.0011811330244381,0.0011811330244381,-0.0011811330244381,0.0011811330244381,-0.001181133024438,0.0011811330244382,-0.0011811330244382,0.0011811330244381,-1.7330352922555e-17,2.4205142902441e-17,-0.0011989682111331,0.0011989682111332,2.0881715019116e-17,-1.8631783752972e-17,-0.0012245842614456,0.0012245842614456,-0.0012245842614456,0.0012245842614455,-0.0012245842614455,0.0012245842614456,-0.0012245842614456,0.0012245842614456,-0.0011811330244381,0.0011811330244381,-0.0011811330244381,0.0011811330244381,0.49786376036107,0.35473771766766,1270536,32768,0.0049832391132572,0.0049832391132572,0.0049832391132571,41.165043575522,41.172251607191,0.00024452034860417,0.00024452034860417,0.00024452034860417,779166.88914602,0.015062145915163
8294400,0.9218926034261,0.014291906039111,0.0047639686797036,0.0047639686797035,0.0047639686797035,-0.0012039612441655,0.0012039612441655,2.4929385483209e-17,-1.4911309175623e-17,-8.7651734064397e-17,9.608529995416e-17,-0.0012299085102412,0.0012299085102411,-0.0012299085102412,0.0012299085102411,-0.0012299085102411,0.0012299085102412,-0.0012299085102411,0.0012299085102412,-0.0011859071597094,0.0011859071597095,-0.0011859071597094,0.0011859071597095,1.0151160477251e-16,-8.2034258615592e-17,-1.156582314263e-17,3.5528326398722e-17,-0.0012039612441655,0.0012039612441655,-0.0012299085102411,0.0012299085102412,-0.0012299085102411,0.0012299085102412,-0.0012299085102412,0.0012299085102412,-0.0012299085102412,0.0012299085102412,-0.0011859071597094,0.0011859071597094,-0.0011859071597094,0.0011859071597094,-0.0011859071597093,0.0011859071597095,-0.0011859071597095,0.0011859071597094,-1.5775253370956e-17,2.5616864481198e-17,-0.0012039612441655,0.0012039612441655,2.2072855101193e-17,-1.7249473040439e-17,-0.0012299085102412,0.0012299085102412,-0.0012299085102412,0.0012299085102412,-0.0012299085102411,0.0012299085102412,-0.0012299085102412,0.0012299085102412,-0.0011859071597094,0.0011859071597094,-0.0011859071597095,0.0011859071597094,0.49290715311257,0.35907401629265,1270536,32768,0.0050039390467583,0.0050039390467583,0.0050039390467583,41.273125031013,41.280612999116,0.0002453850002481,0.0002453850002481,0.0002453850002481,772686.64200454,0.01512518683396
8380800,0.92712351763561,0.01434771381365,0.0047825712712168,0.0047825712712168,0.0047825712712168,-0.0012086644356601,0.0012086644356601,2.3370609573332e-17,-1.6683313865625e-17,-8.8864932296141e-17,9.4364764280049e-17,-0.0012349070542305,0.0012349070542305,-0.0012349070542306,0.0012349070542305,-0.0012349070542305,0.0012349070542306,-0.0012349070542305,0.0012349070542306,-0.0011904190546503,0.0011904190546504,-0.0011904190546503,0.0011904190546503,9.8908743111674e-17,-8.4041550235388e-17,-1.4418677166369e-17,3.2499007177639e-17,-0.0012086644356601,0.0012086644356601,-0.0012349070542304,0.0012349070542305,-0.0012349070542304,0.0012349070542305,-0.0012349070542305,0.0012349070542305,-0.0012349070542305,0.0012349070542305,-0.0011904190546503,0.0011904190546503,-0.0011904190546503,0.0011904190546503,-0.0011904190546502,0.0011904190546504,-0.0011904190546504,0.0011904190546503,-1.9462640723803e-17,2.1852273604512e-17,-0.0012086644356601,0.0012086644356601,1.8705310918532e-17,-2.0587606356875e-17,-0.0012349070542305,0.0012349070542305,-0.0012349070542305,0.0012349070542305,-0.0012349070542305,0.0012349070542305,-0.0012349070542305,0.0012349070542305,-0.0011904190546503,0.0011904190546503,-0.0011904190546503,0.0011904190546503,0.4889820798846,0.3649459305384,1270536,32768,0.0050234369838768,0.0050234369838768,0.0050234369838768,41.38145563842,41.388974391042,0.00024625164510736,0.00024625164510736,0.00024625164510736,764071.89685755,0.015184570669339
8467200,0.93204737420076,0.014399907198575,0.0047999690661919,0.0047999690661918,0.0047999690661918,-0.0012130891192592,0.0012130891192592,2.5216141428894e-17,-1.4609847796825e-17,-8.5387097365141e-17,9.7644075864037e-17,-0.0012395960523751,0.0012395960523751,-0.0012395960523751,0.001239596052375,-0.0012395960523751,0.0012395960523751,-0.0012395960523751,0.0012395960523751,-0.0011946744211035,0.0011946744211037,-0.0011946744211036,0.0011946744211036,1.0029840654076e-16,-8.2475421608954e-17,-1.2242273065785e-17,3.4498946080878e-17,-0.0012130891192592,0.0012130891192592,-0.001239596052375,0.0012395960523751,-0.001239596052375,0.0012395960523751,-0.0012395960523751,0.0012395960523751,-0.0012395960523751,0.0012395960523751,-0.0011946744211036,0.0011946744211035,-0.0011946744211036,0.0011946744211035,-0.0011946744211035,0.0011946744211037,-0.0011946744211037,0.0011946744211036,-2.2091236892583e-17,1.9205295644342e-17,-0.0012130891192592,0.0012130891192592,1.5837751461682e-17,-2.3293406049493e-17,-0.0012395960523751,0.0012395960523751,-0.0012395960523751,0.0012395960523751,-0.0012395960523751,0.0012395960523751,-0.0012395960523751,0.0012395960523751,-0.0011946744211035,0.0011946744211036,-0.0011946744211036,0.0011946744211036,0.48576534093531,0.37081784478414,1270536,32768,0.0050417799784484,0.0050417799784484,0.0050417799784484,41.489811614172,41.497335782967,0.00024711849291338,0.00024711849291338,0.00024711849291338,754134.99637801,0.01524044007985
8553600,0.93667822779183,0.014448735781622,0.0048162452605407,0.0048162452605407,0.0048162452605406,-0.0012172489741049,0.0012172489741049,2.198462250252e-17,-1.7764163199361e-17,-8.8842874146473e-17,9.3585376325111e-17,-0.0012439930296555,0.0012439930296554,-0.0012439930296555,0.0012439930296554,-0.0012439930296554,0.0012439930296555,-0.0012439930296554,0.0012439930296555,-0.0011986834198133,0.0011986834198134,-0.0011986834198133,0.0011986834198133,1.0371741973932e-16,-7.8519660101811e-17,-8.6982636857798e-18,3.8587056486029e-17,-0.0012172489741049,0.0012172489741049,-0.0012439930296554,0.0012439930296555,-0.0012439930296554,0.0012439930296555,-0.0012439930296554,0.0012439930296554,-0.0012439930296554,0.0012439930296554,-0.0011986834198133,0.0011986834198133,-0.0011986834198133,0.0011986834198133,-0.0011986834198132,0.0011986834198134,-0.0011986834198134,0.0011986834198133,-1.9738367594654e-17,2.1602281241607e-17,-0.0012172489741049,0.0012172489741049,1.8205326192723e-17,-2.1278761713142e-17,-0.0012439930296554,0.0012439930296554,-0.0012439930296554,0.0012439930296554,-0.0012439930296554,0.0012439930296554,-0.0012439930296554,0.0012439930296555,-0.0011986834198133,0.0011986834198133,-0.0011986834198133,0.0011986834198133,0.48312848828667,0.37668975902989,1270536,32768,0.005059024801798,0.0050590248017979,0.0050590248017979,41.598170217623,41.605697174892,0.00024798536174098,0.00024798536174098,0.00024798536174098,743406.42518339,0.015292967400963
8640000,0.94102987931416,0.014494424563798,0.0048314748545994,0.0048314748545994,0.0048314748545994,-0.0012211603180987,0.0012211603180987,2.5767595170596e-17,-1.4087804921348e-17,-8.6401772249872e-17,9.6291176017729e-17,-0.0012481166899617,0.0012481166899617,-0.0012481166899618,0.0012481166899617,-0.0012481166899617,0.0012481166899618,-0.0012481166899617,0.0012481166899618,-0.0012024605451452,0.0012024605451454,-0.0012024605451453,0.0012024605451453,9.5210326683993e-17,-8.7144396622031e-17,-1.8058271861602e-17,2.9307928192323e-17,-0.0012211603180987,0.0012211603180987,-0.0012481166899616,0.0012481166899617,-0.0012481166899616,0.0012481166899617,-0.0012481166899617,0.0012481166899617,-0.0012481166899617,0.0012481166899617,-0.0012024605451453,0.0012024605451453,-0.0012024605451453,0.0012024605451453,-0.0012024605451452,0.0012024605451454,-0.0012024605451454,0.0012024605451453,-1.7653872451021e-17,2.3734569042855e-17,-0.0012211603180987,0.0012211603180987,2.0440552025755e-17,-1.9469993440359e-17,-0.0012481166899617,0.0012481166899617,-0.0012481166899617,0.0012481166899617,-0.0012481166899616,0.0012481166899617,-0.0012481166899617,0.0012481166899617,-0.0012024605451453,0.0012024605451453,-0.0012024605451453,0.0012024605451453,0.48098780890793,0.38256167327564,1270536,32768,0.0050752391564969,0.0050752391564969,0.0050752391564969,41.706529094408,41.714058566817,0.00024885223275527,0.00024885223275527,0.00024885223275527,732135.30950957,0.015342358344718
8726400,0.94511583577725,0.014537178883152,0.0048457262943841,0.0048457262943841,0.004845726294384,-0.0012248386119717,0.0012248386119717,2.6091114699062e-17,-1.3845165274999e-17,-8.5320922916136e-17,9.72323237369e-17,-0.0012519846185939,0.0012519846185939,-0.0012519846185939,0.0012519846185939,-0.0012519846185939,0.0012519846185939,-0.0012519846185939,0.0012519846185939,-0.0012060196906266,0.0012060196906268,-0.0012060196906267,0.0012060196906267,9.8430816535532e-17,-8.3504801926798e-17,-1.4330444567696e-17,3.3028402769673e-17,-0.0012248386119717,0.0012248386119717,-0.0012519846185938,0.0012519846185939,-0.0012519846185938,0.0012519846185939,-0.0012519846185939,0.0012519846185939,-0.0012519846185939,0.0012519846185938,-0.0012060196906267,0.0012060196906267,-0.0012060196906267,0.0012060196906267,-0.0012060196906266,0.0012060196906268,-0.0012060196906268,0.0012060196906267,-1.9032506805276e-17,2.2396374629658e-17,-0.0012248386119717,0.0012248386119717,1.9602342338368e-17,-2.0102327064178e-17,-0.0012519846185939,0.0012519846185939,-0.0012519846185939,0.0012519846185938,-0.0012519846185938,0.0012519846185939,-0.0012519846185938,0.0012519846185939,-0.0012060196906267,0.0012060196906267,-0.0012060196906267,0.0012060196906267,0.4792825102554,0.38843358752138,1270536,32768,0.0050904871833089,0.0050904871833089,0.0050904871833089,41.814887999489,41.822419958742,0.00024971910399591,0.00024971910399591,0.00024971910399591,720510.99246755,0.015388807847491
8812800,0.94894927566143,0.014575805560705,0.0048586018535685,0.0048586018535684,0.0048586018535684,-0.0012281849732292,0.0012281849732292,2.5756566095762e-17,-1.4220153819356e-17,-8.5607678861821e-17,9.6997036807107e-17,-0.0012555340854743,0.0012555340854742,-0.0012555340854743,0.0012555340854742,-0.0012555340854742,0.0012555340854743,-0.0012555340854742,0.0012555340854743,-0.0012092213368857,0.0012092213368858,-0.0012092213368858,0.0012092213368858,9.9805774531509e-17,-8.2387189010282e-17,-1.3359885982301e-17,3.4204837418637e-17,-0.0012281849732292,0.0012281849732292,-0.0012555340854742,0.0012555340854742,-0.0012555340854742,0.0012555340854743,-0.0012555340854742,0.0012555340854742,-0.0012555340854742,0.0012555340854742,-0.0012092213368858,0.0012092213368857,-0.0012092213368858,0.0012092213368857,-0.0012092213368857,0.0012092213368858,-0.0012092213368859,0.0012092213368858,-2.0003065390671e-17,2.1602281241607e-17,-0.0012281849732292,0.0012281849732292,1.7925922963594e-17,-2.1705219273391e-17,-0.0012555340854742,0.0012555340854742,-0.0012555340854742,0.0012555340854742,-0.0012555340854742,0.0012555340854742,-0.0012555340854742,0.0012555340854742,-0.0012092213368857,0.0012092213368858,-0.0012092213368858,0.0012092213368858,0.46148460297071,0.303444394553,1270536,32768,0.0051043589052479,0.0051043589052479,0.0051043589052479,41.923246907318,41.930781350667,0.00025058597525854,0.00025058597525854,0.00025058597525854,710700.31565674,0.015431067126441
8899200,0.95252367170708,0.014610788654487,0.004870262884829,0.004870262884829,0.0048702628848289,-0.0012307267638883,0.0012307267638883,2.5227170503728e-17,-1.4617200513382e-17,-8.5269453900244e-17,9.6688222711754e-17,-0.0012583825741681,0.0012583825741681,-0.0012583825741681,0.001258382574168,-0.0012583825741681,0.0012583825741681,-0.001258382574168,0.0012583825741681,-0.0012115256305747,0.0012115256305749,-0.0012115256305748,0.0012115256305748,9.9180793624247e-17,-8.2548948774514e-17,-1.321283165118e-17,3.4072488520629e-17,-0.0012307267638883,0.0012307267638883,-0.001258382574168,0.0012583825741681,-0.001258382574168,0.0012583825741681,-0.001258382574168,0.001258382574168,-0.0012583825741681,0.001258382574168,-0.0012115256305748,0.0012115256305748,-0.0012115256305748,0.0012115256305748,-0.0012115256305747,0.0012115256305749,-0.0012115256305749,0.0012115256305748,-1.9859687417829e-17,2.1455226910487e-17,-0.0012307267638883,0.0012307267638883,1.8146504460274e-17,-2.1719924706504e-17,-0.001258382574168,0.001258382574168,-0.001258382574168,0.001258382574168,-0.001258382574168,0.0012583825741681,-0.001258382574168,0.0012583825741681,-0.0012115256305748,0.0012115256305748,-0.0012115256305748,0.0012115256305748,0.44817360637104,0.27958262364292,1270536,32768,0.0051148951861767,0.0051148951861767,0.0051148951861767,41.925662524305,41.926091268594,0.00025060530019444,0.00025060530019444,0.00025060530019444,717790.2196745,0.015463166591098
8985600,0.95583439908285,0.014642984649649,0.0048809948832164,0.0048809948832164,0.0048809948832164,-0.0012329449666201,0.0012329449666201,2.3657365519017e-17,-1.6440674219276e-17,-8.6762055361118e-17,9.5335322865445e-17,-0.0012608351427451,0.0012608351427451,-0.0012608351427452,0.0012608351427451,-0.0012608351427451,0.0012608351427452,-0.0012608351427451,0.0012608351427451,-0.0012135876178523,0.0012135876178525,-0.0012135876178524,0.0012135876178524,9.8629339882545e-17,-8.3210693264557e-17,-1.3433413147861e-17,3.3454860329922e-17,-0.0012329449666201,0.0012329449666201,-0.001260835142745,0.0012608351427451,-0.001260835142745,0.0012608351427451,-0.0012608351427451,0.0012608351427451,-0.0012608351427451,0.0012608351427451,-0.0012135876178524,0.0012135876178524,-0.0012135876178524,0.0012135876178524,-0.0012135876178523,0.0012135876178525,-0.0012135876178525,0.0012135876178524,-1.5745842504732e-17,2.5793329678542e-17,-0.0012329449666201,0.0012329449666201,2.2293436597874e-17,-1.6852426346414e-17,-0.0012608351427451,0.0012608351427451,-0.0012608351427451,0.0012608351427451,-0.0012608351427451,0.0012608351427451,-0.0012608351427451,0.0012608351427451,-0.0012135876178524,0.0012135876178524,-0.0012135876178524,0.0012135876178524,0.44532477694221,0.31372910299747,1270536,32768,0.0051240900709475,0.0051240900709474,0.0051240900709474,41.80423135515,41.796109633982,0.0002496338508412,0.0002496338508412,0.0002496338508412,717817.46947683,0.015491180368936
9072000,0.95890012327062,0.014672472494381,0.0048908241647937,0.0048908241647936,0.0048908241647936,-0.0012351514252517,0.0012351514252517,2.4569102371964e-17,-1.5301003153092e-17,-8.6217954335972e-17,9.6276470584616e-17,-0.0012631785090046,0.0012631785090046,-0.0012631785090047,0.0012631785090046,-0.0012631785090046,0.0012631785090047,-0.0012631785090046,0.0012631785090046,-0.001215720341202,0.0012157203412021,-0.001215720341202,0.001215720341202,9.7577901415033e-17,-8.4357717047297e-17,-1.4977483624627e-17,3.2013727884941e-17,-0.0012351514252517,0.0012351514252517,-0.0012631785090045,0.0012631785090046,-0.0012631785090045,0.0012631785090046,-0.0012631785090046,0.0012631785090046,-0.0012631785090046,0.0012631785090046,-0.0012157203412021,0.001215720341202,-0.001215720341202,0.001215720341202,-0.0012157203412019,0.0012157203412021,-0.0012157203412021,0.001215720341202,-2.3300758766049e-17,1.8058271861602e-17,-0.0012351514252517,0.0012351514252517,1.4543673347821e-17,-2.4661011328914e-17,-0.0012631785090046,0.0012631785090046,-0.0012631785090046,0.0012631785090045,-0.0012631785090046,0.0012631785090046,-0.0012631785090046,0.0012631785090046,-0.001215720341202,0.001215720341202,-0.001215720341202,0.001215720341202,0.4404596750309,0.31420980998412,1270536,32768,0.0051332362176167,0.0051332362176167,0.0051332362176167,41.675066313043,41.666127999369,0.00024860053050434,0.00024860053050434,0.00024860053050434,706814.01956402,0.015519046558092
9158400,0.961739413688,0.014699444116986,0.0048998147056619,0.0048998147056619,0.0048998147056619,-0.0012370796878167,0.0012370796878167,2.4293375501113e-17,-1.5646580831225e-17,-8.6512062998213e-17,9.5997067355487e-17,-0.0012652535086639,0.0012652535086638,-0.0012652535086639,0.0012652535086638,-0.0012652535086638,0.0012652535086639,-0.0012652535086638,0.0012652535086639,-0.0012175533299463,0.0012175533299465,-0.0012175533299464,0.0012175533299464,1.0104838362948e-16,-8.1269576093766e-17,-1.1551117709518e-17,3.5484210099386e-17,-0.0012370796878167,0.0012370796878167,-0.0012652535086638,0.0012652535086638,-0.0012652535086637,0.0012652535086639,-0.0012652535086638,0.0012652535086638,-0.0012652535086638,0.0012652535086638,-0.0012175533299464,0.0012175533299463,-0.0012175533299464,0.0012175533299463,-0.0012175533299463,0.0012175533299465,-0.0012175533299464,0.0012175533299464,-2.2914741146858e-17,1.8675900052308e-17,-0.0012370796878167,0.0012370796878167,1.5337766735872e-17,-2.4322786367337e-17,-0.0012652535086638,0.0012652535086638,-0.0012652535086638,0.0012652535086638,-0.0012652535086638,0.0012652535086638,-0.0012652535086638,0.0012652535086638,-0.0012175533299464,0.0012175533299464,-0.0012175533299464,0.0012175533299464,0.43494476560819,0.30977246867508,1270536,32768,0.0051412290820749,0.0051412290820749,0.0051412290820748,41.545164882879,41.536146364756,0.00024756131906303,0.00024756131906303,0.00024756131906303,699648.75567737,0.015543399626847
9244800,0.96436954947467,0.014724109700697,0.0049080365668989,0.0049080365668988,0.0049080365668988,-0.0012388036409629,0.001238803640963,2.5142614263334e-17,-1.4705433112054e-17,-8.5467977247257e-17,9.6820571609762e-17,-0.0012671186789872,0.0012671186789872,-0.0012671186789873,0.0012671186789872,-0.0012671186789872,0.0012671186789873,-0.0012671186789872,0.0012671186789873,-0.0012191830603597,0.0012191830603599,-0.0012191830603598,0.0012191830603598,9.8107297007067e-17,-8.3776852439371e-17,-1.3881928857779e-17,3.236665827963e-17,-0.0012388036409629,0.001238803640963,-0.0012671186789871,0.0012671186789872,-0.0012671186789871,0.0012671186789872,-0.0012671186789872,0.0012671186789872,-0.0012671186789872,0.0012671186789872,-0.0012191830603598,0.0012191830603598,-0.0012191830603598,0.0012191830603598,-0.0012191830603597,0.0012191830603599,-0.0012191830603599,0.0012191830603598,-1.3470176730641e-17,2.7984439212238e-17,-0.0012388036409629,0.0012388036409629,2.3808096208415e-17,-1.4396619016701e-17,-0.0012671186789872,0.0012671186789872,-0.0012671186789872,0.0012671186789872,-0.0012671186789872,0.0012671186789872,-0.0012671186789872,0.0012671186789872,-0.0012191830603598,0.0012191830603598,-0.0012191830603598,0.0012191830603598,0.42935009185328,0.30533512736604,1270536,32768,0.0051483749938213,0.0051483749938212,0.0051483749938212,41.415188363967,41.406164730143,0.00024652150691173,0.00024652150691173,0.00024652150691173,693698.43689352,0.015565172686718
9331200,0.96680650779915,0.014746667801972,0.0049155559339908,0.0049155559339908,0.0049155559339908,-0.0012403555697879,0.0012403555697879,2.8649860060559e-17,-1.1168776448605e-17,-8.2585712357294e-17,9.9114619175243e-17,-0.0012688016398052,0.0012688016398051,-0.0012688016398052,0.0012688016398051,-0.0012688016398051,0.0012688016398052,-0.0012688016398051,0.0012688016398052,-0.0012206475043274,0.0012206475043276,-0.0012206475043275,0.0012206475043275,9.84528746852e-17,-8.2784235704307e-17,-1.3051071886948e-17,3.2690177808096e-17,-0.0012403555697878,0.0012403555697879,-0.0012688016398051,0.0012688016398051,-0.0012688016398051,0.0012688016398052,-0.0012688016398051,0.0012688016398051,-0.0012688016398051,0.0012688016398051,-0.0012206475043275,0.0012206475043274,-0.0012206475043275,0.0012206475043274,-0.0012206475043274,0.0012206475043276,-0.0012206475043276,0.0012206475043275,-1.4867192876286e-17,2.6440368735473e-17,-0.0012403555697878,0.0012403555697879,2.2205203999201e-17,-1.6014216659027e-17,-0.0012688016398051,0.0012688016398051,-0.0012688016398051,0.0012688016398051,-0.0012688016398051,0.0012688016398051,-0.0012688016398051,0.0012688016398051,-0.0012206475043274,0.0012206475043275,-0.0012206475043275,0.0012206475043275,0.42376095990166,0.30089778605699,1270536,32768,0.0051548078006296,0.0051548078006295,0.0051548078006295,41.285204061222,41.276183095531,0.00024548163248978,0.00024548163248978,0.00024548163248978,688192.87412135,0.015584773407968
9417600,0.96906504519809,0.014767301587822,0.0049224338626074,0.0049224338626074,0.0049224338626073,-0.0012417522512431,0.0012417522512431,2.2006680652189e-17,-1.7484759970232e-17,-8.7607617765061e-17,9.3747136089343e-17,-0.001270319231726,0.0012703192317259,-0.001270319231726,0.0012703192317259,-0.001270319231726,0.001270319231726,-0.0012703192317259,0.001270319231726,-0.0012219635483561,0.0012219635483563,-0.0012219635483562,0.0012219635483562,9.8173471456071e-17,-8.2732766688415e-17,-1.1631997591635e-17,3.3454860329922e-17,-0.0012417522512431,0.0012417522512431,-0.0012703192317259,0.001270319231726,-0.0012703192317259,0.001270319231726,-0.001270319231726,0.001270319231726,-0.001270319231726,0.0012703192317259,-0.0012219635483562,0.0012219635483562,-0.0012219635483562,0.0012219635483562,-0.0012219635483561,0.0012219635483563,-0.0012219635483563,0.0012219635483562,-1.8242089775503e-17,2.3043413686588e-17,-0.0012417522512431,0.0012417522512431,1.8837659816541e-17,-1.8249442492059e-17,-0.001270319231726,0.001270319231726,-0.0012703192317259,0.0012703192317259,-0.0012703192317259,0.001270319231726,-0.0012703192317259,0.001270319231726,-0.0012219635483562,0.0012219635483562,-0.0012219635483562,0.0012219635483562,0.41820466030943,0.29646044474795,1270536,32768,0.0051605970578706,0.0051605970578706,0.0051605970578706,41.155218948489,41.146201460918,0.00024444175158791,0.00024444175158791,0.00024444175158791,683036.53744329,0.015602413601042
9504000,0.97115878410241,0.014786178740829,0.0049287262469432,0.0049287262469431,0.0049287262469431,-0.0012430078091659,0.0012430078091659,2.2771363174015e-17,-1.7278883906663e-17,-8.7556148749169e-17,9.2908926401956e-17,-0.0012716861708664,0.0012716861708663,-0.0012716861708664,0.0012716861708663,-0.0012716861708663,0.0012716861708664,-0.0012716861708663,0.0012716861708664,-0.0012231449114066,0.0012231449114067,-0.0012231449114067,0.0012231449114067,9.8849921379226e-17,-8.129898695999e-17,-1.2396680113461e-17,3.2910759304776e-17,-0.0012430078091659,0.0012430078091659,-0.0012716861708663,0.0012716861708663,-0.0012716861708662,0.0012716861708664,-0.0012716861708663,0.0012716861708663,-0.0012716861708663,0.0012716861708663,-0.0012231449114067,0.0012231449114066,-0.0012231449114067,0.0012231449114066,-0.0012231449114065,0.0012231449114068,-0.0012231449114067,0.0012231449114066,-1.5047334431909e-17,2.6616833932817e-17,-0.0012430078091659,0.0012430078091659,2.1719924706504e-17,-1.632303075438e-17,-0.0012716861708663,0.0012716861708663,-0.0012716861708663,0.0012716861708663,-0.0012716861708663,0.0012716861708663,-0.0012716861708663,0.0012716861708663,-0.0012231449114066,0.0012231449114067,-0.0012231449114067,0.0012231449114067,0.412690032385,0.29202310343891,1270536,32768,0.0051658013206775,0.0051658013206774,0.0051658013206774,41.025233751704,41.016219826305,0.00024340187001363,0.00024340187001363,0.00024340187001363,678198.90824115,0.015618271583785
9590400,0.97310029551589,0.014803452366824,0.0049344841222747,0.0049344841222746,0.0049344841222746,-0.0012441347697312,0.0012441347697312,2.7811650373172e-17,-1.2448149129354e-17,-8.2703355822191e-17,9.7864657360718e-17,-0.00127291568864,0.00127291568864,-0.0012729156886401,0.00127291568864,-0.00127291568864,0.0012729156886401,-0.00127291568864,0.0012729156886401,-0.0012242036195255,0.0012242036195256,-0.0012242036195255,0.0012242036195256,1.0009253047719e-16,-8.0328428374594e-17,-1.1484943260514e-17,3.4616589545775e-17,-0.0012441347697312,0.0012441347697312,-0.0012729156886399,0.00127291568864,-0.0012729156886399,0.0012729156886401,-0.00127291568864,0.00127291568864,-0.00127291568864,0.00127291568864,-0.0012242036195255,0.0012242036195255,-0.0012242036195255,0.0012242036195255,-0.0012242036195254,0.0012242036195256,-0.0012242036195256,0.0012242036195255,-1.7407556446394e-17,2.4381608099785e-17,-0.0012441347697312,0.0012441347697312,2.0602311789987e-17,-1.7778868632473e-17,-0.00127291568864,0.00127291568864,-0.00127291568864,0.00127291568864,-0.00127291568864,0.00127291568864,-0.00127291568864,0.00127291568864,-0.0012242036195255,0.0012242036195255,-0.0012242036195255,0.0012242036195255,0.40721916063925,0.28758576212987,1270536,32768,0.0051704725195269,0.0051704725195269,0.0051704725195269,40.895248546513,40.886238191692,0.00024236198837211,0.00024236198837211,0.00024236198837211,673666.50605344,0.015632505509089
9676800,0.97489368231693,0.014819196992292,0.0049397323307641,0.0049397323307641,0.0049397323307641,-0.0012449822536661,0.0012449822536661,2.6896237161946e-17,-1.3264300667073e-17,-8.2990111767876e-17,9.8173471456071e-17,-0.0012738595036655,0.0012738595036655,-0.0012738595036655,0.0012738595036654,-0.0012738595036655,0.0012738595036655,-0.0012738595036655,0.0012738595036655,-0.0012249870136349,0.001224987013635,-0.0012249870136349,0.0012249870136349,9.673233901109e-17,-8.4034197518832e-17,-1.3418707714749e-17,3.2528418043863e-17,-0.0012449822536661,0.0012449822536661,-0.0012738595036654,0.0012738595036655,-0.0012738595036654,0.0012738595036655,-0.0012738595036655,0.0012738595036655,-0.0012738595036655,0.0012738595036655,-0.001224987013635,0.0012249870136349,-0.0012249870136349,0.0012249870136349,-0.0012249870136348,0.001224987013635,-0.0012249870136351,0.001224987013635,-1.7672254242411e-17,2.3881623373975e-17,-0.0012449822536661,0.0012449822536661,2.0219970529074e-17,-1.789651209737e-17,-0.0012738595036655,0.0012738595036655,-0.0012738595036655,0.0012738595036654,-0.0012738595036654,0.0012738595036655,-0.0012738595036654,0.0012738595036655,-0.0012249870136349,0.001224987013635,-0.001224987013635,0.001224987013635,0.40179145325678,0.28314842082083,1270536,32768,0.00517398523553,0.00517398523553,0.00517398523553,40.684056417785,40.669624716922,0.00024067245134228,0.00024067245134228,0.00024067245134228,669565.62288937,0.015643209736572
9763200,0.97654377170817,0.014833663637572,0.0049445545458573,0.0049445545458572,0.0049445545458572,-0.001245558961078,0.001245558961078,2.6142583714954e-17,-1.3962808739895e-17,-8.5085635986343e-17,9.765878129715e-17,-0.0012745203997592,0.0012745203997592,-0.0012745203997593,0.0012745203997592,-0.0012745203997592,0.0012745203997593,-0.0012745203997592,0.0012745203997593,-0.0012255098024628,0.0012255098024629,-0.0012255098024629,0.0012255098024629,9.4313295264157e-17,-8.803407532531e-17,-1.8389144106623e-17,2.7528570785765e-17,-0.001245558961078,0.001245558961078,-0.0012745203997592,0.0012745203997592,-0.0012745203997591,0.0012745203997593,-0.0012745203997592,0.0012745203997592,-0.0012745203997592,0.0012745203997592,-0.0012255098024629,0.0012255098024628,-0.0012255098024629,0.0012255098024628,-0.0012255098024627,0.0012255098024629,-0.0012255098024629,0.0012255098024628,-2.2627985201173e-17,1.8984714147662e-17,-0.001245558961078,0.001245558961078,1.4587789647157e-17,-2.3661041877295e-17,-0.0012745203997592,0.0012745203997592,-0.0012745203997592,0.0012745203997592,-0.0012745203997592,0.0012745203997592,-0.0012745203997592,0.0012745203997592,-0.0012255098024628,0.0012255098024628,-0.0012255098024629,0.0012255098024628,0.4012010839771,0.30515093879817,1270536,32768,0.005176375563066,0.0051763755630659,0.0051763755630659,40.385412686168,40.364967028842,0.00023828330148935,0.00023828330148935,0.00023828330148935,665585.40846468,0.015650494038788
9849600,0.97806293292751,0.014847019847239,0.0049490066157463,0.0049490066157463,0.0049490066157463,-0.0012461344181689,0.0012461344181689,3.1223310855168e-17,-8.8820815996805e-18,-8.312981338244e-17,1.0549677714587e-16,-0.0012751338524242,0.0012751338524242,-0.0012751338524243,0.0012751338524242,-0.0012751338524242,0.0012751338524243,-0.0012751338524242,0.0012751338524243,-0.0012260702070022,0.0012260702070024,-0.0012260702070023,0.0012260702070023,1.1906253919174e-16,-6.9027303027981e-17,5.5292428501322e-18,5.0645511637913e-17,-0.0012461344181688,0.0012461344181689,-0.0012751338524241,0.0012751338524242,-0.0012751338524241,0.0012751338524243,-0.0012751338524242,0.0012751338524242,-0.0012751338524242,0.0012751338524242,-0.0012260702070023,0.0012260702070023,-0.0012260702070023,0.0012260702070023,-0.0012260702070021,0.0012260702070024,-0.0012260702070023,0.0012260702070023,-2.1157441889967e-17,2.0602311789987e-17,-0.0012461344181689,0.0012461344181689,1.5955394926578e-17,-2.1646397540943e-17,-0.0012751338524242,0.0012751338524242,-0.0012751338524242,0.0012751338524242,-0.0012751338524242,0.0012751338524242,-0.0012751338524242,0.0012751338524242,-0.0012260702070023,0.0012260702070023,-0.0012260702070023,0.0012260702070023,0.40230914814045,0.32514777092601,1270536,32768,0.005178760727421,0.0051787607274209,0.0051787607274209,40.08131200156,40.060309340762,0.00023585049601248,0.00023585049601248,0.00023585049601248,657177.69597784,0.015657762650694
9936000,0.97946278552834,0.014859374976052,0.0049531249920174,0.0049531249920174,0.0049531249920173,-0.0012466399975785,0.0012466399975785,2.6819033638108e-17,-1.2859901256491e-17,-8.7813493828629e-17,9.9996945161966e-17,-0.0012756646393066,0.0012756646393065,-0.0012756646393066,0.0012756646393065,-0.0012756646393065,0.0012756646393066,-0.0012756646393065,0.0012756646393066,-0.001226565907578,0.0012265659075781,-0.001226565907578,0.001226565907578,1.0112191079504e-16,-8.6151779886967e-17,-1.2734905075039e-17,3.1866673553821e-17,-0.0012466399975785,0.0012466399975785,-0.0012756646393064,0.0012756646393065,-0.0012756646393064,0.0012756646393066,-0.0012756646393065,0.0012756646393065,-0.0012756646393065,0.0012756646393065,-0.001226565907578,0.001226565907578,-0.001226565907578,0.001226565907578,-0.0012265659075779,0.0012265659075781,-0.0012265659075781,0.001226565907578,-1.8554580229134e-17,2.2690483291899e-17,-0.0012466399975785,0.0012466399975785,1.8014155562266e-17,-1.8808248950317e-17,-0.0012756646393065,0.0012756646393065,-0.0012756646393065,0.0012756646393065,-0.0012756646393065,0.0012756646393065,-0.0012756646393065,0.0012756646393065,-0.001226565907578,0.0012265659075781,-0.0012265659075781,0.001226565907578,0.40383252008831,0.33996392803986,1270536,32768,0.0051808562397847,0.0051808562397846,0.0051808562397846,39.776693366423,39.755651652682,0.00023341354693139,0.00023341354693139,0.00023341354693139,648262.20099971,0.015664148659317
10022400,0.98075386591233,0.014870834160547,0.0049569447201825,0.0049569447201825,0.0049569447201824,-0.0012470621646451,0.0012470621646451,2.4300728217669e-17,-1.5028952640519e-17,-8.73502726856e-17,9.8688161614993e-17,-0.0012761090722821,0.001276109072282,-0.0012761090722821,0.001276109072282,-0.001276109072282,0.0012761090722821,-0.001276109072282,0.0012761090722821,-0.0012269768559928,0.0012269768559929,-0.0012269768559928,0.0012269768559928,9.4864749005859e-17,-9.0806049466932e-17,-1.8322969657619e-17,2.6160965506344e-17,-0.0012470621646451,0.0012470621646451,-0.001276109072282,0.001276109072282,-0.001276109072282,0.0012761090722821,-0.001276109072282,0.001276109072282,-0.0012761090722821,0.001276109072282,-0.0012269768559928,0.0012269768559928,-0.0012269768559928,0.0012269768559928,-0.0012269768559927,0.0012269768559929,-0.0012269768559929,0.0012269768559928,-2.1135383740299e-17,1.9646458637704e-17,-0.0012470621646451,0.0012470621646451,1.52495341372e-17,-2.1631692107831e-17,-0.001276109072282,0.001276109072282,-0.001276109072282,0.001276109072282,-0.001276109072282,0.001276109072282,-0.001276109072282,0.001276109072282,-0.0012269768559928,0.0012269768559928,-0.0012269768559928,0.0012269768559928,0.40605930420855,0.35478008515371,1270536,32768,0.0051826060050496,0.0051826060050496,0.0051826060050496,39.472022132433,39.450993964602,0.00023097617705947,0.00023097617705947,0.00023097617705947,639872.89461772,0.015669481092789
10108800,0.98194570247457,0.014881488399178,0.0049604961330592,0.0049604961330592,0.0049604961330592,-0.0012474194500571,0.0012474194500571,2.4469840698458e-17,-1.4698080395498e-17,-8.7144396622031e-17,9.837934751964e-17,-0.0012764830356034,0.0012764830356034,-0.0012764830356035,0.0012764830356034,-0.0012764830356034,0.0012764830356035,-0.0012764830356034,0.0012764830356035,-0.0012273259127028,0.001227325912703,-0.0012273259127029,0.0012273259127029,9.9033739293127e-17,-8.6122369020743e-17,-1.4161332086908e-17,3.1940200719381e-17,-0.0012474194500571,0.0012474194500571,-0.0012764830356033,0.0012764830356034,-0.0012764830356033,0.0012764830356034,-0.0012764830356034,0.0012764830356034,-0.0012764830356034,0.0012764830356034,-0.0012273259127029,0.0012273259127028,-0.0012273259127029,0.0012273259127028,-0.0012273259127028,0.0012273259127029,-0.001227325912703,0.0012273259127029,-1.6102449257699e-17,2.4749243927587e-17,-0.0012474194500571,0.0012474194500571,2.1955211636296e-17,-1.704359697687e-17,-0.0012764830356034,0.0012764830356034,-0.0012764830356034,0.0012764830356034,-0.0012764830356034,0.0012764830356034,-0.0012764830356034,0.0012764830356034,-0.0012273259127028,0.0012273259127029,-0.0012273259127029,0.0012273259127029,0.40893100784244,0.36959624226756,1270536,32768,0.0051840868397765,0.0051840868397765,0.0051840868397765,39.167345475267,39.146336276522,0.00022853876380213,0.00022853876380213,0.00022853876380213,631538.32083434,0.015673994021544
10195200,0.98304691476542,0.014891416714777,0.0049638055715924,0.0049638055715923,0.0049638055715923,-0.0012477180256502,0.0012477180256502,2.7635185175827e-17,-1.2227567632673e-17,-8.4365069763853e-17,9.9732247365949e-17,-0.0012767934332381,0.0012767934332381,-0.0012767934332382,0.0012767934332381,-0.0012767934332381,0.0012767934332382,-0.0012767934332381,0.0012767934332382,-0.0012276190833645,0.0012276190833647,-0.0012276190833646,0.0012276190833646,9.2945689984736e-17,-9.0100188677554e-17,-1.9955272733057e-17,2.6558012200369e-17,-0.0012477180256502,0.0012477180256502,-0.001276793433238,0.0012767934332381,-0.001276793433238,0.0012767934332381,-0.0012767934332381,0.0012767934332381,-0.0012767934332381,0.001276793433238,-0.0012276190833646,0.0012276190833645,-0.0012276190833646,0.0012276190833645,-0.0012276190833645,0.0012276190833646,-0.0012276190833647,0.0012276190833645,-1.9124415762226e-17,2.2116971400529e-17,-0.0012477180256502,0.0012477180256502,1.9028830446998e-17,-1.9734691236376e-17,-0.0012767934332381,0.0012767934332381,-0.0012767934332381,0.0012767934332381,-0.001276793433238,0.0012767934332381,-0.0012767934332381,0.0012767934332381,-0.0012276190833645,0.0012276190833646,-0.0012276190833646,0.0012276190833646,0.41238653499625,0.38441239938141,1270536,32768,0.0051853243271313,0.0051853243271313,0.0051853243271313,38.862668260928,38.841678588442,0.00022610134608742,0.00022610134608742,0.00022610134608742,623267.00275674,0.015677765397443
10281600,0.9840653051694,0.014900688004165,0.0049668960013883,0.0049668960013882,0.0049668960013882,-0.001247962956559,0.001247962956559,2.2267702089928e-17,-1.7300942056331e-17,-8.9269331706723e-17,9.4467702311834e-17,-0.0012770461048202,0.0012770461048201,-0.0012770461048202,0.0012770461048201,-0.0012770461048201,0.0012770461048202,-0.0012770461048201,0.0012770461048202,-0.001227861065455,0.0012278610654551,-0.001227861065455,0.001227861065455,9.6511757514409e-17,-8.6482652131989e-17,-1.6161270990147e-17,3.04990682744e-17,-0.001247962956559,0.001247962956559,-0.00127704610482,0.0012770461048201,-0.00127704610482,0.0012770461048201,-0.0012770461048201,0.0012770461048201,-0.0012770461048201,0.0012770461048201,-0.001227861065455,0.001227861065455,-0.001227861065455,0.001227861065455,-0.0012278610654549,0.0012278610654551,-0.0012278610654551,0.001227861065455,-1.8444289480794e-17,2.2719894158123e-17,-0.001247962956559,0.001247962956559,1.8675900052308e-17,-2.0175854229738e-17,-0.0012770461048201,0.0012770461048201,-0.0012770461048201,0.0012770461048201,-0.0012770461048201,0.0012770461048201,-0.0012770461048201,0.0012770461048201,-0.001227861065455,0.001227861065455,-0.001227861065455,0.001227861065455,0.41637243071765,0.39922855649526,1270536,32768,0.0051863394624922,0.0051863394624922,0.0051863394624922,38.557990993387,38.537020900362,0.00022366392794709,0.00022366392794709,0.00022366392794709,615080.53716292,0.015680859194707
10368000,0.98500794129186,0.014909362642393,0.0049697875474644,0.0049697875474644,0.0049697875474644,-0.0012481586696027,0.0012481586696027,2.5035999873272e-17,-1.4815723860394e-17,-8.512975228568e-17,9.7144091138228e-17,-0.0012772461605959,0.0012772461605959,-0.001277246160596,0.0012772461605959,-0.0012772461605959,0.001277246160596,-0.0012772461605959,0.001277246160596,-0.0012280559130192,0.0012280559130193,-0.0012280559130192,0.0012280559130192,9.7048505822999e-17,-8.4681236575762e-17,-1.4793665710726e-17,3.0557890006848e-17,-0.0012481586696027,0.0012481586696027,-0.0012772461605958,0.0012772461605959,-0.0012772461605958,0.001277246160596,-0.0012772461605959,0.0012772461605959,-0.0012772461605959,0.0012772461605959,-0.0012280559130193,0.0012280559130192,-0.0012280559130193,0.0012280559130192,-0.0012280559130191,0.0012280559130193,-0.0012280559130193,0.0012280559130192,-2.5120556113666e-17,1.6308325321268e-17,-0.0012481586696027,0.0012481586696027,1.1558470426074e-17,-2.6028616608335e-17,-0.0012772461605959,0.0012772461605959,-0.0012772461605959,0.0012772461605959,-0.0012772461605959,0.0012772461605959,-0.0012772461605959,0.0012772461605959,-0.0012280559130192,0.0012280559130192,-0.0012280559130193,0.0012280559130192,0.42084321751188,0.41404471360911,1270536,32768,0.005187150595102,0.0051871505951019,0.0051871505951019,38.253313724866,38.232363212283,0.00022122650979893,0.00022122650979893,0.00022122650979893,606997.94903209,0.015683331326121
10454400,0.98588751619882,0.014917552137272,0.0049725173790906,0.0049725173790905,0.0049725173790905,-0.0012485770138888,0.0012485770138888,2.3848536149473e-17,-1.6124507407367e-17,-8.7004695007466e-17,9.5026508770092e-17,-0.0012776624531499,0.0012776624531498,-0.0012776624531499,0.0012776624531498,-0.0012776624531498,0.0012776624531499,-0.0012776624531498,0.0012776624531499,-0.0012284775894601,0.0012284775894602,-0.0012284775894601,0.0012284775894602,9.7438199800469e-17,-8.4225368149288e-17,-1.4183390236576e-17,3.1366688828011e-17,-0.0012485770138888,0.0012485770138888,-0.0012776624531498,0.0012776624531499,-0.0012776624531498,0.0012776624531499,-0.0012776624531499,0.0012776624531498,-0.0012776624531499,0.0012776624531498,-0.0012284775894602,0.0012284775894601,-0.0012284775894602,0.0012284775894601,-0.0012284775894601,0.0012284775894602,-0.0012284775894602,0.0012284775894601,-2.0297174052912e-17,2.1278761713142e-17,-0.0012485770138888,0.0012485770138888,1.6631844849733e-17,-2.1072885649573e-17,-0.0012776624531499,0.0012776624531498,-0.0012776624531498,0.0012776624531498,-0.0012776624531498,0.0012776624531499,-0.0012776624531498,0.0012776624531499,-0.0012284775894601,0.0012284775894602,-0.0012284775894602,0.0012284775894601,0.42576013988271,0.42886087072296,1270536,32768,0.0051888845782351,0.005188884578235,0.005188884578235,38.084938764886,38.073038917348,0.00021987951011909,0.00021987951011909,0.00021987951011909,598837.80237423,0.015688615329064
10540800,0.98671449788883,0.014925167056817,0.0049750556856056,0.0049750556856055,0.0049750556856055,-0.0012492082837279,0.0012492082837279,2.5256581369952e-17,-1.4521615198153e-17,-8.5416508231365e-17,9.6217648852168e-17,-0.0012782936996134,0.0012782936996133,-0.0012782936996134,0.0012782936996133,-0.0012782936996133,0.0012782936996134,-0.0012782936996133,0.0012782936996134,-0.0012291085937965,0.0012291085937966,-0.0012291085937966,0.0012291085937966,9.6827924326318e-17,-8.4225368149288e-17,-1.4558378780933e-17,3.1057874732658e-17,-0.0012492082837279,0.0012492082837279,-0.0012782936996133,0.0012782936996134,-0.0012782936996133,0.0012782936996134,-0.0012782936996133,0.0012782936996133,-0.0012782936996133,0.0012782936996133,-0.0012291085937966,0.0012291085937965,-0.0012291085937966,0.0012291085937965,-0.0012291085937964,0.0012291085937966,-0.0012291085937966,0.0012291085937965,-2.0719955254884e-17,2.1072885649573e-17,-0.0012492082837279,0.0012492082837279,1.6749488314629e-17,-2.119052911447e-17,-0.0012782936996133,0.0012782936996133,-0.0012782936996133,0.0012782936996133,-0.0012782936996133,0.0012782936996133,-0.0012782936996133,0.0012782936996133,-0.0012291085937965,0.0012291085937965,-0.0012291085937966,0.0012291085937965,0.42103184666372,0.38822628619046,1270536,32768,0.005191501149343,0.005191501149343,0.005191501149343,38.051789853875,38.049168904199,0.000219614318831,0.000219614318831,0.000219614318831,590953.16972133,0.015696588698664
10627200,0.98749240824465,0.014932281570177,0.0049774271900591,0.0049774271900591,0.0049774271900591,-0.0012496362333868,0.0012496362333868,2.5804358753376e-17,-1.417603752002e-17,-8.5004756104227e-17,9.6614695546194e-17,-0.0012787848194601,0.00127878481946,-0.0012787848194601,0.00127878481946,-0.00127878481946,0.0012787848194601,-0.00127878481946,0.0012787848194601,-0.0012294807189789,0.0012294807189791,-0.001229480718979,0.001229480718979,9.6982331373995e-17,-8.3835674171819e-17,-1.4117215787572e-17,3.1337277961787e-17,-0.0012496362333867,0.0012496362333868,-0.00127878481946,0.00127878481946,-0.0012787848194599,0.0012787848194601,-0.00127878481946,0.00127878481946,-0.00127878481946,0.00127878481946,-0.001229480718979,0.001229480718979,-0.001229480718979,0.001229480718979,-0.0012294807189789,0.0012294807189791,-0.0012294807189791,0.001229480718979,-1.9587636905256e-17,2.2131676833641e-17,-0.0012496362333867,0.0012496362333868,1.7558287135792e-17,-2.0146443363514e-17,-0.00127878481946,0.00127878481946,-0.00127878481946,0.00127878481946,-0.00127878481946,0.00127878481946,-0.00127878481946,0.00127878481946,-0.001229480718979,0.001229480718979,-0.001229480718979,0.001229480718979,0.41813868867599,0.37898076647405,1270536,32768,0.0051932749485286,0.0051932749485286,0.0051932749485286,38.027038393602,38.02529889105,0.00021941630714882,0.00021941630714882,0.00021941630714882,590845.62200148,0.015701993813263
10713600,0.98822420269151,0.014938906665246,0.004979635555082,0.004979635555082,0.004979635555082,-0.0012500883853995,0.0012500883853995,2.5024970798438e-17,-1.5014247207407e-17,-8.5865023941282e-17,9.5526493495902e-17,-0.0012792780347562,0.0012792780347561,-0.0012792780347562,0.0012792780347561,-0.0012792780347561,0.0012792780347562,-0.0012792780347561,0.0012792780347562,-0.0012299047388095,0.0012299047388096,-0.0012299047388096,0.0012299047388096,9.7136738421672e-17,-8.3740088856591e-17,-1.3940750590227e-17,3.1381394261123e-17,-0.0012500883853995,0.0012500883853995,-0.0012792780347561,0.0012792780347561,-0.001279278034756,0.0012792780347562,-0.0012792780347561,0.0012792780347561,-0.0012792780347561,0.0012792780347561,-0.0012299047388096,0.0012299047388095,-0.0012299047388096,0.0012299047388095,-0.0012299047388095,0.0012299047388096,-0.0012299047388096,0.0012299047388095,-2.0565548207207e-17,2.119052911447e-17,-0.0012500883853995,0.0012500883853995,1.6720077448405e-17,-2.069054438866e-17,-0.0012792780347561,0.0012792780347561,-0.0012792780347561,0.0012792780347561,-0.0012792780347561,0.0012792780347561,-0.0012792780347561,0.0012792780347561,-0.0012299047388095,0.0012299047388096,-0.0012299047388096,0.0012299047388096,0.41390982573134,0.36416572583627,1270536,32768,0.0051951490943365,0.0051951490943364,0.0051951490943364,38.003079114303,38.001428877901,0.00021922463291442,0.00021922463291442,0.00021922463291442,588592.36764617,0.015707704788938
10800000,0.98891263114602,0.014945063441226,0.0049816878137419,0.0049816878137419,0.0049816878137418,-0.0012504863710196,0.0012504863710196,2.500291264877e-17,-1.4984836341183e-17,-8.570326417705e-17,9.558531522835e-17,-0.0012797200136026,0.0012797200136025,-0.0012797200136026,0.0012797200136025,-0.0012797200136025,0.0012797200136026,-0.0012797200136025,0.0012797200136026,-0.0012302722169848,0.001230272216985,-0.0012302722169849,0.0012302722169849,9.7577901415033e-17,-8.2931290035428e-17,-1.3396649565081e-17,3.1999022451829e-17,-0.0012504863710196,0.0012504863710196,-0.0012797200136025,0.0012797200136026,-0.0012797200136025,0.0012797200136026,-0.0012797200136025,0.0012797200136025,-0.0012797200136025,0.0012797200136025,-0.0012302722169849,0.0012302722169849,-0.0012302722169849,0.0012302722169848,-0.0012302722169848,0.001230272216985,-0.001230272216985,0.0012302722169849,-2.128243807142e-17,2.0293497694634e-17,-0.0012504863710196,0.0012504863710196,1.6087743824587e-17,-2.141111061115e-17,-0.0012797200136025,0.0012797200136025,-0.0012797200136025,0.0012797200136025,-0.0012797200136025,0.0012797200136025,-0.0012797200136025,0.0012797200136025,-0.0012302722169849,0.0012302722169849,-0.0012302722169849,0.0012302722169849,0.40887072067371,0.34935068519849,1270536,32768,0.0051967987221216,0.0051967987221215,0.0051967987221215,37.97919982476,37.977558864752,0.00021903359859808,0.00021903359859808,0.00021903359859808,587318.32521109,0.015712731611717
10886400,0.9895602781912,0.014950774662593,0.0049835915541978,0.0049835915541978,0.0049835915541977,-0.0012508437482677,0.0012508437482677,2.5201435995782e-17,-1.4668669529274e-17,-8.5379744648585e-17,9.5850013024367e-17,-0.0012801206276346,0.0012801206276346,-0.0012801206276347,0.0012801206276346,-0.0012801206276346,0.0012801206276347,-0.0012801206276346,0.0012801206276347,-0.0012306003997954,0.0012306003997955,-0.0012306003997954,0.0012306003997954,9.7644075864037e-17,-8.3048933500324e-17,-1.3323122399521e-17,3.1851968120709e-17,-0.0012508437482677,0.0012508437482677,-0.0012801206276346,0.0012801206276346,-0.0012801206276345,0.0012801206276347,-0.0012801206276346,0.0012801206276346,-0.0012801206276346,0.0012801206276346,-0.0012306003997954,0.0012306003997954,-0.0012306003997954,0.0012306003997954,-0.0012306003997953,0.0012306003997955,-0.0012306003997955,0.0012306003997954,-2.0789806062166e-17,2.0896420452229e-17,-0.0012508437482677,0.0012508437482677,1.6425968786164e-17,-2.1014063917125e-17,-0.0012801206276346,0.0012801206276346,-0.0012801206276346,0.0012801206276346,-0.0012801206276346,0.0012801206276346,-0.0012801206276346,0.0012801206276346,-0.0012306003997954,0.0012306003997954,-0.0012306003997954,0.0012306003997954,0.40315943386566,0.33453564456071,1270536,32768,0.0051982800329231,0.005198280032923,0.005198280032923,37.955328747153,37.953688851603,0.00021884262997722,0.00021884262997722,0.00021884262997722,586557.93600441,0.015717245543152
10972800,0.99016957525607,0.014956063942007,0.0049853546473357,0.0049853546473356,0.0049853546473356,-0.0012511639497422,0.0012511639497422,2.4852181959371e-17,-1.5308355869648e-17,-8.5673853310826e-17,9.5482377196566e-17,-0.0012804828348745,0.0012804828348744,-0.0012804828348745,0.0012804828348744,-0.0012804828348744,0.0012804828348745,-0.0012804828348744,0.0012804828348745,-0.0012308927028287,0.0012308927028288,-0.0012308927028287,0.0012308927028287,9.7489668816361e-17,-8.3181282398333e-17,-1.3389296848525e-17,3.157256489158e-17,-0.0012511639497422,0.0012511639497422,-0.0012804828348744,0.0012804828348744,-0.0012804828348743,0.0012804828348745,-0.0012804828348744,0.0012804828348744,-0.0012804828348744,0.0012804828348744,-0.0012308927028288,0.0012308927028287,-0.0012308927028287,0.0012308927028287,-0.0012308927028286,0.0012308927028288,-0.0012308927028288,0.0012308927028287,-2.0525108266149e-17,2.1161118248245e-17,-0.0012511639497422,0.0012511639497422,1.6573023117285e-17,-2.0572900923763e-17,-0.0012804828348744,0.0012804828348744,-0.0012804828348744,0.0012804828348744,-0.0012804828348744,0.0012804828348744,-0.0012804828348744,0.0012804828348744,-0.0012308927028287,0.0012308927028287,-0.0012308927028288,0.0012308927028287,0.39687334320836,0.31972060392292,1270536,32768,0.0051996072538102,0.0051996072538101,0.0051996072538101,37.931458516371,37.929818838454,0.00021865166813096,0.00021865166813096,0.00021865166813096,586243.91939741,0.015721289934189
11059200,0.99074280962783,0.01496095504371,0.0049869850145701,0.0049869850145701,0.0049869850145701,-0.0012514498034256,0.0012514498034256,2.5013941723604e-17,-1.5124537955747e-17,-8.5504740830037e-17,9.5776485858807e-17,-0.0012808092663883,0.0012808092663883,-0.0012808092663883,0.0012808092663882,-0.0012808092663883,0.0012808092663883,-0.0012808092663883,0.0012808092663883,-0.0012311518589332,0.0012311518589334,-0.0012311518589333,0.0012311518589333,9.7210265587232e-17,-8.3570976375802e-17,-1.363928921143e-17,3.1160812764442e-17,-0.0012514498034256,0.0012514498034256,-0.0012808092663882,0.0012808092663883,-0.0012808092663882,0.0012808092663883,-0.0012808092663883,0.0012808092663883,-0.0012808092663883,0.0012808092663882,-0.0012311518589333,0.0012311518589332,-0.0012311518589333,0.0012311518589332,-0.0012311518589332,0.0012311518589333,-0.0012311518589334,0.0012311518589333,-2.020894145424e-17,2.1278761713142e-17,-0.0012514498034256,0.0012514498034256,1.6411263353052e-17,-2.0734660687996e-17,-0.0012808092663883,0.0012808092663883,-0.0012808092663883,0.0012808092663882,-0.0012808092663882,0.0012808092663883,-0.0012808092663883,0.0012808092663883,-0.0012311518589332,0.0012311518589333,-0.0012311518589333,0.0012311518589333,0.39008597762367,0.30490556328514,1270536,32768,0.0052007921061052,0.0052007921061052,0.0052007921061052,37.907588373022,37.905948825305,0.00021846070698417,0.00021846070698417,0.00021846070698417,586332.70601863,0.015724900499797
11145600,0.99128213276397,0.014965479803877,0.0049884932679592,0.0049884932679591,0.0049884932679591,-0.0012517044802294,0.0012517044802294,2.466836404547e-17,-1.5278945003424e-17,-8.6012078272403e-17,9.4864749005859e-17,-0.0012811028181154,0.0012811028181153,-0.0012811028181154,0.0012811028181153,-0.0012811028181153,0.0012811028181154,-0.0012811028181153,0.0012811028181154,-0.0012313811809946,0.0012313811809947,-0.0012313811809947,0.0012313811809947,9.7886715510386e-17,-8.2600417790406e-17,-1.2727552358483e-17,3.1940200719381e-17,-0.0012517044802294,0.0012517044802294,-0.0012811028181153,0.0012811028181153,-0.0012811028181152,0.0012811028181154,-0.0012811028181153,0.0012811028181153,-0.0012811028181153,0.0012811028181153,-0.0012313811809947,0.0012313811809946,-0.0012313811809947,0.0012313811809946,-0.0012313811809945,0.0012313811809947,-0.0012313811809947,0.0012313811809946,-2.2631661559451e-17,1.911706304567e-17,-0.0012517044802294,0.0012517044802294,1.4367208150477e-17,-2.248460722833e-17,-0.0012811028181153,0.0012811028181153,-0.0012811028181153,0.0012811028181153,-0.0012811028181153,0.0012811028181153,-0.0012811028181153,0.0012811028181153,-0.0012313811809946,0.0012313811809947,-0.0012313811809947,0.0012313811809946,0.38356279567437,0.29399228489918,1270536,32768,0.0052018477335644,0.0052018477335643,0.0052018477335643,37.883718238705,37.882078812156,0.00021826974590964,0.00021826974590964,0.00021826974590964,586783.04523916,0.01572811728589
11232000,0.9917886646832,0.014969753614152,0.0049899178713841,0.0049899178713841,0.004989917871384,-0.0012518862738312,0.0012518862738313,2.5216141428894e-17,-1.4933367325291e-17,-8.5769438626054e-17,9.558531522835e-17,-0.0012813156067615,0.0012813156067615,-0.0012813156067616,0.0012813156067615,-0.0012813156067615,0.0012813156067616,-0.0012813156067615,0.0012813156067615,-0.0012315451264303,0.0012315451264305,-0.0012315451264304,0.0012315451264304,9.7379378068021e-17,-8.3320984012897e-17,-1.31760680684e-17,3.1807851821372e-17,-0.0012518862738312,0.0012518862738313,-0.0012813156067614,0.0012813156067615,-0.0012813156067614,0.0012813156067615,-0.0012813156067615,0.0012813156067615,-0.0012813156067615,0.0012813156067615,-0.0012315451264304,0.0012315451264304,-0.0012315451264304,0.0012315451264304,-0.0012315451264303,0.0012315451264305,-0.0012315451264305,0.0012315451264304,-1.9966301807891e-17,2.1719924706504e-17,-0.0012518862738312,0.0012518862738312,1.6734782881517e-17,-2.0234675962186e-17,-0.0012813156067615,0.0012813156067615,-0.0012813156067615,0.0012813156067615,-0.0012813156067615,0.0012813156067615,-0.0012813156067615,0.0012813156067615,-0.0012315451264304,0.0012315451264304,-0.0012315451264304,0.0012315451264304,0.38574436586029,0.33161180199135,1270536,32768,0.0052026012650471,0.0052026012650471,0.005202601265047,37.825999504446,37.822117327325,0.00021780799603557,0.00021780799603557,0.00021780799603557,586931.93443807,0.015730413519284
11318400,0.99226369256284,0.014973777633788,0.0049912592112626,0.0049912592112626,0.0049912592112625,-0.0012521601710433,0.0012521601710433,2.1032445708515e-17,-1.915382662845e-17,-9.0122246827222e-17,9.1526615689423e-17,-0.0012815596704354,0.0012815596704354,-0.0012815596704355,0.0012815596704354,-0.0012815596704354,0.0012815596704354,-0.0012815596704354,0.0012815596704354,-0.0012318537665948,0.0012318537665949,-0.0012318537665949,0.0012318537665949,9.4563287627062e-17,-8.6556179297549e-17,-1.685977906297e-17,2.8778532600289e-17,-0.0012521601710433,0.0012521601710433,-0.0012815596704353,0.0012815596704354,-0.0012815596704353,0.0012815596704354,-0.0012815596704354,0.0012815596704354,-0.0012815596704354,0.0012815596704354,-0.0012318537665949,0.0012318537665948,-0.0012318537665949,0.0012318537665948,-0.0012318537665948,0.0012318537665949,-0.0012318537665949,0.0012318537665948,-2.2028738801857e-17,1.954352060592e-17,-0.0012521601710433,0.0012521601710433,1.52495341372e-17,-2.2425785495882e-17,-0.0012815596704354,0.0012815596704354,-0.0012815596704354,0.0012815596704354,-0.0012815596704354,0.0012815596704354,-0.0012815596704354,0.0012815596704354,-0.0012318537665948,0.0012318537665949,-0.0012318537665949,0.0012318537665948,0.38728441747967,0.34600422993901,1270536,32768,0.005203736553678,0.0052037365536779,0.0052037365536779,37.73732428149,37.731315367919,0.00021709859425192,0.00021709859425192,0.00021709859425192,580179.97116547,0.01573387334703
11404800,0.99270923958401,0.014977567151182,0.0049925223837275,0.0049925223837275,0.0049925223837274,-0.001252365204453,0.001252365204453,2.4782331152089e-17,-1.5058363506743e-17,-8.6291481501532e-17,9.6144121686608e-17,-0.0012817491066404,0.0012817491066404,-0.0012817491066405,0.0012817491066404,-0.0012817491066404,0.0012817491066405,-0.0012817491066404,0.0012817491066405,-0.0012320722612241,0.0012320722612242,-0.0012320722612241,0.0012320722612242,1.0057045705334e-16,-8.1173990778537e-17,-1.1293772630057e-17,3.3734263559051e-17,-0.001252365204453,0.001252365204453,-0.0012817491066403,0.0012817491066404,-0.0012817491066403,0.0012817491066405,-0.0012817491066404,0.0012817491066404,-0.0012817491066404,0.0012817491066404,-0.0012320722612242,0.0012320722612241,-0.0012320722612241,0.0012320722612241,-0.001232072261224,0.0012320722612242,-0.0012320722612242,0.0012320722612241,-1.7705341466913e-17,2.3763979909079e-17,-0.001252365204453,0.001252365204453,1.9367055408575e-17,-1.8322969657619e-17,-0.0012817491066404,0.0012817491066404,-0.0012817491066404,0.0012817491066404,-0.0012817491066404,0.0012817491066404,-0.0012817491066404,0.0012817491066404,-0.0012320722612241,0.0012320722612241,-0.0012320722612242,0.0012320722612241,0.38881650482657,0.35610410304841,1270536,32768,0.0052045863747588,0.0052045863747588,0.0052045863747588,37.646722691764,37.640513408512,0.00021637378153411,0.00021637378153411,0.00021637378153411,575158.85348243,0.015736463238337
11491200,0.99312723686722,0.014981140095419,0.0049937133651396,0.0049937133651396,0.0049937133651396,-0.0012525382610763,0.0012525382610764,2.3980885047482e-17,-1.6065685674919e-17,-8.7784082962405e-17,9.5129446801876e-17,-0.0012819120203833,0.0012819120203833,-0.0012819120203834,0.0012819120203833,-0.0012819120203833,0.0012819120203834,-0.0012819120203833,0.0012819120203834,-0.0012322522500951,0.0012322522500952,-0.0012322522500951,0.0012322522500952,9.8982270277234e-17,-8.3144518815552e-17,-1.2558439877694e-17,3.2704883241208e-17,-0.0012525382610763,0.0012525382610764,-0.0012819120203832,0.0012819120203833,-0.0012819120203832,0.0012819120203833,-0.0012819120203833,0.0012819120203833,-0.0012819120203833,0.0012819120203833,-0.0012322522500952,0.0012322522500951,-0.0012322522500952,0.0012322522500951,-0.001232252250095,0.0012322522500952,-0.0012322522500952,0.0012322522500951,-2.0168501513182e-17,2.1484637776711e-17,-0.0012525382610763,0.0012525382610763,1.6455379652388e-17,-2.1028769350237e-17,-0.0012819120203833,0.0012819120203833,-0.0012819120203833,0.0012819120203833,-0.0012819120203833,0.0012819120203833,-0.0012819120203833,0.0012819120203833,-0.0012322522500951,0.0012322522500951,-0.0012322522500952,0.0012322522500951,0.39073372237706,0.3662039761578,1270536,32768,0.0052053036468574,0.0052053036468574,0.0052053036468574,37.555939419892,37.549711449105,0.00021564751535913,0.00021564751535913,0.00021564751535913,570680.06670796,0.015738649199701
11577600,0.99351948724977,0.014984512984997,0.0049948376616658,0.0049948376616657,0.0049948376616657,-0.0012526930858852,0.0012526930858852,2.3230907958767e-17,-1.6587728550397e-17,-8.7776730245849e-17,9.4702989241627e-17,-0.0012820578686837,0.0012820578686837,-0.0012820578686837,0.0012820578686836,-0.0012820578686837,0.0012820578686837,-0.0012820578686836,0.0012820578686837,-0.0012324127996672,0.0012324127996673,-0.0012324127996672,0.0012324127996672,9.6614695546194e-17,-8.5423860947921e-17,-1.4926014608735e-17,3.0087316147262e-17,-0.0012526930858852,0.0012526930858852,-0.0012820578686836,0.0012820578686837,-0.0012820578686836,0.0012820578686837,-0.0012820578686837,0.0012820578686836,-0.0012820578686837,0.0012820578686836,-0.0012324127996673,0.0012324127996672,-0.0012324127996672,0.0012324127996672,-0.0012324127996671,0.0012324127996673,-0.0012324127996673,0.0012324127996672,-2.2734599591235e-17,1.8602372886748e-17,-0.0012526930858852,0.0012526930858852,1.4367208150477e-17,-2.298459195414e-17,-0.0012820578686837,0.0012820578686836,-0.0012820578686836,0.0012820578686836,-0.0012820578686836,0.0012820578686837,-0.0012820578686836,0.0012820578686837,-0.0012324127996672,0.0012324127996672,-0.0012324127996673,0.0012324127996672,0.39304577768134,0.37630384926719,1270536,32768,0.0052059453470451,0.0052059453470451,0.0052059453470451,37.465137818177,37.458909489699,0.00021492110254541,0.00021492110254541,0.00021492110254541,566266.42165019,0.015740604868186
11664000,0.99388767059871,0.014987700719378,0.0049959002397929,0.0049959002397928,0.0049959002397928,-0.0012528319610624,0.0012528319610624,2.6304343479186e-17,-1.3256947950517e-17,-8.5063577836675e-17,9.7585254131589e-17,-0.0012821883561149,0.0012821883561148,-0.0012821883561149,0.0012821883561148,-0.0012821883561148,0.0012821883561149,-0.0012821883561148,0.0012821883561149,-0.0012325568905361,0.0012325568905362,-0.0012325568905361,0.0012325568905362,9.8291114920968e-17,-8.4034197518832e-17,-1.3521645746534e-17,3.1763735522036e-17,-0.0012528319610624,0.0012528319610624,-0.0012821883561148,0.0012821883561148,-0.0012821883561148,0.0012821883561149,-0.0012821883561148,0.0012821883561148,-0.0012821883561148,0.0012821883561148,-0.0012325568905362,0.0012325568905361,-0.0012325568905362,0.0012325568905361,-0.001232556890536,0.0012325568905362,-0.0012325568905362,0.0012325568905361,-1.6315678037824e-17,2.4955119991155e-17,-0.0012528319610624,0.0012528319610624,2.0352319427083e-17,-1.7293589339775e-17,-0.0012821883561148,0.0012821883561148,-0.0012821883561148,0.0012821883561148,-0.0012821883561148,0.0012821883561148,-0.0012821883561148,0.0012821883561148,-0.0012325568905361,0.0012325568905361,-0.0012325568905362,0.0012325568905361,0.39572992222902,0.38640372237658,1270536,32768,0.005206520935585,0.0052065209355849,0.0052065209355849,37.3743343369,37.368107530292,0.0002141946746952,0.0002141946746952,0.0002141946746952,561872.44452553,0.015742359072021
11750400,0.99423335213327,0.014990716695887,0.0049969055652958,0.0049969055652958,0.0049969055652958,-0.0012529561166176,0.0012529561166176,2.5477162866633e-17,-1.4271622835248e-17,-8.5865023941282e-17,9.7041153106443e-17,-0.0012823045471088,0.0012823045471088,-0.0012823045471089,0.0012823045471088,-0.0012823045471088,0.0012823045471089,-0.0012823045471088,0.0012823045471089,-0.001232685970555,0.0012326859705551,-0.0012326859705551,0.0012326859705551,9.9188146340803e-17,-8.3269514997005e-17,-1.210257145122e-17,3.3028402769673e-17,-0.0012529561166176,0.0012529561166176,-0.0012823045471087,0.0012823045471088,-0.0012823045471087,0.0012823045471088,-0.0012823045471088,0.0012823045471088,-0.0012823045471088,0.0012823045471088,-0.0012326859705551,0.001232685970555,-0.0012326859705551,0.001232685970555,-0.0012326859705549,0.0012326859705551,-0.0012326859705551,0.001232685970555,-1.8359733240399e-17,2.2793421323683e-17,-0.0012529561166176,0.0012529561166176,1.8367085956955e-17,-1.9072946746334e-17,-0.0012823045471088,0.0012823045471088,-0.0012823045471088,0.0012823045471088,-0.0012823045471088,0.0012823045471088,-0.0012823045471088,0.0012823045471088,-0.001232685970555,0.0012326859705551,-0.0012326859705551,0.0012326859705551,0.39875791962525,0.39650359548597,1270536,32768,0.0052070355113461,0.0052070355113461,0.005207035511346,37.283530662178,37.277305570885,0.00021346824529743,0.00021346824529743,0.00021346824529743,557490.72936886,0.015743927348058
11836800,0.99455799047364,0.014993583033911,0.0049978610113038,0.0049978610113038,0.0049978610113038,-0.001253067268396,0.001253067268396,2.4738214852753e-17,-1.4852487443174e-17,-8.6291481501532e-17,9.6629400979306e-17,-0.0012824078591528,0.0012824078591528,-0.0012824078591529,0.0012824078591528,-0.0012824078591528,0.0012824078591529,-0.0012824078591528,0.0012824078591529,-0.0012328021196338,0.0012328021196339,-0.0012328021196339,0.0012328021196339,9.6548521097189e-17,-8.6004725555847e-17,-1.5051010790187e-17,2.9440277090332e-17,-0.001253067268396,0.001253067268396,-0.0012824078591527,0.0012824078591528,-0.0012824078591527,0.0012824078591528,-0.0012824078591528,0.0012824078591528,-0.0012824078591528,0.0012824078591528,-0.0012328021196339,0.0012328021196338,-0.0012328021196339,0.0012328021196338,-0.0012328021196338,0.0012328021196339,-0.0012328021196339,0.0012328021196338,-2.1223616338972e-17,1.9969978166169e-17,-0.001253067268396,0.001253067268396,1.5470115633881e-17,-2.1425816044262e-17,-0.0012824078591528,0.0012824078591528,-0.0012824078591528,0.0012824078591528,-0.0012824078591528,0.0012824078591528,-0.0012824078591528,0.0012824078591528,-0.0012328021196338,0.0012328021196339,-0.0012328021196339,0.0012328021196339,0.40351767013227,0.41440432049797,1270536,32768,0.0052074961877496,0.0052074961877496,0.0052074961877495,37.192726967634,37.186503611479,0.00021274181574107,0.00021274181574107,0.00021274181574107,553112.55256359,0.015745331367776
11923200,0.9948629451446,0.014996336727187,0.0049987789090624,0.0049987789090624,0.0049987789090624,-0.0012531925871411,0.0012531925871411,2.7646214250661e-17,-1.2043749718772e-17,-8.3423922044681e-17,9.9688131066613e-17,-0.0012825166974306,0.0012825166974306,-0.0012825166974306,0.0012825166974305,-0.0012825166974306,0.0012825166974306,-0.0012825166974306,0.0012825166974306,-0.0012329403810004,0.0012329403810005,-0.0012329403810004,0.0012329403810004,1.0216599654599e-16,-8.0784296801068e-17,-9.4629462076066e-18,3.508716340536e-17,-0.0012531925871411,0.0012531925871411,-0.0012825166974305,0.0012825166974306,-0.0012825166974305,0.0012825166974306,-0.0012825166974306,0.0012825166974306,-0.0012825166974306,0.0012825166974306,-0.0012329403810005,0.0012329403810004,-0.0012329403810005,0.0012329403810004,-0.0012329403810003,0.0012329403810005,-0.0012329403810005,0.0012329403810004,-2.2686806933621e-17,1.8455318555628e-17,-0.0012531925871411,0.0012531925871411,1.367605279421e-17,-2.3014002820364e-17,-0.0012825166974306,0.0012825166974306,-0.0012825166974306,0.0012825166974305,-0.0012825166974305,0.0012825166974306,-0.0012825166974306,0.0012825166974306,-0.0012329403810004,0.0012329403810004,-0.0012329403810005,0.0012329403810004,0.41266179559599,0.45157405799106,1270536,32768,0.0052080155872331,0.005208015587233,0.005208015587233,37.101923271167,37.095701652072,0.00021201538616933,0.00021201538616933,0.00021201538616933,547740.84757451,0.015746914356086
12009600,0.99514982303255,0.014998998432803,0.0049996661442675,0.0049996661442675,0.0049996661442675,-0.0012534150242895,0.0012534150242895,2.4219848335553e-17,-1.532306130276e-17,-8.7291450953152e-17,9.573236955947e-17,-0.0012827007877691,0.0012827007877691,-0.0012827007877692,0.0012827007877691,-0.0012827007877691,0.0012827007877691,-0.0012827007877691,0.0012827007877691,-0.0012331940132054,0.0012331940132056,-0.0012331940132055,0.0012331940132055,9.9063150159351e-17,-8.3284220430117e-17,-1.2109924167776e-17,3.2410774578967e-17,-0.0012534150242895,0.0012534150242895,-0.001282700787769,0.0012827007877691,-0.001282700787769,0.0012827007877691,-0.0012827007877691,0.0012827007877691,-0.0012827007877691,0.0012827007877691,-0.0012331940132055,0.0012331940132055,-0.0012331940132055,0.0012331940132055,-0.0012331940132054,0.0012331940132056,-0.0012331940132056,0.0012331940132055,-1.9863363776107e-17,2.1499343209823e-17,-0.0012534150242895,0.0012534150242895,1.6573023117285e-17,-2.0161148796626e-17,-0.0012827007877691,0.0012827007877691,-0.0012827007877691,0.0012827007877691,-0.0012827007877691,0.0012827007877691,-0.0012827007877691,0.0012827007877691,-0.0012331940132055,0.0012331940132055,-0.0012331940132055,0.0012331940132055,0.42398506089759,0.48874379548415,1270536,32768,0.0052089375364373,0.0052089375364373,0.0052089375364373,37.033449284937,37.028705240894,0.00021146759427949,0.00021146759427949,0.00021146759427949,539783.98727221,0.015749724113701
12096000,0.99542001676058,0.015001582405986,0.0050005274686621,0.005000527468662,0.005000527468662,-0.0012536768915189,0.0012536768915189,2.6076409265949e-17,-1.3580467478982e-17,-8.4982697954559e-17,9.7555843265365e-17,-0.0012829216352258,0.0012829216352258,-0.0012829216352259,0.0012829216352258,-0.0012829216352258,0.0012829216352259,-0.0012829216352258,0.0012829216352259,-0.0012334862118872,0.0012334862118873,-0.0012334862118872,0.0012334862118872,9.7541137832253e-17,-8.4563593110866e-17,-1.3617231061762e-17,3.1278456229339e-17,-0.0012536768915189,0.0012536768915189,-0.0012829216352257,0.0012829216352258,-0.0012829216352257,0.0012829216352259,-0.0012829216352258,0.0012829216352258,-0.0012829216352258,0.0012829216352258,-0.0012334862118873,0.0012334862118872,-0.0012334862118872,0.0012334862118872,-0.0012334862118871,0.0012334862118873,-0.0012334862118873,0.0012334862118872,-1.7620785226519e-17,2.3602220144846e-17,-0.0012536768915189,0.0012536768915189,1.8793543517205e-17,-1.8455318555628e-17,-0.0012829216352258,0.0012829216352258,-0.0012829216352258,0.0012829216352258,-0.0012829216352258,0.0012829216352258,-0.0012829216352258,0.0012829216352258,-0.0012334862118872,0.0012334862118872,-0.0012334862118872,0.0012334862118872,0.43697944550551,0.52591353297724,1270536,32768,0.0052100229081357,0.0052100229081356,0.0052100229081356,36.983796602161,36.980347930741,0.00021107037281729,0.00021107037281729,0.00021107037281729,531253.46489722,0.01575303189861
12182400,0.99567454647306,0.015004096910245,0.0050013656367485,0.0050013656367484,0.0050013656367484,-0.0012539367031322,0.0012539367031323,2.6929324386449e-17,-1.2962839288275e-17,-8.4218015432732e-17,9.8173471456071e-17,-0.0012831416262027,0.0012831416262027,-0.0012831416262027,0.0012831416262026,-0.0012831416262027,0.0012831416262027,-0.0012831416262027,0.0012831416262027,-0.0012337736789679,0.001233773678968,-0.001233773678968,0.001233773678968,9.7460257950137e-17,-8.4276837165181e-17,-1.367605279421e-17,3.1234339930002e-17,-0.0012539367031322,0.0012539367031323,-0.0012831416262026,0.0012831416262027,-0.0012831416262026,0.0012831416262027,-0.0012831416262027,0.0012831416262027,-0.0012831416262027,0.0012831416262026,-0.001233773678968,0.0012337736789679,-0.001233773678968,0.0012337736789679,-0.0012337736789678,0.001233773678968,-0.001233773678968,0.0012337736789679,-1.8278853358283e-17,2.3190468017709e-17,-0.0012539367031322,0.0012539367031322,1.8146504460274e-17,-1.9175884778118e-17,-0.0012831416262027,0.0012831416262027,-0.0012831416262026,0.0012831416262026,-0.0012831416262026,0.0012831416262027,-0.0012831416262026,0.0012831416262027,-0.0012337736789679,0.001233773678968,-0.001233773678968,0.0012337736789679,0.45135804830608,0.56308327047033,1270536,32768,0.0052110997476724,0.0052110997476723,0.0052110997476723,36.935316035159,36.931990620589,0.00021068252828127,0.00021068252828127,0.00021068252828127,522486.86534792,0.015756313710094
12268800,0.99591435300152,0.015006542441589,0.0050021808138629,0.0050021808138629,0.0050021808138629,-0.0012541888609452,0.0012541888609452,2.2841213981298e-17,-1.7117124142431e-17,-8.8247304105435e-17,9.3967717586024e-17,-0.0012833562108574,0.0012833562108573,-0.0012833562108574,0.0012833562108573,-0.0012833562108573,0.0012833562108574,-0.0012833562108573,0.0012833562108574,-0.0012340508172827,0.0012340508172829,-0.0012340508172828,0.0012340508172828,9.8754336063998e-17,-8.305628621688e-17,-1.1771699206199e-17,3.2807821272992e-17,-0.0012541888609452,0.0012541888609452,-0.0012833562108573,0.0012833562108573,-0.0012833562108572,0.0012833562108574,-0.0012833562108573,0.0012833562108573,-0.0012833562108573,0.0012833562108573,-0.0012340508172828,0.0012340508172828,-0.0012340508172828,0.0012340508172828,-0.0012340508172827,0.0012340508172829,-0.0012340508172829,0.0012340508172828,-1.7547258060958e-17,2.3808096208415e-17,-0.0012541888609452,0.0012541888609452,1.8837659816541e-17,-1.789651209737e-17,-0.0012833562108573,0.0012833562108573,-0.0012833562108573,0.0012833562108573,-0.0012833562108573,0.0012833562108573,-0.0012833562108573,0.0012833562108573,-0.0012340508172827,0.0012340508172828,-0.0012340508172828,0.0012340508172828,0.46588441786469,0.59448294252411,1270536,32768,0.0052121448553742,0.0052121448553741,0.0052121448553741,36.886945848463,36.883633310436,0.00021029556678771,0.00021029556678771,0.00021029556678771,513618.75720942,0.015759498837118
12355200,0.9961403177709,0.015008856454857,0.0050029521516189,0.0050029521516189,0.0050029521516189,-0.0012544113304402,0.0012544113304402,2.4550720580574e-17,-1.5234828704088e-17,-8.6063547288295e-17,9.5879423890591e-17,-0.0012835505040567,0.0012835505040567,-0.0012835505040567,0.0012835505040566,-0.0012835505040567,0.0012835505040567,-0.0012835505040567,0.0012835505040567,-0.001234289466575,0.0012342894665751,-0.001234289466575,0.0012342894665751,9.8621987165989e-17,-8.2997464484432e-17,-1.2183451333337e-17,3.2322541980294e-17,-0.0012544113304402,0.0012544113304402,-0.0012835505040566,0.0012835505040567,-0.0012835505040566,0.0012835505040567,-0.0012835505040567,0.0012835505040567,-0.0012835505040567,0.0012835505040566,-0.0012342894665751,0.001234289466575,-0.0012342894665751,0.001234289466575,-0.0012342894665749,0.0012342894665751,-0.0012342894665751,0.001234289466575,-1.7874453947701e-17,2.348457667995e-17,-0.0012544113304402,0.0012544113304402,1.8396496823179e-17,-1.8558256587412e-17,-0.0012835505040567,0.0012835505040567,-0.0012835505040566,0.0012835505040566,-0.0012835505040566,0.0012835505040567,-0.0012835505040566,0.0012835505040567,-0.001234289466575,0.0012342894665751,-0.0012342894665751,0.001234289466575,0.46778080709017,0.5528617812204,1270536,32768,0.0052130668973749,0.0052130668973749,0.0052130668973749,36.838586777537,36.835276000283,0.00020990869422029,0.00020990869422029,0.00020990869422029,505376.22486011,0.015762308949111
12441600,0.99635326783316,0.015010918722408,0.0050036395741362,0.0050036395741362,0.0050036395741361,-0.0012544154288463,0.0012544154288464,2.4510280639516e-17,-1.5499526500105e-17,-8.642383039954e-17,9.5526493495902e-17,-0.0012835994507547,0.0012835994507547,-0.0012835994507548,0.0012835994507547,-0.0012835994507547,0.0012835994507548,-0.0012835994507547,0.0012835994507548,-0.0012342450613211,0.0012342450613212,-0.0012342450613211,0.0012342450613211,9.676910259387e-17,-8.4842996339995e-17,-1.4345150000809e-17,3.04990682744e-17,-0.0012544154288463,0.0012544154288463,-0.0012835994507547,0.0012835994507547,-0.0012835994507546,0.0012835994507548,-0.0012835994507547,0.0012835994507547,-0.0012835994507547,0.0012835994507547,-0.0012342450613212,0.0012342450613211,-0.0012342450613211,0.0012342450613211,-0.001234245061321,0.0012342450613212,-0.0012342450613212,0.0012342450613211,-2.0164825154904e-17,2.141111061115e-17,-0.0012544154288463,0.0012544154288463,1.6764193747741e-17,-2.0175854229738e-17,-0.0012835994507547,0.0012835994507547,-0.0012835994507547,0.0012835994507547,-0.0012835994507547,0.0012835994507547,-0.0012835994507547,0.0012835994507547,-0.0012342450613211,0.0012342450613211,-0.0012342450613212,0.0012342450613211,0.44230413562356,0.38766121643206,1270536,32768,0.0052130838011983,0.0052130838011982,0.0052130838011982,36.790228844422,36.78691869013,0.00020952183075537,0.00020952183075537,0.00020952183075537,504789.40565002,0.015762360531861
12528000,0.99655397939277,0.0150128704935,0.0050042901645,0.0050042901645,0.0050042901645,-0.0012540038409407,0.0012540038409407,2.2186822207811e-17,-1.7852395798033e-17,-8.8431122019336e-17,9.2541290574155e-17,-0.0012833709460979,0.0012833709460978,-0.0012833709460979,0.0012833709460978,-0.0012833709460978,0.0012833709460979,-0.0012833709460978,0.0012833709460979,-0.0012336723579993,0.0012336723579994,-0.0012336723579994,0.0012336723579994,9.5555904362126e-17,-8.5070930553231e-17,-1.4874545592842e-17,3.0249075911495e-17,-0.0012540038409407,0.0012540038409407,-0.0012833709460978,0.0012833709460978,-0.0012833709460978,0.0012833709460979,-0.0012833709460978,0.0012833709460978,-0.0012833709460978,0.0012833709460978,-0.0012336723579994,0.0012336723579993,-0.0012336723579994,0.0012336723579993,-0.0012336723579993,0.0012336723579994,-0.0012336723579994,0.0012336723579993,-1.7297265698053e-17,2.4043383138208e-17,-0.0012540038409407,0.0012540038409407,1.9646458637704e-17,-1.7705341466913e-17,-0.0012833709460978,0.0012833709460978,-0.0012833709460978,0.0012833709460978,-0.0012833709460978,0.0012833709460978,-0.0012833709460978,0.0012833709460978,-0.0012336723579993,0.0012336723579994,-0.0012336723579994,0.0012336723579994,0.44413242668505,0.44416568327059,1270536,32768,0.0052113777721524,0.0052113777721523,0.0052113777721523,36.741871028294,36.738561379977,0.00020913496822635,0.00020913496822635,0.00020913496822635,520091.97836775,0.01575716100251
12614400,0.99674318100729,0.015014628680254,0.0050048762267512,0.0050048762267512,0.0050048762267512,-0.0012541198264951,0.0012541198264951,2.4888945542151e-17,-1.5117185239191e-17,-8.5901787524062e-17,9.5452966330341e-17,-0.0012834754723884,0.0012834754723883,-0.0012834754723884,0.0012834754723883,-0.0012834754723883,0.0012834754723884,-0.0012834754723883,0.0012834754723884,-0.0012338251369846,0.0012338251369847,-0.0012338251369846,0.0012338251369846,9.61955907025e-17,-8.4842996339995e-17,-1.4801018427282e-17,3.0440246541951e-17,-0.0012541198264951,0.0012541198264951,-0.0012834754723883,0.0012834754723883,-0.0012834754723882,0.0012834754723884,-0.0012834754723883,0.0012834754723883,-0.0012834754723883,0.0012834754723883,-0.0012338251369847,0.0012338251369846,-0.0012338251369847,0.0012338251369846,-0.0012338251369845,0.0012338251369847,-0.0012338251369847,0.0012338251369846,-2.1495666851545e-17,1.9940567299945e-17,-0.0012541198264951,0.0012541198264951,1.5558348232553e-17,-2.1955211636296e-17,-0.0012834754723883,0.0012834754723883,-0.0012834754723883,0.0012834754723883,-0.0012834754723883,0.0012834754723883,-0.0012834754723883,0.0012834754723883,-0.0012338251369846,0.0012338251369846,-0.0012338251369847,0.0012338251369846,0.42447728674108,0.34134742341345,1270536,32768,0.0052118585981071,0.0052118585981071,0.005211858598107,36.693513224225,36.690204069824,0.0002087481057938,0.0002087481057938,0.0002087481057938,515510.58514881,0.015758626280318
12700800,0.99692155662208,0.015016270666703,0.0050054235555678,0.0050054235555677,0.0050054235555677,-0.0012538277182673,0.0012538277182673,2.7057996926179e-17,-1.3117246335952e-17,-8.3879790471155e-17,9.830582035408e-17,-0.0012833031653281,0.0012833031653281,-0.0012833031653282,0.0012833031653281,-0.0012833031653281,0.0012833031653282,-0.0012833031653281,0.0012833031653282,-0.0012334362859395,0.0012334362859397,-0.0012334362859396,0.0012334362859396,9.7063211256111e-17,-8.4423891496301e-17,-1.4220153819356e-17,3.1175518197554e-17,-0.0012538277182673,0.0012538277182673,-0.001283303165328,0.0012833031653281,-0.001283303165328,0.0012833031653281,-0.0012833031653281,0.0012833031653281,-0.0012833031653281,0.0012833031653281,-0.0012334362859396,0.0012334362859396,-0.0012334362859396,0.0012334362859396,-0.0012334362859395,0.0012334362859397,-0.0012334362859397,0.0012334362859396,-2.0069239839675e-17,2.1646397540943e-17,-0.0012538277182673,0.0012538277182673,1.6940658945086e-17,-2.0734660687996e-17,-0.0012833031653281,0.0012833031653281,-0.0012833031653281,0.0012833031653281,-0.0012833031653281,0.0012833031653281,-0.0012833031653281,0.0012833031653281,-0.0012334362859396,0.0012334362859396,-0.0012334362859396,0.0012334362859396,0.42046828823614,0.36632788116199,1270536,32768,0.0052106478541885,0.0052106478541884,0.0052106478541884,36.645155421416,36.641846759671,0.00020836124337132,0.00020836124337132,0.00020836124337132,526246.33393741,0.015754936203614
12787200,0.99708884796018,0.015017800320827,0.0050059334402756,0.0050059334402755,0.0050059334402755,-0.0012536656319729,0.0012536656319729,2.5991853025555e-17,-1.4227506535912e-17,-8.5041519687007e-17,9.6129416253496e-17,-0.0012831425549901,0.0012831425549901,-0.0012831425549902,0.0012831425549901,-0.0012831425549901,0.0012831425549901,-0.0012831425549901,0.0012831425549901,-0.0012332949258445,0.0012332949258447,-0.0012332949258446,0.0012332949258446,9.4842690856191e-17,-8.5548857129373e-17,-1.5771577012678e-17,2.9852029217469e-17,-0.0012536656319729,0.0012536656319729,-0.00128314255499,0.0012831425549901,-0.00128314255499,0.0012831425549901,-0.0012831425549901,0.0012831425549901,-0.0012831425549901,0.0012831425549901,-0.0012332949258446,0.0012332949258446,-0.0012332949258446,0.0012332949258446,-0.0012332949258445,0.0012332949258447,-0.0012332949258447,0.0012332949258446,-1.8161209893386e-17,2.3455165813726e-17,-0.0012536656319729,0.0012536656319729,1.8661194619196e-17,-1.9072946746334e-17,-0.0012831425549901,0.0012831425549901,-0.0012831425549901,0.0012831425549901,-0.00128314255499,0.0012831425549901,-0.0012831425549901,0.0012831425549901,-0.0012332949258446,0.0012332949258446,-0.0012332949258446,0.0012332949258446,0.41770830080179,0.37449136351002,1270536,32768,0.0052099760773855,0.0052099760773854,0.0052099760773854,36.495996582481,36.486035919083,0.00020716797265985,0.00020716797265985,0.00020716797265985,524910.80383484,0.015752889061157
12873600,0.99724515729916,0.015019224963399,0.0050064083211332,0.0050064083211331,0.0050064083211331,-0.0012533438537842,0.0012533438537842,2.398456140576e-17,-1.6278914455044e-17,-8.6085605437963e-17,9.508533050254e-17,-0.0012828178958617,0.0012828178958616,-0.0012828178958617,0.0012828178958616,-0.0012828178958616,0.0012828178958617,-0.0012828178958616,0.0012828178958617,-0.0012329858497627,0.0012329858497628,-0.0012329858497628,0.0012329858497628,9.5063272352872e-17,-8.5541504412817e-17,-1.5205417837864e-17,3.0190254179047e-17,-0.0012533438537842,0.0012533438537842,-0.0012828178958616,0.0012828178958616,-0.0012828178958616,0.0012828178958617,-0.0012828178958616,0.0012828178958616,-0.0012828178958617,0.0012828178958616,-0.0012329858497628,0.0012329858497627,-0.0012329858497628,0.0012329858497627,-0.0012329858497626,0.0012329858497628,-0.0012329858497628,0.0012329858497627,-1.639655791994e-17,2.5455104716965e-17,-0.0012533438537842,0.0012533438537842,2.0808187853556e-17,-1.7028891543758e-17,-0.0012828178958616,0.0012828178958616,-0.0012828178958616,0.0012828178958616,-0.0012828178958616,0.0012828178958616,-0.0012828178958616,0.0012828178958616,-0.0012329858497627,0.0012329858497628,-0.0012329858497628,0.0012329858497627,0.4163616015265,0.38265484585804,1270536,32768,0.0052086423374446,0.0052086423374446,0.0052086423374446,36.268552585907,36.25320763594,0.00020534842068726,0.00020534842068726,0.00020534842068726,523592.24578731,0.015748824795274
12960000,0.99739126277221,0.015020555536586,0.0050068518455288,0.0050068518455288,0.0050068518455288,-0.0012530192843974,0.0012530192843974,2.2098589609139e-17,-1.8330322374175e-17,-8.803407532531e-17,9.3070686166189e-17,-0.0012824830184494,0.0012824830184494,-0.0012824830184494,0.0012824830184493,-0.0012824830184494,0.0012824830184494,-0.0012824830184494,0.0012824830184494,-0.0012326746769617,0.0012326746769618,-0.0012326746769617,0.0012326746769617,9.7276440036236e-17,-8.3313631296341e-17,-1.3631936494874e-17,3.179314638826e-17,-0.0012530192843973,0.0012530192843974,-0.0012824830184493,0.0012824830184494,-0.0012824830184493,0.0012824830184494,-0.0012824830184494,0.0012824830184494,-0.0012824830184494,0.0012824830184493,-0.0012326746769618,0.0012326746769617,-0.0012326746769617,0.0012326746769617,-0.0012326746769616,0.0012326746769618,-0.0012326746769618,0.0012326746769617,-1.9326615467517e-17,2.2440490928994e-17,-0.0012530192843973,0.0012530192843974,1.7808279498697e-17,-1.9705280370152e-17,-0.0012824830184494,0.0012824830184494,-0.0012824830184494,0.0012824830184493,-0.0012824830184493,0.0012824830184494,-0.0012824830184493,0.0012824830184494,-0.0012326746769617,0.0012326746769617,-0.0012326746769618,0.0012326746769617,0.41602604393231,0.39081832820607,1270536,32768,0.0052072970138383,0.0052072970138383,0.0052072970138383,36.036223816272,36.020379352797,0.00020348979053017,0.00020348979053017,0.00020348979053017,521700.94457705,0.015744725264378
13046400,0.99752791744838,0.015021801354905,0.0050072671183017,0.0050072671183017,0.0050072671183016,-0.0012526951534188,0.0012526951534188,2.6609481216261e-17,-1.3418707714749e-17,-8.4747411024766e-17,9.7335261768684e-17,-0.0012821460393922,0.0012821460393921,-0.0012821460393922,0.0012821460393921,-0.0012821460393921,0.0012821460393922,-0.0012821460393921,0.0012821460393922,-0.0012323627871935,0.0012323627871937,-0.0012323627871936,0.0012323627871936,9.2761872070836e-17,-8.8592881783568e-17,-1.8992066864218e-17,2.6925648028171e-17,-0.0012526951534188,0.0012526951534188,-0.0012821460393921,0.0012821460393921,-0.0012821460393921,0.0012821460393922,-0.0012821460393921,0.0012821460393921,-0.0012821460393921,0.0012821460393921,-0.0012323627871936,0.0012323627871936,-0.0012323627871936,0.0012323627871936,-0.0012323627871935,0.0012323627871937,-0.0012323627871937,0.0012323627871936,-1.848840578013e-17,2.3131646285261e-17,-0.0012526951534188,0.0012526951534188,1.8970008714549e-17,-1.9293528243015e-17,-0.0012821460393921,0.0012821460393921,-0.0012821460393921,0.0012821460393921,-0.0012821460393921,0.0012821460393921,-0.0012821460393921,0.0012821460393921,-0.0012323627871936,0.0012323627871936,-0.0012323627871936,0.0012323627871936,0.41646052644367,0.39898181055409,1270536,32768,0.0052059534930266,0.0052059534930265,0.0052059534930265,35.80343554932,35.787551069655,0.00020162748439456,0.00020162748439456,0.00020162748439456,519509.65861913,0.015740631273396
13132800,0.99765581619046,0.015022970302363,0.0050076567674545,0.0050076567674545,0.0050076567674545,-0.0012523695933411,0.0012523695933411,2.5646275347422e-17,-1.4720138545166e-17,-8.5445919097589e-17,9.6614695546194e-17,-0.0012818068956445,0.0012818068956444,-0.0012818068956445,0.0012818068956444,-0.0012818068956444,0.0012818068956445,-0.0012818068956444,0.0012818068956445,-0.0012320481285422,0.0012320481285423,-0.0012320481285423,0.0012320481285423,9.5291206566109e-17,-8.6460593982321e-17,-1.6962717094754e-17,2.9249106459875e-17,-0.0012523695933411,0.0012523695933411,-0.0012818068956444,0.0012818068956444,-0.0012818068956444,0.0012818068956445,-0.0012818068956444,0.0012818068956444,-0.0012818068956445,0.0012818068956444,-0.0012320481285423,0.0012320481285422,-0.0012320481285422,0.0012320481285422,-0.0012320481285422,0.0012320481285423,-0.0012320481285423,0.0012320481285422,-2.1793451872064e-17,2.0043505331729e-17,-0.0012523695933411,0.0012523695933411,1.582304602857e-17,-2.2690483291899e-17,-0.0012818068956444,0.0012818068956444,-0.0012818068956444,0.0012818068956444,-0.0012818068956444,0.0012818068956444,-0.0012818068956444,0.0012818068956445,-0.0012320481285422,0.0012320481285422,-0.0012320481285423,0.0012320481285422,0.41750880666346,0.40714529290212,1270536,32768,0.0052046040370626,0.0052046040370626,0.0052046040370626,35.570601108496,35.554722786512,0.00019976480886797,0.00019976480886797,0.00019976480886797,517132.01570556,0.015736519236845
13219200,0.99777559773555,0.015024069158079,0.0050080230526929,0.0050080230526928,0.0050080230526928,-0.0012520412932877,0.0012520412932877,2.4223524693831e-17,-1.6168623706703e-17,-8.7085574889583e-17,9.5673547827022e-17,-0.0012814651487423,0.0012814651487422,-0.0012814651487423,0.0012814651487422,-0.0012814651487422,0.0012814651487423,-0.0012814651487422,0.0012814651487423,-0.0012317294934104,0.0012317294934105,-0.0012317294934104,0.0012317294934105,9.7886715510386e-17,-8.4159193700284e-17,-1.482307657695e-17,3.1807851821372e-17,-0.0012520412932877,0.0012520412932877,-0.0012814651487422,0.0012814651487422,-0.0012814651487421,0.0012814651487423,-0.0012814651487422,0.0012814651487422,-0.0012814651487422,0.0012814651487422,-0.0012317294934105,0.0012317294934104,-0.0012317294934105,0.0012317294934104,-0.0012317294934103,0.0012317294934105,-0.0012317294934105,0.0012317294934104,-1.9267793735069e-17,2.2675777858787e-17,-0.0012520412932877,0.0012520412932877,1.8955303281437e-17,-1.9881745567497e-17,-0.0012814651487422,0.0012814651487422,-0.0012814651487422,0.0012814651487422,-0.0012814651487422,0.0012814651487422,-0.0012814651487422,0.0012814651487422,-0.0012317294934104,0.0012317294934104,-0.0012317294934105,0.0012317294934104,0.41906317161689,0.41530877525015,1270536,32768,0.0052032432147189,0.0052032432147189,0.0052032432147189,35.337761956345,35.32189450337,0.00019790209565076,0.00019790209565076,0.00019790209565076,514629.19515369,0.015732372598887
13305600,0.99788784934744,0.015025097756141,0.0050083659187136,0.0050083659187136,0.0050083659187136,-0.001251709041062,0.001251709041062,2.7822679448006e-17,-1.2359916530681e-17,-8.3718030706922e-17,9.9041092009683e-17,-0.0012811201831031,0.0012811201831031,-0.0012811201831032,0.0012811201831031,-0.0012811201831031,0.0012811201831032,-0.0012811201831031,0.0012811201831032,-0.0012314056503045,0.0012314056503047,-0.0012314056503046,0.0012314056503046,9.6379408616401e-17,-8.5865023941282e-17,-1.6492143235168e-17,3.0190254179047e-17,-0.001251709041062,0.001251709041062,-0.001281120183103,0.0012811201831031,-0.001281120183103,0.0012811201831031,-0.0012811201831031,0.0012811201831031,-0.0012811201831031,0.0012811201831031,-0.0012314056503046,0.0012314056503046,-0.0012314056503046,0.0012314056503046,-0.0012314056503045,0.0012314056503047,-0.0012314056503047,0.0012314056503046,-1.9569255113866e-17,2.233755289721e-17,-0.001251709041062,0.001251709041062,1.8190620759611e-17,-2.0925831318453e-17,-0.0012811201831031,0.0012811201831031,-0.0012811201831031,0.0012811201831031,-0.0012811201831031,0.0012811201831031,-0.0012811201831031,0.0012811201831031,-0.0012314056503046,0.0012314056503046,-0.0012314056503046,0.0012314056503046,0.41857179953886,0.40983348306016,1270536,32768,0.0052018660026166,0.0052018660026165,0.0052018660026165,35.104922323465,35.089066220227,0.00019603937858772,0.00019603937858772,0.00019603937858772,512044.54374669,0.0157281760508
13392000,0.9979931112903,0.015026052972769,0.0050086843242563,0.0050086843242563,0.0050086843242562,-0.0012513311530716,0.0012513311530716,2.8491776654604e-17,-1.1676113890971e-17,-8.2850410153311e-17,9.9629309334165e-17,-0.0012807445403459,0.0012807445403459,-0.0012807445403459,0.0012807445403458,-0.0012807445403459,0.0012807445403459,-0.0012807445403459,0.0012807445403459,-0.0012310226849739,0.001231022684974,-0.0012310226849739,0.0012310226849739,9.6276470584616e-17,-8.5585620712153e-17,-1.5830398745126e-17,3.1234339930002e-17,-0.0012513311530716,0.0012513311530716,-0.0012807445403458,0.0012807445403459,-0.0012807445403458,0.0012807445403459,-0.0012807445403459,0.0012807445403459,-0.0012807445403459,0.0012807445403458,-0.0012310226849739,0.0012310226849739,-0.0012310226849739,0.0012310226849739,-0.0012310226849738,0.001231022684974,-0.001231022684974,0.0012310226849739,-1.9422200782745e-17,2.2366963763434e-17,-0.0012513311530716,0.0012513311530716,1.7881806664257e-17,-2.1602281241607e-17,-0.0012807445403459,0.0012807445403459,-0.0012807445403459,0.0012807445403458,-0.0012807445403458,0.0012807445403459,-0.0012807445403459,0.0012807445403459,-0.0012310226849739,0.0012310226849739,-0.0012310226849739,0.0012310226849739,0.41450670286381,0.38837101080074,1270536,32768,0.0052002996255352,0.0052002996255351,0.0052002996255351,34.872082643312,34.856237937084,0.00019417666114649,0.00019417666114649,0.00019417666114649,510982.3646984,0.015723403038421
13478400,0.99809188090805,0.015026936916301,0.0050089789721002,0.0050089789721002,0.0050089789721001,-0.0012508914124173,0.0012508914124173,2.5385253909683e-17,-1.4587789647157e-17,-8.5673853310826e-17,9.6938215074659e-17,-0.0012803268989989,0.0012803268989989,-0.001280326898999,0.0012803268989989,-0.0012803268989989,0.001280326898999,-0.0012803268989989,0.001280326898999,-0.0012305621759932,0.0012305621759934,-0.0012305621759933,0.0012305621759933,9.3585376325111e-17,-8.8519354618008e-17,-1.8675900052308e-17,2.8322664173816e-17,-0.0012508914124173,0.0012508914124173,-0.0012803268989989,0.0012803268989989,-0.0012803268989988,0.001280326898999,-0.0012803268989989,0.0012803268989989,-0.0012803268989989,0.0012803268989989,-0.0012305621759933,0.0012305621759933,-0.0012305621759933,0.0012305621759933,-0.0012305621759932,0.0012305621759934,-0.0012305621759934,0.0012305621759933,-2.2047120593247e-17,1.954352060592e-17,-0.0012508914124173,0.0012508914124173,1.5867162327906e-17,-2.3396344081278e-17,-0.0012803268989989,0.0012803268989989,-0.0012803268989989,0.0012803268989989,-0.0012803268989989,0.0012803268989989,-0.0012803268989989,0.0012803268989989,-0.0012305621759933,0.0012305621759933,-0.0012305621759933,0.0012305621759933,0.40878378333568,0.36690853854131,1270536,32768,0.0051984768747361,0.0051984768747361,0.0051984768747361,34.639242960329,34.623409653942,0.00019231394368263,0.00019231394368263,0.00019231394368263,512152.63035301,0.015717848725307
13564800,0.99818484967585,0.015027758915924,0.0050092529719749,0.0050092529719748,0.0050092529719748,-0.001250521281958,0.001250521281958,2.8285900591036e-17,-1.1668761174415e-17,-8.1681328220903e-17,9.9261673506363e-17,-0.001279981939238,0.001279981939238,-0.001279981939238,0.0012799819392379,-0.001279981939238,0.001279981939238,-0.001279981939238,0.001279981939238,-0.0012301718098498,0.0012301718098499,-0.0012301718098498,0.0012301718098498,9.4982392470756e-17,-8.5431213664477e-17,-1.6653902999401e-17,3.0866704102201e-17,-0.0012505212819579,0.001250521281958,-0.0012799819392379,0.001279981939238,-0.0012799819392379,0.001279981939238,-0.001279981939238,0.001279981939238,-0.001279981939238,0.0012799819392379,-0.0012301718098499,0.0012301718098498,-0.0012301718098498,0.0012301718098498,-0.0012301718098497,0.0012301718098499,-0.0012301718098499,0.0012301718098498,-1.970895672843e-17,2.1866979037624e-17,-0.0012505212819579,0.0012505212819579,1.8675900052308e-17,-2.1322878012478e-17,-0.001279981939238,0.001279981939238,-0.001279981939238,0.0012799819392379,-0.0012799819392379,0.001279981939238,-0.0012799819392379,0.001279981939238,-0.0012301718098498,0.0012301718098498,-0.0012301718098499,0.0012301718098498,0.40386344252009,0.35653166287173,1270536,32768,0.0051969426806049,0.0051969426806048,0.0051969426806048,34.452681061769,34.439893091613,0.00019082144849415,0.00019082144849415,0.00019082144849415,514005.56062815,0.015713173642019
13651200,0.99827255946853,0.01502852981325,0.0050095099377501,0.00500950993775,0.00500950993775,-0.0012502376398807,0.0012502376398807,2.5767595170596e-17,-1.4190742953132e-17,-8.4842996339995e-17,9.615882711972e-17,-0.0012797129140745,0.0012797129140744,-0.0012797129140745,0.0012797129140744,-0.0012797129140744,0.0012797129140745,-0.0012797129140744,0.0012797129140745,-0.0012298795005603,0.0012298795005605,-0.0012298795005604,0.0012298795005604,9.5041214203204e-17,-8.5306217483024e-17,-1.6683313865625e-17,3.0749060637305e-17,-0.0012502376398807,0.0012502376398807,-0.0012797129140744,0.0012797129140744,-0.0012797129140744,0.0012797129140745,-0.0012797129140744,0.0012797129140744,-0.0012797129140744,0.0012797129140744,-0.0012298795005604,0.0012298795005604,-0.0012298795005604,0.0012298795005604,-0.0012298795005603,0.0012298795005605,-0.0012298795005605,0.0012298795005604,-2.3183115301153e-17,1.8440613122516e-17,-0.0012502376398807,0.0012502376398807,1.517600697164e-17,-2.4543367864018e-17,-0.0012797129140744,0.0012797129140744,-0.0012797129140744,0.0012797129140744,-0.0012797129140744,0.0012797129140744,-0.0012797129140744,0.0012797129140744,-0.0012298795005604,0.0012298795005604,-0.0012298795005604,0.0012298795005604,0.4014786466609,0.36076519790321,1270536,32768,0.005195766993368,0.005195766993368,0.005195766993368,34.299198612369,34.288689134044,0.00018959358889895,0.00018959358889895,0.00018959358889895,515011.13776466,0.015709591028118
13737600,0.99835535079743,0.015029254827722,0.0050097516092408,0.0050097516092407,0.0050097516092407,-0.0012500031323791,0.0012500031323791,2.8182962559251e-17,-1.1654055741303e-17,-8.2438658026174e-17,9.8732277914329e-17,-0.0012794757269198,0.0012794757269197,-0.0012794757269198,0.0012794757269197,-0.0012794757269197,0.0012794757269198,-0.0012794757269197,0.0012794757269198,-0.001229651357861,0.0012296513578612,-0.0012296513578611,0.0012296513578611,9.5827954874699e-17,-8.4607709410202e-17,-1.5183359688196e-17,3.1822557254484e-17,-0.0012500031323791,0.0012500031323791,-0.0012794757269197,0.0012794757269197,-0.0012794757269197,0.0012794757269198,-0.0012794757269197,0.0012794757269197,-0.0012794757269197,0.0012794757269197,-0.0012296513578611,0.0012296513578611,-0.0012296513578611,0.0012296513578611,-0.001229651357861,0.0012296513578612,-0.0012296513578612,0.0012296513578611,-2.0414817517809e-17,2.1043474783349e-17,-0.0012500031323791,0.0012500031323791,1.7631814301353e-17,-2.1646397540943e-17,-0.0012794757269197,0.0012794757269197,-0.0012794757269197,0.0012794757269197,-0.0012794757269197,0.0012794757269197,-0.0012794757269197,0.0012794757269197,-0.0012296513578611,0.0012296513578611,-0.0012296513578611,0.0012296513578611,0.40002225375328,0.3649987329347,1270536,32768,0.0051947949649818,0.0051947949649817,0.0051947949649817,34.147775596323,34.137485176475,0.00018838220477059,0.00018838220477059,0.00018838220477059,514272.85286093,0.015706629099238
13824000,0.99843353150021,0.015029938018269,0.005009979339423,0.005009979339423,0.0050099793394229,-0.0012497763782142,0.0012497763782142,2.5716126154704e-17,-1.4124568504128e-17,-8.4335658897629e-17,9.5850013024367e-17,-0.0012792422899472,0.0012792422899472,-0.0012792422899473,0.0012792422899472,-0.0012792422899472,0.0012792422899473,-0.0012792422899472,0.0012792422899473,-0.0012294319684796,0.0012294319684797,-0.0012294319684796,0.0012294319684796,9.4092713767476e-17,-8.5865023941282e-17,-1.635979433716e-17,3.0013788981702e-17,-0.0012497763782142,0.0012497763782142,-0.0012792422899471,0.0012792422899472,-0.0012792422899471,0.0012792422899472,-0.0012792422899472,0.0012792422899472,-0.0012792422899472,0.0012792422899472,-0.0012294319684796,0.0012294319684796,-0.0012294319684796,0.0012294319684796,-0.0012294319684795,0.0012294319684797,-0.0012294319684797,0.0012294319684796,-2.2396374629658e-17,1.8984714147662e-17,-0.0012497763782142,0.0012497763782142,1.5087774372967e-17,-2.3469871246838e-17,-0.0012792422899472,0.0012792422899472,-0.0012792422899472,0.0012792422899472,-0.0012792422899472,0.0012792422899472,-0.0012792422899472,0.0012792422899472,-0.0012294319684796,0.0012294319684796,-0.0012294319684796,0.0012294319684796,0.39917545765037,0.36923226796619,1270536,32768,0.0051938550633581,0.0051938550633581,0.005193855063358,33.996545378167,33.986281218906,0.00018717236302533,0.00018717236302533,0.00018717236302533,513144.23799471,0.01570376510656
13910400,0.99850738766377,0.015030582781667,0.0050101942605557,0.0050101942605557,0.0050101942605557,-0.0012495518330911,0.0012495518330911,2.7035938776511e-17,-1.2845195823379e-17,-8.3512154643354e-17,9.7173502004452e-17,-0.0012790096239799,0.0012790096239799,-0.00127900962398,0.0012790096239799,-0.0012790096239799,0.00127900962398,-0.0012790096239799,0.00127900962398,-0.0012292144130793,0.0012292144130795,-0.0012292144130794,0.0012292144130794,9.5835307591255e-17,-8.4350364330741e-17,-1.4565731497489e-17,3.1484332292907e-17,-0.0012495518330911,0.0012495518330911,-0.0012790096239798,0.0012790096239799,-0.0012790096239798,0.0012790096239799,-0.0012790096239799,0.0012790096239799,-0.0012790096239799,0.0012790096239799,-0.0012292144130794,0.0012292144130794,-0.0012292144130794,0.0012292144130794,-0.0012292144130793,0.0012292144130795,-0.0012292144130795,0.0012292144130794,-1.8900157907267e-17,2.2514018094554e-17,-0.0012495518330911,0.0012495518330911,1.8146504460274e-17,-1.9984683599281e-17,-0.0012790096239799,0.0012790096239799,-0.0012790096239799,0.0012790096239799,-0.0012790096239799,0.0012790096239799,-0.0012790096239799,0.0012790096239799,-0.0012292144130794,0.0012292144130794,-0.0012292144130794,0.0012292144130794,0.39877872846764,0.37346580299768,1270536,32768,0.0051929243100768,0.0051929243100767,0.0051929243100767,33.845334436131,33.835077261337,0.00018596267548905,0.00018596267548905,0.00018596267548905,511817.35384013,0.015700929018493
13996800,0.99857718595655,0.015031192063525,0.0050103973545083,0.0050103973545082,0.0050103973545082,-0.0012493273216073,0.0012493273216073,2.6194052730846e-17,-1.3661347361098e-17,-8.3791557872483e-17,9.6379408616401e-17,-0.0012787766593347,0.0012787766593346,-0.0012787766593347,0.0012787766593346,-0.0012787766593346,0.0012787766593347,-0.0012787766593346,0.0012787766593347,-0.0012289962163212,0.0012289962163213,-0.0012289962163212,0.0012289962163212,9.730585090246e-17,-8.2747472121527e-17,-1.2859901256491e-17,3.1999022451829e-17,-0.0012493273216072,0.0012493273216073,-0.0012787766593346,0.0012787766593347,-0.0012787766593346,0.0012787766593347,-0.0012787766593346,0.0012787766593346,-0.0012787766593346,0.0012787766593346,-0.0012289962163212,0.0012289962163212,-0.0012289962163212,0.0012289962163212,-0.0012289962163211,0.0012289962163213,-0.0012289962163213,0.0012289962163212,-2.1628015749553e-17,1.9808218401937e-17,-0.0012493273216073,0.0012493273216073,1.5043658073631e-17,-2.2072855101193e-17,-0.0012787766593346,0.0012787766593346,-0.0012787766593346,0.0012787766593346,-0.0012787766593346,0.0012787766593346,-0.0012787766593346,0.0012787766593347,-0.0012289962163212,0.0012289962163212,-0.0012289962163212,0.0012289962163212,0.39873759342803,0.37769933802917,1270536,32768,0.0051919936899085,0.0051919936899085,0.0051919936899085,33.694125452416,33.683873303768,0.00018475300361933,0.00018475300361933,0.00018475300361933,510372.51930219,0.01569809335832
14083200,0.99864317510859,0.01503176498547,0.00501058832849,0.00501058832849,0.00501058832849,-0.0012491015411587,0.0012491015411587,2.503967623155e-17,-1.5043658073631e-17,-8.4967992521447e-17,9.5144152234988e-17,-0.0012785426990727,0.0012785426990727,-0.0012785426990728,0.0012785426990727,-0.0012785426990727,0.0012785426990728,-0.0012785426990727,0.0012785426990727,-0.0012287759631738,0.0012287759631739,-0.0012287759631738,0.0012287759631738,9.4173593649593e-17,-8.5181221301572e-17,-1.5521584649773e-17,2.9204990160539e-17,-0.0012491015411587,0.0012491015411587,-0.0012785426990726,0.0012785426990727,-0.0012785426990726,0.0012785426990727,-0.0012785426990727,0.0012785426990727,-0.0012785426990727,0.0012785426990727,-0.0012287759631739,0.0012287759631738,-0.0012287759631738,0.0012287759631738,-0.0012287759631737,0.0012287759631739,-0.0012287759631739,0.0012287759631738,-2.1425816044262e-17,2.0058210764841e-17,-0.0012491015411587,0.0012491015411587,1.5425999334544e-17,-2.1749335572728e-17,-0.0012785426990727,0.0012785426990727,-0.0012785426990727,0.0012785426990727,-0.0012785426990727,0.0012785426990727,-0.0012785426990727,0.0012785426990727,-0.0012287759631738,0.0012287759631738,-0.0012287759631739,0.0012287759631738,0.39657886259946,0.36864124454675,1270536,32768,0.0051910578045152,0.0051910578045152,0.0051910578045151,33.542916668938,33.532669346199,0.00018354333335151,0.00018354333335151,0.00018354333335151,508853.34093013,0.015695241674486
14169600,0.99870558721435,0.015032294164181,0.0050107647213937,0.0050107647213936,0.0050107647213936,-0.0012488327673789,0.0012488327673789,2.5697744363314e-17,-1.3962808739895e-17,-8.4159193700284e-17,9.5600020661462e-17,-0.0012782801757313,0.0012782801757312,-0.0012782801757313,0.0012782801757312,-0.0012782801757312,0.0012782801757313,-0.0012782801757312,0.0012782801757313,-0.0012284996740355,0.0012284996740356,-0.0012284996740355,0.0012284996740356,9.6335292317065e-17,-8.3298925863229e-17,-1.3551056612758e-17,3.107258016577e-17,-0.0012488327673789,0.0012488327673789,-0.0012782801757312,0.0012782801757313,-0.0012782801757312,0.0012782801757313,-0.0012782801757313,0.0012782801757312,-0.0012782801757313,0.0012782801757312,-0.0012284996740356,0.0012284996740355,-0.0012284996740356,0.0012284996740355,-0.0012284996740354,0.0012284996740356,-0.0012284996740356,0.0012284996740355,-1.9506757023139e-17,2.1955211636296e-17,-0.0012488327673789,0.0012488327673789,1.7264178473551e-17,-1.9822923835049e-17,-0.0012782801757312,0.0012782801757312,-0.0012782801757312,0.0012782801757312,-0.0012782801757312,0.0012782801757313,-0.0012782801757312,0.0012782801757313,-0.0012284996740355,0.0012284996740356,-0.0012284996740356,0.0012284996740355,0.3872831370627,0.32446844578257,1270536,32768,0.0051899437074704,0.0051899437074704,0.0051899437074704,33.391707906447,33.381465388631,0.00018233366325157,0.00018233366325157,0.00018233366325157,508865.40809265,0.015691846908696
14256000,0.99876463892912,0.015032778687114,0.005010926229038,0.0050109262290379,0.0050109262290379,-0.0012484428961428,0.0012484428961428,2.6855797220888e-17,-1.2962839288275e-17,-8.2600417790406e-17,9.7467610666693e-17,-0.0012779367789824,0.0012779367789823,-0.0012779367789824,0.0012779367789823,-0.0012779367789823,0.0012779367789824,-0.0012779367789823,0.0012779367789824,-0.001228068486971,0.0012280684869712,-0.0012280684869711,0.0012280684869711,9.2122185730461e-17,-8.7526737882944e-17,-1.7220062174215e-17,2.7102113225515e-17,-0.0012484428961427,0.0012484428961428,-0.0012779367789823,0.0012779367789824,-0.0012779367789823,0.0012779367789824,-0.0012779367789823,0.0012779367789823,-0.0012779367789824,0.0012779367789823,-0.0012280684869711,0.0012280684869711,-0.0012280684869711,0.0012280684869711,-0.001228068486971,0.0012280684869712,-0.0012280684869712,0.0012280684869711,-1.5289974078258e-17,2.6087438340784e-17,-0.0012484428961427,0.0012484428961428,2.1014063917125e-17,-1.5690697130561e-17,-0.0012779367789823,0.0012779367789823,-0.0012779367789823,0.0012779367789823,-0.0012779367789823,0.0012779367789824,-0.0012779367789823,0.0012779367789824,-0.0012280684869711,0.0012280684869711,-0.0012280684869711,0.0012280684869711,0.37477772250491,0.28029564701839,1270536,32768,0.0051883276675217,0.0051883276675216,0.0051883276675216,33.240499146648,33.230261431062,0.00018112399317318,0.00018112399317318,0.00018112399317318,513537.66264777,0.015686922469292
14342400,0.99882016043695,0.015033236893094,0.0050110789643647,0.0050110789643647,0.0050110789643646,-0.0012477847269686,0.0012477847269686,2.7830032164562e-17,-1.2205509483005e-17,-8.2188665663269e-17,9.7026447673331e-17,-0.0012773366840061,0.001277336684006,-0.0012773366840061,0.001277336684006,-0.001277336684006,0.0012773366840061,-0.001277336684006,0.0012773366840061,-0.0012273657343756,0.0012273657343758,-0.0012273657343757,0.0012273657343757,1.0026899567454e-16,-7.8468191085919e-17,-9.6835277042874e-18,3.5557737264946e-17,-0.0012477847269686,0.0012477847269686,-0.001277336684006,0.001277336684006,-0.0012773366840059,0.0012773366840061,-0.001277336684006,0.001277336684006,-0.001277336684006,0.001277336684006,-0.0012273657343757,0.0012273657343757,-0.0012273657343757,0.0012273657343757,-0.0012273657343756,0.0012273657343758,-0.0012273657343758,0.0012273657343757,-2.4966149065989e-17,1.6749488314629e-17,-0.0012477847269686,0.0012477847269686,1.2176098616781e-17,-2.5455104716965e-17,-0.001277336684006,0.001277336684006,-0.001277336684006,0.001277336684006,-0.001277336684006,0.001277336684006,-0.001277336684006,0.001277336684006,-0.0012273657343757,0.0012273657343757,-0.0012273657343757,0.0012273657343757,0.37697613766621,0.33016534651402,1270536,32768,0.0051855995244818,0.0051855995244818,0.0051855995244817,32.967838884222,32.949677023916,0.00017894271107377,0.00017894271107377,0.00017894271107377,519898.33316207,0.01567860936264
14428800,0.99887216799129,0.015033666462684,0.005011222154228,0.005011222154228,0.005011222154228,-0.0012472611341059,0.0012472611341059,2.7024909701677e-17,-1.3051071886948e-17,-8.0651947903059e-17,9.8555812716985e-17,-0.0012767680019503,0.0012767680019503,-0.0012767680019504,0.0012767680019503,-0.0012767680019503,0.0012767680019504,-0.0012767680019503,0.0012767680019504,-0.0012268923804736,0.0012268923804737,-0.0012268923804736,0.0012268923804736,9.8107297007067e-17,-8.0615184320279e-17,-1.2367269247237e-17,3.3425449463698e-17,-0.0012472611341059,0.0012472611341059,-0.0012767680019502,0.0012767680019503,-0.0012767680019502,0.0012767680019503,-0.0012767680019503,0.0012767680019503,-0.0012767680019503,0.0012767680019503,-0.0012268923804736,0.0012268923804736,-0.0012268923804736,0.0012268923804736,-0.0012268923804735,0.0012268923804737,-0.0012268923804737,0.0012268923804736,-2.7495483561263e-17,1.3896634290891e-17,-0.0012472611341059,0.0012472611341059,9.4408880579386e-18,-2.8940292364522e-17,-0.0012767680019503,0.0012767680019503,-0.0012767680019503,0.0012767680019502,-0.0012767680019503,0.0012767680019503,-0.0012767680019503,0.0012767680019503,-0.0012268923804736,0.0012268923804736,-0.0012268923804737,0.0012268923804736,0.37732221315653,0.34057045049571,1270536,32768,0.0051834292029859,0.0051834292029859,0.0051834292029859,32.615337253285,32.591717354755,0.00017612269802628,0.00017612269802628,0.00017612269802628,515142.51738322,0.015671996512949
14515200,0.99892091141456,0.015034070122106,0.0050113567073686,0.0050113567073685,0.0050113567073685,-0.0012466519959602,0.0012466519959602,2.3337522348829e-17,-1.7058302409982e-17,-8.6754702644562e-17,9.221777104569e-17,-0.0012761369915376,0.0012761369915376,-0.0012761369915377,0.0012761369915375,-0.0012761369915376,0.0012761369915376,-0.0012761369915376,0.0012761369915376,-0.0012263007134273,0.0012263007134274,-0.0012263007134274,0.0012263007134274,9.4680931091959e-17,-8.3953317636715e-17,-1.5315708586204e-17,3.0763766070417e-17,-0.0012466519959601,0.0012466519959602,-0.0012761369915375,0.0012761369915376,-0.0012761369915375,0.0012761369915376,-0.0012761369915376,0.0012761369915376,-0.0012761369915376,0.0012761369915376,-0.0012263007134274,0.0012263007134273,-0.0012263007134273,0.0012263007134273,-0.0012263007134272,0.0012263007134274,-0.0012263007134274,0.0012263007134273,-2.189271354557e-17,1.9852334701273e-17,-0.0012466519959601,0.0012466519959601,1.6058332958363e-17,-2.2249320298537e-17,-0.0012761369915376,0.0012761369915376,-0.0012761369915376,0.0012761369915376,-0.0012761369915376,0.0012761369915376,-0.0012761369915376,0.0012761369915376,-0.0012263007134273,0.0012263007134273,-0.0012263007134273,0.0012263007134273,0.37829066123826,0.3509755544774,1270536,32768,0.0051809042452853,0.0051809042452852,0.0051809042452852,32.257865570039,32.233757685593,0.00017326292456031,0.00017326292456031,0.00017326292456031,512961.52580151,0.015664303033286
14601600,0.99896663254585,0.015034450334847,0.0050114834449491,0.005011483444949,0.005011483444949,-0.0012460397161869,0.0012460397161869,1.7459025462286e-17,-2.2800774040239e-17,-9.354861274233e-17,8.807083890809e-17,-0.0012755048490203,0.0012755048490203,-0.0012755048490204,0.0012755048490203,-0.0012755048490203,0.0012755048490204,-0.0012755048490203,0.0012755048490204,-0.0012257024151929,0.001225702415193,-0.001225702415193,0.0012257024151929,9.5710311409802e-17,-8.5328275632692e-17,-1.5521584649773e-17,2.9249106459875e-17,-0.0012460397161869,0.0012460397161869,-0.0012755048490203,0.0012755048490203,-0.0012755048490202,0.0012755048490204,-0.0012755048490203,0.0012755048490203,-0.0012755048490203,0.0012755048490203,-0.001225702415193,0.0012257024151929,-0.001225702415193,0.0012257024151929,-0.0012257024151928,0.001225702415193,-0.001225702415193,0.0012257024151929,-2.3094882702481e-17,1.8852365249653e-17,-0.0012460397161869,0.0012460397161869,1.3881928857779e-17,-2.298459195414e-17,-0.0012755048490203,0.0012755048490203,-0.0012755048490203,0.0012755048490203,-0.0012755048490203,0.0012755048490203,-0.0012755048490203,0.0012755048490203,-0.0012257024151929,0.0012257024151929,-0.001225702415193,0.0012257024151929,0.37986548773987,0.36138065845909,1270536,32768,0.0051783662499504,0.0051783662499504,0.0051783662499503,31.89993031999,31.875798016432,0.00017039944255992,0.00017039944255992,0.00017039944255992,510720.72382555,0.015656569900813
14688000,0.99900955387504,0.015034809257368,0.0050116030857895,0.0050116030857895,0.0050116030857894,-0.0012454265168232,0.0012454265168233,2.940718986583e-17,-1.0543795541343e-17,-8.1196048928205e-17,9.9276378939475e-17,-0.0012748732815547,0.0012748732815547,-0.0012748732815548,0.0012748732815547,-0.0012748732815547,0.0012748732815548,-0.0012748732815547,0.0012748732815548,-0.0012251011915363,0.0012251011915365,-0.0012251011915364,0.0012251011915364,9.0431060922575e-17,-8.9048750210042e-17,-2.1256703563474e-17,2.4366902666673e-17,-0.0012454265168232,0.0012454265168232,-0.0012748732815547,0.0012748732815547,-0.0012748732815546,0.0012748732815548,-0.0012748732815547,0.0012748732815547,-0.0012748732815547,0.0012748732815547,-0.0012251011915364,0.0012251011915364,-0.0012251011915364,0.0012251011915364,-0.0012251011915363,0.0012251011915365,-0.0012251011915365,0.0012251011915364,-2.9727033036017e-17,1.2087866018108e-17,-0.0012454265168232,0.0012454265168232,7.0144915944497e-18,-3.0969642133985e-17,-0.0012748732815547,0.0012748732815547,-0.0012748732815547,0.0012748732815547,-0.0012748732815547,0.0012748732815547,-0.0012748732815547,0.0012748732815547,-0.0012251011915364,0.0012251011915364,-0.0012251011915364,0.0012251011915364,0.38197963059436,0.37178576244078,1270536,32768,0.0051758244293154,0.0051758244293153,0.0051758244293153,31.541948953962,31.517838347271,0.0001675355916317,0.0001675355916317,0.0001675355916317,508368.42797697,0.015648825188098
14774400,0.99904987931215,0.01503514876501,0.0050117162550032,0.0050117162550032,0.0050117162550032,-0.0012448123220605,0.0012448123220605,3.010937429693e-17,-9.9482255003044e-18,-8.0401955540154e-17,9.9423433270596e-17,-0.0012742421746508,0.0012742421746508,-0.0012742421746509,0.0012742421746508,-0.0012742421746508,0.0012742421746509,-0.0012742421746508,0.0012742421746509,-0.0012244974798007,0.0012244974798008,-0.0012244974798007,0.0012244974798007,9.8614634449433e-17,-8.098282014808e-17,-1.0440857509558e-17,3.4719527577559e-17,-0.0012448123220604,0.0012448123220605,-0.0012742421746508,0.0012742421746508,-0.0012742421746507,0.0012742421746509,-0.0012742421746508,0.0012742421746508,-0.0012742421746508,0.0012742421746508,-0.0012244974798007,0.0012244974798007,-0.0012244974798007,0.0012244974798007,-0.0012244974798006,0.0012244974798008,-0.0012244974798008,0.0012244974798007,-2.6727124681158e-17,1.4793665710726e-17,-0.0012448123220605,0.0012448123220604,1.0234981445989e-17,-2.7381516454644e-17,-0.0012742421746508,0.0012742421746508,-0.0012742421746508,0.0012742421746508,-0.0012742421746508,0.0012742421746508,-0.0012742421746508,0.0012742421746508,-0.0012244974798007,0.0012244974798007,-0.0012244974798008,0.0012244974798007,0.38456911852126,0.38219086642248,1270536,32768,0.0051732784707116,0.0051732784707116,0.0051732784707116,31.183962937454,31.159878678109,0.00016467170349963,0.00016467170349963,0.00016467170349963,505912.30637993,0.015641067939819
14860800,0.9990877958208,0.015035470498258,0.0050118234994194,0.0050118234994193,0.0050118234994193,-0.0012441968121596,0.0012441968121596,2.4745567569309e-17,-1.5514231933217e-17,-8.5637089728045e-17,9.2658934039051e-17,-0.0012736112082127,0.0012736112082127,-0.0012736112082128,0.0012736112082127,-0.0012736112082127,0.0012736112082128,-0.0012736112082127,0.0012736112082128,-0.0012238912253465,0.0012238912253467,-0.0012238912253466,0.0012238912253466,8.9806080015313e-17,-8.7666439497509e-17,-1.7911217530482e-17,2.6925648028171e-17,-0.0012441968121596,0.0012441968121596,-0.0012736112082127,0.0012736112082127,-0.0012736112082126,0.0012736112082128,-0.0012736112082127,0.0012736112082127,-0.0012736112082127,0.0012736112082127,-0.0012238912253466,0.0012238912253466,-0.0012238912253466,0.0012238912253466,-0.0012238912253465,0.0012238912253467,-0.0012238912253467,0.0012238912253466,-1.6848749988136e-17,2.4925709124931e-17,-0.0012441968121596,0.0012441968121596,2.0014094465505e-17,-1.7205356741103e-17,-0.0012736112082127,0.0012736112082127,-0.0012736112082127,0.0012736112082127,-0.0012736112082127,0.0012736112082127,-0.0012736112082127,0.0012736112082127,-0.0012238912253466,0.0012238912253466,-0.0012238912253466,0.0012238912253466,0.38758033517797,0.39259597040417,1270536,32768,0.0051707270499904,0.0051707270499904,0.0051707270499903,30.825976456966,30.801919008948,0.00016180781165573,0.00016180781165573,0.00016180781165573,503368.12540416,0.015633294118688
14947200,0.99912334190221,0.015035774763121,0.0050119249210402,0.0050119249210402,0.0050119249210402,-0.0012434515181957,0.0012434515181957,2.300297374553e-17,-1.7021538827202e-17,-8.5423860947921e-17,9.221777104569e-17,-0.0012728536187237,0.0012728536187236,-0.0012728536187237,0.0012728536187236,-0.0012728536187236,0.0012728536187237,-0.0012728536187236,0.0012728536187237,-0.0012231529610314,0.0012231529610315,-0.0012231529610315,0.0012231529610315,9.7511726966029e-17,-7.983579636534e-17,-1.0433504793002e-17,3.5101868838473e-17,-0.0012434515181957,0.0012434515181957,-0.0012728536187236,0.0012728536187237,-0.0012728536187236,0.0012728536187237,-0.0012728536187236,0.0012728536187237,-0.0012728536187237,0.0012728536187236,-0.0012231529610315,0.0012231529610314,-0.0012231529610315,0.0012231529610314,-0.0012231529610313,0.0012231529610315,-0.0012231529610315,0.0012231529610314,-3.1620357549194e-17,9.6467641215073e-18,-0.0012434515181957,0.0012434515181957,5.0880798567706e-18,-3.2837232139216e-17,-0.0012728536187237,0.0012728536187236,-0.0012728536187237,0.0012728536187236,-0.0012728536187236,0.0012728536187236,-0.0012728536187236,0.0012728536187237,-0.0012231529610314,0.0012231529610314,-0.0012231529610315,0.0012231529610314,0.39096919454233,0.40300107438586,1270536,32768,0.0051676376347134,0.0051676376347134,0.0051676376347134,30.401618037066,30.373290336527,0.00015841294429653,0.00015841294429653,0.00015841294429653,500823.7474001,0.015623881190714
15033600,0.99915636720537,0.015036055031245,0.0050120183437484,0.0050120183437483,0.0050120183437483,-0.0012423664836718,0.0012423664836718,1.4617200513382e-17,-2.505805802294e-17,-9.1269270609962e-17,8.4997403387671e-17,-0.0012717606597939,0.0012717606597938,-0.0012717606597939,0.0012717606597938,-0.0012717606597939,0.0012717606597939,-0.0012717606597939,0.0012717606597939,-0.0012220719501008,0.0012220719501009,-0.0012220719501009,0.0012220719501008,8.73502726856e-17,-8.8041428041866e-17,-2.1749335572728e-17,2.3896328807087e-17,-0.0012423664836718,0.0012423664836718,-0.0012717606597938,0.0012717606597939,-0.0012717606597938,0.0012717606597939,-0.0012717606597939,0.0012717606597938,-0.0012717606597939,0.0012717606597938,-0.0012220719501008,0.0012220719501008,-0.0012220719501008,0.0012220719501008,-0.0012220719501008,0.0012220719501009,-0.0012220719501009,0.0012220719501008,-2.0069239839675e-17,2.1366994311814e-17,-0.0012423664836718,0.0012423664836718,1.6867131779526e-17,-2.1072885649573e-17,-0.0012717606597938,0.0012717606597938,-0.0012717606597938,0.0012717606597938,-0.0012717606597938,0.0012717606597939,-0.0012717606597939,0.0012717606597938,-0.0012220719501008,0.0012220719501009,-0.0012220719501009,0.0012220719501008,0.38760205030044,0.37427876945462,1270536,32768,0.0051631399034008,0.0051631399034008,0.0051631399034008,29.802513241535,29.762787601846,0.00015362010593228,0.00015362010593228,0.00015362010593228,498346.2523063,0.015610177494701
15120000,0.99918706802197,0.015036307866624,0.0050121026222082,0.0050121026222081,0.0050121026222081,-0.001241143927949,0.001241143927949,1.9716309444986e-17,-2.0308203127746e-17,-8.6688528195557e-17,8.964432025108e-17,-0.0012705662066444,0.0012705662066444,-0.0012705662066444,0.0012705662066443,-0.0012705662066444,0.0012705662066444,-0.0012705662066443,0.0012705662066444,-0.0012208209849268,0.0012208209849269,-0.0012208209849269,0.0012208209849269,8.6798818943898e-17,-8.8636998082905e-17,-2.0984653050901e-17,2.3161057151485e-17,-0.001241143927949,0.001241143927949,-0.0012705662066444,0.0012705662066444,-0.0012705662066443,0.0012705662066445,-0.0012705662066444,0.0012705662066444,-0.0012705662066444,0.0012705662066444,-0.0012208209849269,0.0012208209849269,-0.0012208209849269,0.0012208209849269,-0.0012208209849267,0.0012208209849269,-0.0012208209849269,0.0012208209849268,-1.2999602871056e-17,2.8587361969833e-17,-0.001241143927949,0.001241143927949,2.1925800770072e-17,-1.4264270118692e-17,-0.0012705662066444,0.0012705662066444,-0.0012705662066444,0.0012705662066444,-0.0012705662066444,0.0012705662066444,-0.0012705662066444,0.0012705662066444,-0.0012208209849268,0.0012208209849268,-0.0012208209849268,0.0012208209849269,0.3761091956157,0.31554913324883,1270536,32768,0.0051580721194778,0.0051580721194778,0.0051580721194778,29.192994101149,29.152284867166,0.00014874395280919,0.00014874395280919,0.00014874395280919,500129.94491875,0.015594736873656
15206400,0.99921563903406,0.015036533116455,0.0050121777054852,0.0050121777054851,0.0050121777054851,-0.0012397985560533,0.0012397985560533,1.5830398745126e-17,-2.3837507074639e-17,-9.1872193367556e-17,8.6262070635308e-17,-0.0012692880957612,0.0012692880957611,-0.0012692880957612,0.0012692880957611,-0.0012692880957612,0.0012692880957612,-0.0012692880957611,0.0012692880957612,-0.0012194180006187,0.0012194180006188,-0.0012194180006187,0.0012194180006187,9.3600081758223e-17,-8.3747441573147e-17,-1.3256947950517e-17,2.8410896772488e-17,-0.0012397985560533,0.0012397985560533,-0.0012692880957611,0.0012692880957611,-0.001269288095761,0.0012692880957612,-0.0012692880957611,0.0012692880957611,-0.0012692880957611,0.0012692880957611,-0.0012194180006187,0.0012194180006187,-0.0012194180006187,0.0012194180006187,-0.0012194180006186,0.0012194180006188,-0.0012194180006188,0.0012194180006187,-1.4477498898817e-17,2.6646244799042e-17,-0.0012397985560533,0.0012397985560533,2.1661102974055e-17,-1.2073160584996e-17,-0.0012692880957611,0.0012692880957611,-0.0012692880957611,0.0012692880957611,-0.0012692880957611,0.0012692880957611,-0.0012692880957611,0.0012692880957611,-0.0012194180006187,0.0012194180006187,-0.0012194180006187,0.0012194180006187,0.36004014259886,0.25467942007145,1270536,32768,0.0051524952455299,0.0051524952455298,0.0051524952455298,28.582518076391,28.541782132486,0.00014386014461112,0.00014386014461112,0.00014386014461112,506720.29994006,0.015577745149851
15292800,0.99924225723814,0.015036760398683,0.0050122534662277,0.0050122534662277,0.0050122534662277,-0.0012384049671578,0.0012384049671578,2.5436722925575e-17,-1.4087804921348e-17,-8.2012200465924e-17,9.6026478221712e-17,-0.0012679736039268,0.0012679736039267,-0.0012679736039268,0.0012679736039267,-0.0012679736039267,0.0012679736039268,-0.0012679736039267,0.0012679736039268,-0.0012179643252666,0.0012179643252667,-0.0012179643252666,0.0012179643252666,9.4489760461502e-17,-8.3085697083104e-17,-1.5609817248445e-17,2.7249167556636e-17,-0.0012384049671578,0.0012384049671578,-0.0012679736039267,0.0012679736039267,-0.0012679736039267,0.0012679736039268,-0.0012679736039267,0.0012679736039267,-0.0012679736039267,0.0012679736039267,-0.0012179643252667,0.0012179643252666,-0.0012179643252667,0.0012179643252666,-0.0012179643252666,0.0012179643252667,-0.0012179643252667,0.0012179643252666,-2.1907418978682e-17,1.9367055408575e-17,-0.0012384049671578,0.0012384049671578,1.4602495080269e-17,-2.0469962891979e-17,-0.0012679736039267,0.0012679736039267,-0.0012679736039267,0.0012679736039267,-0.0012679736039267,0.0012679736039267,-0.0012679736039267,0.0012679736039267,-0.0012179643252666,0.0012179643252667,-0.0012179643252667,0.0012179643252666,0.39002799219372,0.46598060193548,1270536,32768,0.0051467185159388,0.0051467185159387,0.0051467185159387,27.971947845115,27.931279397805,0.00013897558276092,0.00013897558276092,0.00013897558276092,515615.2125069,0.015560144637894
15379200,0.99926708253988,0.015036989021193,0.005012329673731,0.0050123296737309,0.0050123296737309,-0.0012378311804078,0.0012378311804078,3.3877641531894e-17,-5.742471630257e-18,-7.4872712690022e-17,1.0123220154338e-16,-0.0012671957152749,0.0012671957152749,-0.001267195715275,0.0012671957152749,-0.0012671957152749,0.001267195715275,-0.0012671957152749,0.001267195715275,-0.0012175849968679,0.0012175849968681,-0.001217584996868,0.001217584996868,8.6291481501532e-17,-8.9364917021951e-17,-1.8808248950317e-17,2.3793390775303e-17,-0.0012378311804078,0.0012378311804078,-0.0012671957152748,0.0012671957152749,-0.0012671957152748,0.0012671957152749,-0.0012671957152749,0.0012671957152749,-0.0012671957152749,0.0012671957152748,-0.0012175849968681,0.001217584996868,-0.0012175849968681,0.001217584996868,-0.001217584996868,0.0012175849968681,-0.0012175849968681,0.001217584996868,-3.0940231267761e-17,1.0087927114869e-17,-0.0012378311804078,0.0012378311804078,2.2058149668081e-18,-3.3307805998802e-17,-0.0012671957152749,0.0012671957152748,-0.0012671957152749,0.0012671957152748,-0.0012671957152749,0.0012671957152749,-0.0012671957152749,0.0012671957152749,-0.001217584996868,0.0012175849968681,-0.0012175849968681,0.001217584996868,0.42073324127692,0.58118402251387,1270536,32768,0.0051443400075091,0.0051443400075091,0.005144340007509,27.361368225314,27.320776663125,0.00013409094580251,0.00013409094580251,0.00013409094580251,492632.35359616,0.01555289912182
15465600,0.99929025951047,0.015037215224508,0.005012405074836,0.0050124050748359,0.0050124050748359,-0.0012370757445405,0.0012370757445405,2.7102113225515e-17,-1.1904048104208e-17,-8.201955318248e-17,9.5850013024367e-17,-0.0012663036387034,0.0012663036387034,-0.0012663036387035,0.0012663036387034,-0.0012663036387034,0.0012663036387035,-0.0012663036387034,0.0012663036387035,-0.0012169290405447,0.0012169290405448,-0.0012169290405447,0.0012169290405447,8.2762177554639e-17,-9.5313264715777e-17,-2.7396221887756e-17,1.539658846832e-17,-0.0012370757445405,0.0012370757445405,-0.0012663036387034,0.0012663036387034,-0.0012663036387033,0.0012663036387035,-0.0012663036387034,0.0012663036387034,-0.0012663036387034,0.0012663036387034,-0.0012169290405448,0.0012169290405447,-0.0012169290405448,0.0012169290405447,-0.0012169290405447,0.0012169290405448,-0.0012169290405448,0.0012169290405447,-1.9966301807891e-17,2.0896420452229e-17,-0.0012370757445405,0.0012370757445405,1.6102449257699e-17,-1.9058241313222e-17,-0.0012663036387034,0.0012663036387034,-0.0012663036387034,0.0012663036387034,-0.0012663036387034,0.0012663036387034,-0.0012663036387034,0.0012663036387034,-0.0012169290405447,0.0012169290405447,-0.0012169290405447,0.0012169290405447,0.44579681249385,0.63479025455408,1270536,32768,0.0051412083602748,0.0051412083602748,0.0051412083602748,26.75078769955,26.710273928445,0.0001292063015964,0.0001292063015964,0.0001292063015964,475792.2888433,0.015543359040208
15552000,0.99931191903858,0.015037435507917,0.0050124785026392,0.0050124785026391,0.0050124785026391,-0.0012361554683315,0.0012361554683315,3.1918142569713e-17,-6.6909720659845e-18,-7.8063791675338e-17,1.0361448170753e-16,-0.0012653134428473,0.0012653134428473,-0.0012653134428473,0.0012653134428473,-0.0012653134428473,0.0012653134428473,-0.0012653134428472,0.0012653134428473,-0.0012160432853696,0.0012160432853698,-0.0012160432853697,0.0012160432853697,9.2350119943698e-17,-8.8364947570332e-17,-1.532306130276e-17,2.7190345824188e-17,-0.0012361554683315,0.0012361554683315,-0.0012653134428472,0.0012653134428473,-0.0012653134428472,0.0012653134428473,-0.0012653134428473,0.0012653134428473,-0.0012653134428473,0.0012653134428472,-0.0012160432853697,0.0012160432853696,-0.0012160432853697,0.0012160432853697,-0.0012160432853696,0.0012160432853698,-0.0012160432853698,0.0012160432853697,-2.2491959944886e-17,1.7911217530482e-17,-0.0012361554683315,0.0012361554683315,9.5144152234988e-18,-2.5396282984517e-17,-0.0012653134428473,0.0012653134428472,-0.0012653134428472,0.0012653134428472,-0.0012653134428472,0.0012653134428472,-0.0012653134428472,0.0012653134428472,-0.0012160432853697,0.0012160432853697,-0.0012160432853697,0.0012160432853697,0.46446913682159,0.65271059529583,1270536,32768,0.0051373933601813,0.0051373933601813,0.0051373933601813,26.140207118985,26.099771193764,0.00012432165695188,0.00012432165695188,0.00012432165695188,464724.79265411,0.015531736929351
15638400,0.99933264195342,0.015037653894532,0.0050125512981773,0.0050125512981772,0.0050125512981772,-0.0012358598898621,0.0012358598898621,2.3991914122316e-17,-1.478631299417e-17,-8.5872376657838e-17,9.7555843265365e-17,-0.0012649858364127,0.0012649858364127,-0.0012649858364128,0.0012649858364127,-0.0012649858364127,0.0012649858364128,-0.0012649858364127,0.0012649858364127,-0.0012157523893262,0.0012157523893264,-0.0012157523893263,0.0012157523893263,9.7710250313042e-17,-8.5144457718792e-17,-1.2264331215453e-17,2.9690269453237e-17,-0.0012358598898621,0.0012358598898621,-0.0012649858364126,0.0012649858364127,-0.0012649858364126,0.0012649858364127,-0.0012649858364127,0.0012649858364127,-0.0012649858364127,0.0012649858364127,-0.0012157523893263,0.0012157523893263,-0.0012157523893263,0.0012157523893263,-0.0012157523893262,0.0012157523893264,-0.0012157523893264,0.0012157523893263,-1.756196349407e-17,2.2955181087916e-17,-0.0012358598898621,0.0012358598898621,1.7234767607327e-17,-1.7058302409982e-17,-0.0012649858364127,0.0012649858364127,-0.0012649858364127,0.0012649858364127,-0.0012649858364127,0.0012649858364127,-0.0012649858364127,0.0012649858364127,-0.0012157523893263,0.0012157523893263,-0.0012157523893263,0.0012157523893263,0.48114874870943,0.67063093603758,1270536,32768,0.0051361679703653,0.0051361679703653,0.0051361679703653,25.914201466228,25.898385522375,0.00012251361172983,0.00012251361172983,0.00012251361172983,457375.30196265,0.015528004016495
15724800,0.99935253430637,0.015037879011855,0.0050126263372852,0.0050126263372851,0.0050126263372851,-0.0012356283318333,0.0012356283318334,2.7072702359291e-17,-1.1867284521427e-17,-8.3159224248664e-17,9.9702836499725e-17,-0.0012647450374492,0.0012647450374491,-0.0012647450374492,0.0012647450374491,-0.0012647450374491,0.0012647450374492,-0.0012647450374491,0.0012647450374492,-0.0012155157519212,0.0012155157519213,-0.0012155157519212,0.0012155157519213,9.7798482911714e-17,-8.4372422480409e-17,-1.1690819324083e-17,3.007261071415e-17,-0.0012356283318333,0.0012356283318334,-0.0012647450374491,0.0012647450374492,-0.0012647450374491,0.0012647450374492,-0.0012647450374491,0.0012647450374491,-0.0012647450374492,0.0012647450374491,-0.0012155157519213,0.0012155157519212,-0.0012155157519212,0.0012155157519212,-0.0012155157519211,0.0012155157519213,-0.0012155157519213,0.0012155157519212,-2.0683191672104e-17,1.9705280370152e-17,-0.0012356283318333,0.0012356283318333,1.4161332086908e-17,-1.9969978166169e-17,-0.0012647450374491,0.0012647450374491,-0.0012647450374491,0.0012647450374491,-0.0012647450374491,0.0012647450374491,-0.0012647450374491,0.0012647450374491,-0.0012155157519212,0.0012155157519212,-0.0012155157519213,0.0012155157519212,0.51663374314828,0.79804980302726,1270536,32768,0.0051352079665772,0.0051352079665771,0.0051352079665771,25.737782411439,25.725959239622,0.00012110225929151,0.00012110225929151,0.00012110225929151,451395.9863954,0.015525079676443
15811200,0.99937163923434,0.015038107045005,0.005012702348335,0.005012702348335,0.005012702348335,-0.0012356239344136,0.0012356239344136,2.298459195414e-17,-1.5999511225915e-17,-8.7092927606139e-17,9.4261826248265e-17,-0.0012646575601221,0.001264657560122,-0.0012646575601221,0.001264657560122,-0.001264657560122,0.0012646575601221,-0.001264657560122,0.0012646575601221,-0.0012155778316011,0.0012155778316012,-0.0012155778316011,0.0012155778316011,8.9019339343818e-17,-9.190160423378e-17,-1.9109710329114e-17,2.2131676833641e-17,-0.0012356239344136,0.0012356239344136,-0.001264657560122,0.001264657560122,-0.001264657560122,0.0012646575601221,-0.0012646575601221,0.001264657560122,-0.0012646575601221,0.001264657560122,-0.0012155778316011,0.0012155778316011,-0.0012155778316011,0.0012155778316011,-0.001215577831601,0.0012155778316012,-0.0012155778316012,0.0012155778316011,-1.5738489788176e-17,2.455807329713e-17,-0.0012356239344136,0.0012356239344136,1.847002398874e-17,-1.4881898309398e-17,-0.001264657560122,0.001264657560122,-0.001264657560122,0.001264657560122,-0.001264657560122,0.001264657560122,-0.001264657560122,0.0012646575601221,-0.0012155778316011,0.0012155778316011,-0.0012155778316011,0.0012155778316011,0.54485477905654,0.84262532356392,1270536,32768,0.0051351896031676,0.0051351896031676,0.0051351896031675,25.564971973742,25.553532956869,0.00011971977578993,0.00011971977578993,0.00011971977578993,437130.52927308,0.015525024546664
15897600,0.99938999367481,0.015038332807824,0.005012777602608,0.005012777602608,0.005012777602608,-0.0012354733318184,0.0012354733318184,2.4800712943479e-17,-1.4051041338567e-17,-8.470329472543e-17,9.6129416253496e-17,-0.0012644781344554,0.0012644781344553,-0.0012644781344554,0.0012644781344553,-0.0012644781344553,0.0012644781344554,-0.0012644781344553,0.0012644781344554,-0.0012154373509013,0.0012154373509015,-0.0012154373509014,0.0012154373509014,9.9121971891799e-17,-8.1078405463309e-17,-8.8820815996805e-18,3.2337247413406e-17,-0.0012354733318184,0.0012354733318184,-0.0012644781344553,0.0012644781344554,-0.0012644781344553,0.0012644781344554,-0.0012644781344553,0.0012644781344553,-0.0012644781344554,0.0012644781344553,-0.0012154373509014,0.0012154373509014,-0.0012154373509014,0.0012154373509014,-0.0012154373509013,0.0012154373509015,-0.0012154373509015,0.0012154373509014,-1.7411232804672e-17,2.2881653922356e-17,-0.0012354733318184,0.0012354733318184,1.6440674219276e-17,-1.6808310047078e-17,-0.0012644781344553,0.0012644781344553,-0.0012644781344553,0.0012644781344553,-0.0012644781344553,0.0012644781344554,-0.0012644781344553,0.0012644781344554,-0.0012154373509014,0.0012154373509014,-0.0012154373509014,0.0012154373509014,0.56140722017266,0.82628061128145,1270536,32768,0.0051345651414398,0.0051345651414398,0.0051345651414397,25.392502263321,25.381106674116,0.00011834001810657,0.00011834001810657,0.00011834001810657,427853.11943766,0.015523122698043
15984000,0.99940763227358,0.015038554396027,0.0050128514653422,0.0050128514653422,0.0050128514653421,-0.0012351756411855,0.0012351756411855,2.3730892684577e-17,-1.4881898309398e-17,-8.5975314689623e-17,9.4864749005859e-17,-0.001264206341269,0.001264206341269,-0.001264206341269,0.0012642063412689,-0.001264206341269,0.001264206341269,-0.001264206341269,0.001264206341269,-0.0012151057458113,0.0012151057458115,-0.0012151057458114,0.0012151057458114,9.5327970148889e-17,-8.4916523505555e-17,-1.2058455151884e-17,2.8455013071824e-17,-0.0012351756411855,0.0012351756411855,-0.0012642063412689,0.001264206341269,-0.0012642063412689,0.001264206341269,-0.001264206341269,0.001264206341269,-0.001264206341269,0.0012642063412689,-0.0012151057458114,0.0012151057458114,-0.0012151057458114,0.0012151057458114,-0.0012151057458113,0.0012151057458115,-0.0012151057458115,0.0012151057458114,-1.8363409598677e-17,2.18375681714e-17,-0.0012351756411855,0.0012351756411855,1.5308355869648e-17,-1.7190651307991e-17,-0.001264206341269,0.001264206341269,-0.001264206341269,0.0012642063412689,-0.0012642063412689,0.001264206341269,-0.001264206341269,0.001264206341269,-0.0012151057458114,0.0012151057458114,-0.0012151057458114,0.0012151057458114,0.57333206933823,0.80993589899898,1270536,32768,0.00513333097764,0.00513333097764,0.00513333097764,25.220066078545,25.208680391364,0.00011696052862836,0.00011696052862836,0.00011696052862836,423732.9531511,0.015519363071095
16070400,0.99942458783716,0.015038770688991,0.0050129235629972,0.0050129235629971,0.0050129235629971,-0.0012348384506499,0.0012348384506499,2.4274993709723e-17,-1.4536320631265e-17,-8.5181221301572e-17,9.5276501132997e-17,-0.001263908343451,0.0012639083434509,-0.001263908343451,0.0012639083434509,-0.0012639083434509,0.001263908343451,-0.0012639083434509,0.001263908343451,-0.0012147327034509,0.001214732703451,-0.0012147327034509,0.0012147327034509,9.4945628887976e-17,-8.5188574018128e-17,-1.2999602871056e-17,2.6763888263938e-17,-0.0012348384506499,0.0012348384506499,-0.0012639083434509,0.0012639083434509,-0.0012639083434508,0.001263908343451,-0.0012639083434509,0.0012639083434509,-0.0012639083434509,0.0012639083434509,-0.001214732703451,0.0012147327034509,-0.001214732703451,0.0012147327034509,-0.0012147327034508,0.001214732703451,-0.001214732703451,0.0012147327034509,-1.7444320029174e-17,2.2661072425675e-17,-0.0012348384506499,0.0012348384506499,1.5690697130561e-17,-1.6249503588819e-17,-0.0012639083434509,0.0012639083434509,-0.0012639083434509,0.0012639083434509,-0.0012639083434509,0.0012639083434509,-0.0012639083434509,0.0012639083434509,-0.0012147327034509,0.0012147327034509,-0.001214732703451,0.0012147327034509,0.58214308132466,0.79359118671651,1270536,32768,0.0051319331166451,0.0051319331166451,0.0051319331166451,25.047633225662,25.036254108611,0.00011558106580529,0.00011558106580529,0.00011558106580529,421035.81300481,0.015515104610158
16156800,0.99944089146874,0.015038980989623,0.0050129936632078,0.0050129936632078,0.0050129936632078,-0.0012344802731453,0.0012344802731453,2.2940475654804e-17,-1.5808340595458e-17,-8.6409124966428e-17,9.3967717586024e-17,-0.0012635934291335,0.0012635934291334,-0.0012635934291335,0.0012635934291334,-0.0012635934291334,0.0012635934291335,-0.0012635934291334,0.0012635934291335,-0.0012143412269495,0.0012143412269496,-0.0012143412269496,0.0012143412269496,9.4386822429718e-17,-8.5416508231365e-17,-1.2918722988939e-17,2.6616833932817e-17,-0.0012344802731453,0.0012344802731453,-0.0012635934291334,0.0012635934291334,-0.0012635934291334,0.0012635934291335,-0.0012635934291334,0.0012635934291334,-0.0012635934291334,0.0012635934291334,-0.0012143412269496,0.0012143412269495,-0.0012143412269496,0.0012143412269495,-0.0012143412269495,0.0012143412269496,-0.0012143412269496,0.0012143412269495,-1.9069270388056e-17,2.0896420452229e-17,-0.0012344802731453,0.0012344802731453,1.374957995977e-17,-1.7822984931809e-17,-0.0012635934291334,0.0012635934291334,-0.0012635934291334,0.0012635934291334,-0.0012635934291334,0.0012635934291334,-0.0012635934291334,0.0012635934291334,-0.0012143412269495,0.0012143412269496,-0.0012143412269496,0.0012143412269496,0.58862440292033,0.77724647443404,1270536,32768,0.0051304482889388,0.0051304482889388,0.0051304482889387,24.87520070541,24.863827825858,0.00011420160564328,0.00011420160564328,0.00011420160564328,419131.59832425,0.015510581125649
16243200,0.99945657266852,0.01503918485849,0.0050130616194967,0.0050130616194966,0.0050130616194966,-0.0012341094972467,0.0012341094972467,2.3969855972648e-17,-1.4462793465705e-17,-8.5225337600908e-17,9.4688283808515e-17,-0.0012632659847867,0.0012632659847867,-0.0012632659847868,0.0012632659847867,-0.0012632659847867,0.0012632659847868,-0.0012632659847867,0.0012632659847868,-0.0012139405377736,0.0012139405377737,-0.0012139405377737,0.0012139405377737,9.6960273224327e-17,-8.2321014561277e-17,-1.0161454280429e-17,2.9557920555228e-17,-0.0012341094972467,0.0012341094972467,-0.0012632659847866,0.0012632659847867,-0.0012632659847866,0.0012632659847867,-0.0012632659847867,0.0012632659847867,-0.0012632659847867,0.0012632659847867,-0.0012139405377737,0.0012139405377736,-0.0012139405377737,0.0012139405377736,-0.0012139405377735,0.0012139405377737,-0.0012139405377737,0.0012139405377736,-1.9289851884737e-17,2.0617017223099e-17,-0.0012341094972467,0.0012341094972467,1.424956468558e-17,-1.7925922963594e-17,-0.0012632659847867,0.0012632659847867,-0.0012632659847867,0.0012632659847867,-0.0012632659847867,0.0012632659847867,-0.0012632659847867,0.0012632659847867,-0.0012139405377736,0.0012139405377737,-0.0012139405377737,0.0012139405377736,0.59325369209353,0.76090176215158,1270536,32768,0.0051289112596556,0.0051289112596556,0.0051289112596556,24.702768219105,24.691401543106,0.00011282214575284,0.00011282214575284,0.00011282214575284,417750.37710306,0.015505898557109
16329600,0.99947165942516,0.015039382028185,0.0050131273427284,0.0050131273427283,0.0050131273427283,-0.0012337306181581,0.0012337306181581,2.3017679178642e-17,-1.5631875398113e-17,-8.5931198390287e-17,9.3467732860214e-17,-0.0012629286257337,0.0012629286257336,-0.0012629286257337,0.0012629286257336,-0.0012629286257336,0.0012629286257337,-0.0012629286257336,0.0012629286257337,-0.0012135350305795,0.0012135350305796,-0.0012135350305795,0.0012135350305795,9.6673517278642e-17,-8.2137196647377e-17,-9.9849890830846e-18,2.9807912918133e-17,-0.0012337306181581,0.0012337306181581,-0.0012629286257336,0.0012629286257336,-0.0012629286257336,0.0012629286257337,-0.0012629286257336,0.0012629286257336,-0.0012629286257336,0.0012629286257336,-0.0012135350305795,0.0012135350305795,-0.0012135350305795,0.0012135350305795,-0.0012135350305794,0.0012135350305796,-0.0012135350305796,0.0012135350305795,-2.0341290352248e-17,1.9705280370152e-17,-0.0012337306181581,0.0012337306181581,1.3308416966409e-17,-1.8764132650981e-17,-0.0012629286257336,0.0012629286257336,-0.0012629286257336,0.0012629286257336,-0.0012629286257336,0.0012629286257336,-0.0012629286257336,0.0012629286257336,-0.0012135350305795,0.0012135350305795,-0.0012135350305795,0.0012135350305795,0.59635258854611,0.74455704986911,1270536,32768,0.0051273406570057,0.0051273406570057,0.0051273406570057,24.530335736992,24.518975260353,0.00011144268589594,0.00011144268589594,0.00011144268589594,416753.29688171,0.015501113673061
16416000,0.99948622764043,0.015039561130398,0.0050131870434659,0.0050131870434659,0.0050131870434658,-0.0012334556852383,0.0012334556852384,2.3381638648166e-17,-1.5124537955747e-17,-8.5019461537339e-17,9.4114771917145e-17,-0.0012626913528008,0.0012626913528007,-0.0012626913528008,0.0012626913528007,-0.0012626913528007,0.0012626913528008,-0.0012626913528007,0.0012626913528008,-0.0012132370884425,0.0012132370884427,-0.0012132370884426,0.0012132370884426,9.6504404797853e-17,-8.1938673300364e-17,-9.6835277042874e-18,2.9734385752573e-17,-0.0012334556852383,0.0012334556852384,-0.0012626913528007,0.0012626913528007,-0.0012626913528006,0.0012626913528008,-0.0012626913528007,0.0012626913528007,-0.0012626913528007,0.0012626913528007,-0.0012132370884426,0.0012132370884426,-0.0012132370884426,0.0012132370884426,-0.0012132370884425,0.0012132370884427,-0.0012132370884427,0.0012132370884426,-1.6962717094754e-17,2.2955181087916e-17,-0.0012334556852383,0.0012334556852383,1.6146565557035e-17,-1.5352472168984e-17,-0.0012626913528007,0.0012626913528007,-0.0012626913528007,0.0012626913528007,-0.0012626913528007,0.0012626913528007,-0.0012626913528007,0.0012626913528007,-0.0012132370884426,0.0012132370884426,-0.0012132370884426,0.0012132370884426,0.56094335060752,0.52307539463863,1270536,32768,0.0051262009656268,0.0051262009656268,0.0051262009656268,24.415100585428,24.407384604394,0.00011052080468343,0.00011052080468343,0.00011052080468343,416015.11272403,0.015497641515063
16502400,0.99950030276741,0.015039742164816,0.0050132473882721,0.0050132473882721,0.0050132473882721,-0.0012327152507075,0.0012327152507075,2.6808004563274e-17,-1.1631997591635e-17,-8.3254809563893e-17,9.7717603029598e-17,-0.0012621575492548,0.0012621575492548,-0.0012621575492548,0.0012621575492547,-0.0012621575492548,0.0012621575492548,-0.0012621575492547,0.0012621575492548,-0.0012123223753107,0.0012123223753109,-0.0012123223753108,0.0012123223753108,9.9313142522256e-17,-8.0960761998412e-17,-6.7424410818767e-18,3.1087285598882e-17,-0.0012327152507075,0.0012327152507075,-0.0012621575492547,0.0012621575492548,-0.0012621575492547,0.0012621575492548,-0.0012621575492547,0.0012621575492548,-0.0012621575492548,0.0012621575492547,-0.0012123223753108,0.0012123223753108,-0.0012123223753108,0.0012123223753108,-0.0012123223753107,0.0012123223753109,-0.0012123223753109,0.0012123223753108,-1.7356087430502e-17,2.2440490928994e-17,-0.0012327152507075,0.0012327152507075,1.5146596105415e-17,-1.4720138545166e-17,-0.0012621575492547,0.0012621575492547,-0.0012621575492547,0.0012621575492547,-0.0012621575492547,0.0012621575492548,-0.0012621575492547,0.0012621575492548,-0.0012123223753108,0.0012123223753108,-0.0012123223753108,0.0012123223753108,0.58687342824664,0.73248561102731,1270536,32768,0.005123131635039,0.005123131635039,0.005123131635039,24.305838468714,24.298625293851,0.00010964670774971,0.00010964670774971,0.00010964670774971,432318.94693219,0.015488289899059
16588800,0.99951390426451,0.015039928960063,0.0050133096533542,0.0050133096533542,0.0050133096533542,-0.0012328720146964,0.0012328720146964,2.4984530857379e-17,-1.3301064249853e-17,-8.4526829528085e-17,9.5438260897229e-17,-0.0012621866583906,0.0012621866583905,-0.0012621866583906,0.0012621866583905,-0.0012621866583905,0.0012621866583906,-0.0012621866583905,0.0012621866583906,-0.0012126271123798,0.00121262711238,-0.0012126271123799,0.0012126271123799,9.5173563101212e-17,-8.4725352875098e-17,-1.1734935623419e-17,2.6102143773896e-17,-0.0012328720146963,0.0012328720146964,-0.0012621866583905,0.0012621866583905,-0.0012621866583904,0.0012621866583906,-0.0012621866583905,0.0012621866583905,-0.0012621866583905,0.0012621866583905,-0.0012126271123799,0.0012126271123799,-0.0012126271123799,0.0012126271123798,-0.0012126271123798,0.00121262711238,-0.00121262711238,0.0012126271123799,-1.7510494478178e-17,2.2352258330322e-17,-0.0012328720146963,0.0012328720146963,1.4837782010062e-17,-1.5161301538528e-17,-0.0012621866583905,0.0012621866583905,-0.0012621866583905,0.0012621866583905,-0.0012621866583905,0.0012621866583905,-0.0012621866583905,0.0012621866583905,-0.0012126271123798,0.0012126271123799,-0.0012126271123799,0.0012126271123799,0.62674101721478,0.90536956812686,1270536,32768,0.0051237815919894,0.0051237815919893,0.0051237815919893,24.197029140324,24.189865983308,0.00010877623312259,0.00010877623312259,0.00010877623312259,417996.62033088,0.01549027039403
16675200,0.99952705040238,0.015040116495609,0.0050133721652029,0.0050133721652028,0.0050133721652028,-0.0012330530905935,0.0012330530905935,2.6660950232154e-17,-1.1712877473751e-17,-8.2901879169203e-17,9.7467610666693e-17,-0.001262230412523,0.001262230412523,-0.001262230412523,0.0012622304125229,-0.001262230412523,0.001262230412523,-0.0012622304125229,0.001262230412523,-0.0012129271091031,0.0012129271091033,-0.0012129271091032,0.0012129271091032,9.891609582823e-17,-8.1048994597085e-17,-9.0438413639131e-18,2.9293222759211e-17,-0.0012330530905935,0.0012330530905935,-0.0012622304125229,0.001262230412523,-0.0012622304125229,0.001262230412523,-0.0012622304125229,0.001262230412523,-0.001262230412523,0.0012622304125229,-0.0012129271091032,0.0012129271091032,-0.0012129271091032,0.0012129271091031,-0.0012129271091031,0.0012129271091033,-0.0012129271091032,0.0012129271091032,-1.7436967312618e-17,2.2293436597874e-17,-0.0012330530905935,0.0012330530905935,1.5617169965001e-17,-1.52495341372e-17,-0.0012622304125229,0.0012622304125229,-0.0012622304125229,0.0012622304125229,-0.0012622304125229,0.001262230412523,-0.0012622304125229,0.001262230412523,-0.0012129271091031,0.0012129271091032,-0.0012129271091032,0.0012129271091032,0.650942432955,0.93026865924923,1270536,32768,0.0051245321731747,0.0051245321731747,0.0051245321731746,24.088262692149,24.081106672765,0.00010790610153719,0.00010790610153719,0.00010790610153719,402303.25416093,0.015492557728839
16761600,0.99953975863759,0.015040301786969,0.0050134339289898,0.0050134339289898,0.0050134339289897,-0.0012329756049959,0.0012329756049959,2.3267671541547e-17,-1.5014247207407e-17,-8.5387097365141e-17,9.4526524044282e-17,-0.0012621167404646,0.0012621167404646,-0.0012621167404647,0.0012621167404646,-0.0012621167404646,0.0012621167404647,-0.0012621167404646,0.0012621167404647,-0.0012128626298331,0.0012128626298333,-0.0012128626298332,0.0012128626298332,9.604853637138e-17,-8.3445980194349e-17,-1.0676144439351e-17,2.7602097951325e-17,-0.0012329756049959,0.0012329756049959,-0.0012621167404646,0.0012621167404646,-0.0012621167404645,0.0012621167404647,-0.0012621167404646,0.0012621167404646,-0.0012621167404646,0.0012621167404646,-0.0012128626298332,0.0012128626298332,-0.0012128626298332,0.0012128626298332,-0.0012128626298331,0.0012128626298333,-0.0012128626298333,0.0012128626298332,-1.6999480677534e-17,2.2719894158123e-17,-0.0012329756049959,0.0012329756049959,1.5587759098777e-17,-1.4970130908071e-17,-0.0012621167404646,0.0012621167404646,-0.0012621167404646,0.0012621167404646,-0.0012621167404646,0.0012621167404646,-0.0012621167404646,0.0012621167404646,-0.0012128626298332,0.0012128626298332,-0.0012128626298332,0.0012128626298332,0.66522380652023,0.91509256745446,1270536,32768,0.0051242108603281,0.005124210860328,0.005124210860328,23.979500453808,23.972347362222,0.00010703600363047,0.00010703600363047,0.00010703600363047,395079.43617933,0.015491579238198
16848000,0.99955204567994,0.015040483671107,0.0050134945570358,0.0050134945570357,0.0050134945570357,-0.0012327837750546,0.0012327837750546,2.3205173450821e-17,-1.5124537955747e-17,-8.5423860947921e-17,9.3967717586024e-17,-0.0012619359519433,0.0012619359519432,-0.0012619359519433,0.0012619359519432,-0.0012619359519432,0.0012619359519433,-0.0012619359519432,0.0012619359519433,-0.0012126482182281,0.0012126482182282,-0.0012126482182281,0.0012126482182282,9.5835307591255e-17,-8.3004817200988e-17,-1.0690849872463e-17,2.8072671810911e-17,-0.0012327837750546,0.0012327837750546,-0.0012619359519432,0.0012619359519432,-0.0012619359519431,0.0012619359519433,-0.0012619359519432,0.0012619359519432,-0.0012619359519432,0.0012619359519432,-0.0012126482182282,0.0012126482182281,-0.0012126482182282,0.0012126482182281,-0.001212648218228,0.0012126482182282,-0.0012126482182282,0.0012126482182281,-1.8892805190711e-17,2.0749366121108e-17,-0.0012327837750546,0.0012327837750546,1.3999572322675e-17,-1.7058302409982e-17,-0.0012619359519432,0.0012619359519432,-0.0012619359519432,0.0012619359519432,-0.0012619359519432,0.0012619359519432,-0.0012619359519432,0.0012619359519432,-0.0012126482182281,0.0012126482182281,-0.0012126482182282,0.0012126482182281,0.67532882741138,0.89991647565968,1270536,32768,0.0051234155710344,0.0051234155710343,0.0051234155710343,23.870738632571,23.86358805168,0.00010616590906057,0.00010616590906057,0.00010616590906057,391653.82197348,0.015489156578147
16934400,0.9995639275301,0.015040661481246,0.005013553827082,0.005013553827082,0.005013553827082,-0.0012325584576023,0.0012325584576023,2.3723539968021e-17,-1.4815723860394e-17,-8.4453302362525e-17,9.443829144561e-17,-0.0012617350632081,0.0012617350632081,-0.0012617350632082,0.0012617350632081,-0.0012617350632081,0.0012617350632082,-0.0012617350632081,0.0012617350632082,-0.0012123971963283,0.0012123971963285,-0.0012123971963284,0.0012123971963284,9.4122124633701e-17,-8.4460655079081e-17,-1.2367269247237e-17,2.7160934957963e-17,-0.0012325584576023,0.0012325584576023,-0.0012617350632081,0.0012617350632081,-0.001261735063208,0.0012617350632082,-0.0012617350632081,0.0012617350632081,-0.0012617350632081,0.0012617350632081,-0.0012123971963284,0.0012123971963284,-0.0012123971963284,0.0012123971963284,-0.0012123971963283,0.0012123971963285,-0.0012123971963285,0.0012123971963284,-2.0061887123119e-17,1.9881745567497e-17,-0.0012325584576023,0.0012325584576023,1.3249595233961e-17,-1.8293558791395e-17,-0.0012617350632081,0.0012617350632081,-0.0012617350632081,0.0012617350632081,-0.0012617350632081,0.0012617350632081,-0.0012617350632081,0.0012617350632081,-0.0012123971963284,0.0012123971963284,-0.0012123971963284,0.0012123971963284,0.68269027242777,0.88474038386491,1270536,32768,0.0051224814960399,0.0051224814960398,0.0051224814960398,23.761976852933,23.754828741137,0.00010529581482346,0.00010529581482346,0.00010529581482346,389384.04848107,0.015486311015852
17020800,0.99957541951271,0.015040832399768,0.0050136107999228,0.0050136107999227,0.0050136107999227,-0.0012323158578165,0.0012323158578165,2.2745628666069e-17,-1.5852456894794e-17,-8.6335597800868e-17,9.3247151363533e-17,-0.0012615217576444,0.0012615217576443,-0.0012615217576444,0.0012615217576443,-0.0012615217576443,0.0012615217576444,-0.0012615217576443,0.0012615217576444,-0.0012121301342314,0.0012121301342315,-0.0012121301342314,0.0012121301342315,9.5769133142251e-17,-8.3320984012897e-17,-1.1102601999601e-17,2.8484423938048e-17,-0.0012323158578165,0.0012323158578165,-0.0012615217576443,0.0012615217576443,-0.0012615217576442,0.0012615217576444,-0.0012615217576443,0.0012615217576443,-0.0012615217576443,0.0012615217576443,-0.0012121301342315,0.0012121301342314,-0.0012121301342315,0.0012121301342314,-0.0012121301342313,0.0012121301342315,-0.0012121301342315,0.0012121301342314,-1.9164855703284e-17,2.0793482420444e-17,-0.0012323158578165,0.0012323158578165,1.3631936494874e-17,-1.8058271861602e-17,-0.0012615217576443,0.0012615217576443,-0.0012615217576443,0.0012615217576443,-0.0012615217576443,0.0012615217576443,-0.0012615217576443,0.0012615217576443,-0.0012121301342314,0.0012121301342314,-0.0012121301342315,0.0012121301342314,0.67846847249695,0.8168373588107,1270536,32768,0.0051214758027662,0.0051214758027661,0.0051214758027661,23.653215077627,23.646069430594,0.00010442572062102,0.00010442572062102,0.00010442572062102,387747.18007579,0.015483247211933
17107200,0.99958653630748,0.015040996944791,0.0050136656482639,0.0050136656482638,0.0050136656482638,-0.001231959624632,0.001231959624632,2.4341168158727e-17,-1.4205448386244e-17,-8.4416538779745e-17,9.4070655617808e-17,-0.0012612336461227,0.0012612336461227,-0.0012612336461227,0.0012612336461226,-0.0012612336461227,0.0012612336461227,-0.0012612336461227,0.0012612336461227,-0.0012117180949003,0.0012117180949005,-0.0012117180949004,0.0012117180949004,9.5805896725031e-17,-8.2071022198372e-17,-1.0440857509558e-17,2.9102052128755e-17,-0.001231959624632,0.001231959624632,-0.0012612336461226,0.0012612336461227,-0.0012612336461226,0.0012612336461227,-0.0012612336461227,0.0012612336461227,-0.0012612336461227,0.0012612336461226,-0.0012117180949004,0.0012117180949004,-0.0012117180949004,0.0012117180949004,-0.0012117180949003,0.0012117180949005,-0.0012117180949005,0.0012117180949004,-2.0753042479386e-17,1.9249411943678e-17,-0.001231959624632,0.001231959624632,1.2337858381013e-17,-1.9514109739695e-17,-0.0012612336461227,0.0012612336461227,-0.0012612336461227,0.0012612336461226,-0.0012612336461226,0.0012612336461227,-0.0012612336461227,0.0012612336461227,-0.0012117180949004,0.0012117180949004,-0.0012117180949004,0.0012117180949004,0.67519680390905,0.78518100685759,1270536,32768,0.0051199990794606,0.0051199990794605,0.0051199990794605,23.544453302955,23.537310120051,0.00010355562642364,0.00010355562642364,0.00010355562642364,389998.98797934,0.01547874821567
17193600,0.99959709949509,0.015041151463822,0.0050137171546072,0.0050137171546072,0.0050137171546072,-0.0012310622056979,0.0012310622056979,2.0657457164158e-17,-1.7800926782141e-17,-8.5475329963813e-17,9.2555996007267e-17,-0.0012603926483491,0.001260392648349,-0.0012603926483491,0.001260392648349,-0.001260392648349,0.0012603926483491,-0.001260392648349,0.0012603926483491,-0.0012107840927168,0.0012107840927169,-0.0012107840927168,0.0012107840927168,9.354861274233e-17,-8.3835674171819e-17,-9.8673456181881e-18,2.7572687085101e-17,-0.0012310622056979,0.0012310622056979,-0.001260392648349,0.001260392648349,-0.001260392648349,0.0012603926483491,-0.001260392648349,0.001260392648349,-0.001260392648349,0.001260392648349,-0.0012107840927168,0.0012107840927168,-0.0012107840927168,0.0012107840927168,-0.0012107840927167,0.0012107840927169,-0.0012107840927169,0.0012107840927168,-1.863546011125e-17,2.1072885649573e-17,-0.0012310622056979,0.0012310622056979,1.4073099488236e-17,-1.5543642799441e-17,-0.001260392648349,0.001260392648349,-0.001260392648349,0.001260392648349,-0.001260392648349,0.0012603926483491,-0.001260392648349,0.001260392648349,-0.0012107840927168,0.0012107840927168,-0.0012107840927168,0.0012107840927168,0.66737341866259,0.73653500939555,1270536,32768,0.0051162789357628,0.0051162789357628,0.0051162789357628,23.134017043033,23.10775799277,0.00010027213634426,0.00010027213634426,0.00010027213634426,391440.66944837,0.015467414982096
17280000,0.99960712753557,0.015041295491793,0.005013765163931,0.0050137651639309,0.0050137651639309,-0.0012300800334082,0.0012300800334082,1.8036213711934e-17,-1.9977330882725e-17,-9.0460471788799e-17,8.7070869456471e-17,-0.0012594683145788,0.0012594683145788,-0.0012594683145789,0.0012594683145788,-0.0012594683145788,0.0012594683145789,-0.0012594683145788,0.0012594683145789,-0.0012097630313995,0.0012097630313997,-0.0012097630313996,0.0012097630313996,9.0386944623239e-17,-8.6460593982321e-17,-1.4955425474959e-17,2.2396374629658e-17,-0.0012300800334081,0.0012300800334082,-0.0012594683145788,0.0012594683145788,-0.0012594683145787,0.0012594683145789,-0.0012594683145788,0.0012594683145788,-0.0012594683145788,0.0012594683145788,-0.0012097630313996,0.0012097630313995,-0.0012097630313996,0.0012097630313995,-0.0012097630313995,0.0012097630313996,-0.0012097630313996,0.0012097630313995,-1.4756902127946e-17,2.4822771093147e-17,-0.0012300800334081,0.0012300800334082,1.7190651307991e-17,-1.2337858381013e-17,-0.0012594683145788,0.0012594683145788,-0.0012594683145788,0.0012594683145788,-0.0012594683145788,0.0012594683145788,-0.0012594683145788,0.0012594683145788,-0.0012097630313995,0.0012097630313996,-0.0012097630313996,0.0012097630313996,0.65525533296421,0.67931440928827,1270536,32768,0.0051122074779351,0.005112207477935,0.005112207477935,22.699109751355,22.670708850427,9.6792878010837e-05,9.6792878010837e-05,9.6792878010837e-05,394065.59380379,0.01545501143341
17366400,0.99961665193087,0.015041429139882,0.005013809713294,0.0050138097132939,0.0050138097132939,-0.001229062908549,0.001229062908549,2.6227139955348e-17,-1.1889342671096e-17,-8.1637211921567e-17,9.6394114049513e-17,-0.0012585141752162,0.0012585141752161,-0.0012585141752162,0.0012585141752161,-0.0012585141752161,0.0012585141752162,-0.0012585141752161,0.0012585141752162,-0.0012087037039549,0.001208703703955,-0.0012087037039549,0.0012087037039549,9.3136860615193e-17,-8.4365069763853e-17,-1.2242273065785e-17,2.6116849207008e-17,-0.001229062908549,0.001229062908549,-0.0012585141752161,0.0012585141752161,-0.0012585141752161,0.0012585141752162,-0.0012585141752161,0.0012585141752161,-0.0012585141752161,0.0012585141752161,-0.0012087037039549,0.0012087037039549,-0.0012087037039549,0.0012087037039549,-0.0012087037039548,0.001208703703955,-0.001208703703955,0.0012087037039549,-1.1415092453232e-17,2.8307958740704e-17,-0.001229062908549,0.001229062908549,2.0646428089324e-17,-9.7497021532917e-18,-0.0012585141752161,0.0012585141752161,-0.0012585141752161,0.0012585141752161,-0.0012585141752161,0.0012585141752161,-0.0012585141752161,0.0012585141752161,-0.0012087037039549,0.0012087037039549,-0.0012087037039549,0.0012087037039549,0.64018039515228,0.62191897194069,1270536,32768,0.0051079911344417,0.0051079911344417,0.0051079911344417,22.262229141722,22.233659708085,9.3297833133777e-05,9.3297833133777e-05,9.3297833133777e-05,397962.38190152,0.015442166553324
17452800,0.99962570300591,0.015041552721839,0.0050138509072797,0.0050138509072797,0.0050138509072797,-0.0012280307975698,0.0012280307975698,2.2631661559451e-17,-1.5220123270976e-17,-8.6019430988959e-17,9.2423647109258e-17,-0.0012575446067552,0.0012575446067552,-0.0012575446067553,0.0012575446067552,-0.0012575446067552,0.0012575446067553,-0.0012575446067552,0.0012575446067553,-0.0012076312766099,0.0012076312766101,-0.00120763127661,0.00120763127661,9.5350028298557e-17,-8.2423952593062e-17,-9.2203065612578e-18,2.8587361969833e-17,-0.0012280307975697,0.0012280307975698,-0.0012575446067551,0.0012575446067552,-0.0012575446067551,0.0012575446067552,-0.0012575446067552,0.0012575446067552,-0.0012575446067552,0.0012575446067552,-0.00120763127661,0.00120763127661,-0.00120763127661,0.00120763127661,-0.0012076312766099,0.00120763127661,-0.00120763127661,0.00120763127661,-1.8738398143035e-17,2.0675838955548e-17,-0.0012280307975698,0.0012280307975698,1.3249595233961e-17,-1.6808310047078e-17,-0.0012575446067552,0.0012575446067552,-0.0012575446067552,0.0012575446067552,-0.0012575446067552,0.0012575446067552,-0.0012575446067552,0.0012575446067552,-0.0012076312766099,0.00120763127661,-0.00120763127661,0.00120763127661,0.62292518927807,0.56601547915426,1270536,32768,0.0051037126709558,0.0051037126709558,0.0051037126709557,21.82516065387,21.796610565742,8.9801285230957e-05,8.9801285230957e-05,8.9801285230957e-05,402674.12008599,0.015429132526584
17539200,0.99963430902344,0.015041666752105,0.0050138889173683,0.0050138889173682,0.0050138889173682,-0.0012269912505831,0.0012269912505831,2.574186066265e-17,-1.1595234008854e-17,-8.294599546854e-17,9.7041153106443e-17,-0.0012565645033775,0.0012565645033775,-0.0012565645033776,0.0012565645033775,-0.0012565645033775,0.0012565645033776,-0.0012565645033775,0.0012565645033775,-0.0012065547760461,0.0012065547760463,-0.0012065547760462,0.0012065547760462,9.1041336396725e-17,-8.8438474735892e-17,-1.4933367325291e-17,2.2808126756795e-17,-0.0012269912505831,0.0012269912505831,-0.0012565645033774,0.0012565645033775,-0.0012565645033774,0.0012565645033775,-0.0012565645033775,0.0012565645033775,-0.0012565645033775,0.0012565645033775,-0.0012065547760462,0.0012065547760461,-0.0012065547760462,0.0012065547760461,-0.001206554776046,0.0012065547760462,-0.0012065547760463,0.0012065547760461,-1.6374499770272e-17,2.2616956126339e-17,-0.0012269912505831,0.0012269912505831,1.432309185114e-17,-1.5499526500105e-17,-0.0012565645033775,0.0012565645033775,-0.0012565645033775,0.0012565645033775,-0.0012565645033775,0.0012565645033775,-0.0012565645033775,0.0012565645033775,-0.0012065547760461,0.0012065547760462,-0.0012065547760462,0.0012065547760461,0.6045182206287,0.51484623117264,1270536,32768,0.0050994033813745,0.0050994033813744,0.0050994033813744,21.388073787597,21.359561423399,8.6304590300775e-05,8.6304590300775e-05,8.6304590300775e-05,407996.99058597,0.015416004708532
17625600,0.99964249626278,0.015041772172901,0.0050139240576338,0.0050139240576337,0.0050139240576337,-0.0012259553024575,0.0012259553024575,1.9120739403948e-17,-1.8072977294714e-17,-8.8548765484232e-17,8.9864901747761e-17,-0.0012555811921272,0.0012555811921271,-0.0012555811921272,0.0012555811921271,-0.0012555811921271,0.0012555811921272,-0.0012555811921271,0.0012555811921272,-0.0012054877504728,0.0012054877504729,-0.0012054877504728,0.0012054877504728,1.0341595836052e-16,-7.4460960562885e-17,-1.360252562865e-18,3.6263598054325e-17,-0.0012259553024574,0.0012259553024575,-0.0012555811921271,0.0012555811921271,-0.0012555811921271,0.0012555811921272,-0.0012555811921271,0.0012555811921271,-0.0012555811921271,0.0012555811921271,-0.0012054877504728,0.0012054877504728,-0.0012054877504728,0.0012054877504728,-0.0012054877504727,0.0012054877504729,-0.0012054877504729,0.0012054877504728,-1.7300942056331e-17,2.1558164942271e-17,-0.0012259553024575,0.0012259553024575,1.4367208150477e-17,-1.5514231933217e-17,-0.0012555811921271,0.0012555811921271,-0.0012555811921271,0.0012555811921271,-0.0012555811921271,0.0012555811921271,-0.0012555811921271,0.0012555811921271,-0.0012054877504728,0.0012054877504728,-0.0012054877504728,0.0012054877504728,0.58748811654318,0.47920502092113,1270536,32768,0.0050951090059558,0.0050951090059558,0.0050951090059558,20.950985124445,20.922512281056,8.2807880995557e-05,8.2807880995557e-05,8.2807880995557e-05,413583.37966757,0.015402922462913
17712000,0.99965028948185,0.015041869575516,0.0050139565251722,0.0050139565251721,0.0050139565251721,-0.0012249568766544,0.0012249568766544,2.237431647999e-17,-1.4903956459067e-17,-8.4798880040658e-17,9.1850135217888e-17,-0.0012546175536341,0.001254617553634,-0.0012546175536341,0.001254617553634,-0.001254617553634,0.0012546175536341,-0.001254617553634,0.0012546175536341,-0.0012044730035729,0.001204473003573,-0.0012044730035729,0.0012044730035729,9.3122155182081e-17,-8.309304979966e-17,-1.1286419913501e-17,2.677859369705e-17,-0.0012249568766544,0.0012249568766544,-0.001254617553634,0.001254617553634,-0.001254617553634,0.0012546175536341,-0.001254617553634,0.001254617553634,-0.001254617553634,0.001254617553634,-0.0012044730035729,0.0012044730035729,-0.0012044730035729,0.0012044730035729,-0.0012044730035728,0.001204473003573,-0.001204473003573,0.0012044730035729,-2.0322908560858e-17,1.85435511543e-17,-0.0012249568766544,0.0012249568766544,1.1014369400928e-17,-1.9661164070816e-17,-0.001254617553634,0.001254617553634,-0.001254617553634,0.001254617553634,-0.001254617553634,0.001254617553634,-0.001254617553634,0.001254617553634,-0.0012044730035729,0.0012044730035729,-0.0012044730035729,0.0012044730035729,0.57027813485952,0.44356381066962,1270536,32768,0.0050909701676618,0.0050909701676618,0.0050909701676618,20.514547890647,20.486155652505,7.9316383125175e-05,7.9316383125175e-05,7.9316383125175e-05,418317.5812765,0.015390314217706
17798400,0.99965771868594,0.01504195955438,0.0050139865181267,0.0050139865181267,0.0050139865181266,-0.0012239952388656,0.0012239952388656,2.1286114429698e-17,-1.5977453076246e-17,-8.6034136422071e-17,9.1570731988759e-17,-0.0012536845308362,0.0012536845308361,-0.0012536845308362,0.0012536845308361,-0.0012536845308362,0.0012536845308362,-0.0012536845308361,0.0012536845308362,-0.0012034975396939,0.001203497539694,-0.0012034975396939,0.0012034975396939,9.293833726818e-17,-8.4195957283064e-17,-1.2624614326698e-17,2.5528631882525e-17,-0.0012239952388656,0.0012239952388656,-0.0012536845308361,0.0012536845308362,-0.0012536845308361,0.0012536845308362,-0.0012536845308362,0.0012536845308361,-0.0012536845308362,0.0012536845308361,-0.001203497539694,0.0012034975396939,-0.0012034975396939,0.0012034975396939,-0.0012034975396938,0.001203497539694,-0.001203497539694,0.0012034975396939,-1.5606140890167e-17,2.3028708253476e-17,-0.0012239952388656,0.0012239952388656,1.6367147053716e-17,-1.4220153819356e-17,-0.0012536845308362,0.0012536845308362,-0.0012536845308361,0.0012536845308361,-0.0012536845308361,0.0012536845308362,-0.0012536845308361,0.0012536845308362,-0.0012034975396939,0.0012034975396939,-0.0012034975396939,0.0012034975396939,0.55265296882269,0.40792260041811,1270536,32768,0.0050869838171454,0.0050869838171453,0.0050869838171453,20.094062596151,20.066711756922,7.5952500769208e-05,7.5952500769208e-05,7.5952500769208e-05,423147.59222966,0.015378170625208
17884800,0.99966480467951,0.015042042556972,0.0050140141856575,0.0050140141856575,0.0050140141856574,-0.0012230374285942,0.0012230374285942,2.2815479473352e-17,-1.4198095669688e-17,-8.455624039431e-17,9.3350089395318e-17,-0.0012527523619272,0.0012527523619271,-0.0012527523619272,0.0012527523619271,-0.0012527523619272,0.0012527523619272,-0.0012527523619271,0.0012527523619272,-0.0012025265057556,0.0012025265057558,-0.0012025265057557,0.0012025265057557,9.5805896725031e-17,-8.1423983141442e-17,-9.5217679400549e-18,2.8749121734065e-17,-0.0012230374285942,0.0012230374285942,-0.0012527523619271,0.0012527523619272,-0.0012527523619271,0.0012527523619272,-0.0012527523619272,0.0012527523619272,-0.0012527523619272,0.0012527523619271,-0.0012025265057557,0.0012025265057557,-0.0012025265057557,0.0012025265057557,-0.0012025265057556,0.0012025265057558,-0.0012025265057558,0.0012025265057557,-1.8220031625835e-17,2.0411141159531e-17,-0.0012230374285942,0.0012230374285942,1.3793696259106e-17,-1.6837720913302e-17,-0.0012527523619272,0.0012527523619271,-0.0012527523619271,0.0012527523619271,-0.0012527523619271,0.0012527523619272,-0.0012527523619271,0.0012527523619272,-0.0012025265057557,0.0012025265057557,-0.0012025265057557,0.0012025265057557,0.53452523417127,0.37228139016661,1270536,32768,0.0050830133158214,0.0050830133158214,0.0050830133158214,19.674516809992,19.647267861338,7.2596134479934e-05,7.2596134479934e-05,7.2596134479934e-05,428233.79611853,0.01536607546043
17971200,0.99967156649833,0.015042120276362,0.0050140400921208,0.0050140400921208,0.0050140400921208,-0.0012220801347306,0.0012220801347306,2.1991975219077e-17,-1.4896603742511e-17,-8.6519415714769e-17,9.3305973095982e-17,-0.0012518185662913,0.0012518185662913,-0.0012518185662914,0.0012518185662912,-0.0012518185662913,0.0012518185662913,-0.0012518185662913,0.0012518185662913,-0.0012015564180458,0.0012015564180459,-0.0012015564180459,0.0012015564180459,9.6717633577978e-17,-8.2688650389079e-17,-1.0249686879102e-17,2.9454982523444e-17,-0.0012220801347305,0.0012220801347306,-0.0012518185662912,0.0012518185662913,-0.0012518185662912,0.0012518185662913,-0.0012518185662913,0.0012518185662913,-0.0012518185662913,0.0012518185662912,-0.0012015564180459,0.0012015564180458,-0.0012015564180459,0.0012015564180458,-0.0012015564180457,0.0012015564180459,-0.0012015564180459,0.0012015564180458,-1.7032567902036e-17,2.1778746438952e-17,-0.0012220801347305,0.0012220801347306,1.4984836341183e-17,-1.7323000205999e-17,-0.0012518185662913,0.0012518185662913,-0.0012518185662913,0.0012518185662912,-0.0012518185662912,0.0012518185662913,-0.0012518185662913,0.0012518185662913,-0.0012015564180458,0.0012015564180459,-0.0012015564180459,0.0012015564180458,0.52453685717938,0.38445515783111,1270536,32768,0.0050790449394521,0.0050790449394521,0.0050790449394521,19.255063162207,19.227823965754,6.9240505297657e-05,6.9240505297657e-05,6.9240505297657e-05,433624.61059173,0.015353986908314
18057600,0.99967802189359,0.015042194439393,0.005014064813131,0.0050140648131309,0.0050140648131309,-0.0012212610906343,0.0012212610906343,2.2208880357479e-17,-1.5065716223299e-17,-8.6482652131989e-17,9.3688314356895e-17,-0.0012509735539592,0.0012509735539591,-0.0012509735539592,0.0012509735539591,-0.0012509735539591,0.0012509735539592,-0.0012509735539591,0.0012509735539592,-0.0012007668759244,0.0012007668759246,-0.0012007668759245,0.0012007668759245,9.7136738421672e-17,-8.2504832475178e-17,-9.8673456181881e-18,2.9749091185685e-17,-0.0012212610906342,0.0012212610906343,-0.0012509735539591,0.0012509735539592,-0.0012509735539591,0.0012509735539592,-0.0012509735539591,0.0012509735539591,-0.0012509735539592,0.0012509735539591,-0.0012007668759245,0.0012007668759245,-0.0012007668759245,0.0012007668759245,-0.0012007668759244,0.0012007668759246,-0.0012007668759246,0.0012007668759245,-1.7874453947701e-17,2.0881715019116e-17,-0.0012212610906343,0.0012212610906343,1.474954941139e-17,-1.7337705639111e-17,-0.0012509735539591,0.0012509735539591,-0.0012509735539591,0.0012509735539591,-0.0012509735539591,0.0012509735539591,-0.0012509735539591,0.0012509735539592,-0.0012007668759245,0.0012007668759245,-0.0012007668759245,0.0012007668759245,0.52434282438387,0.43343334366343,1270536,32768,0.0050756496584646,0.0050756496584646,0.0050756496584645,18.835618315531,18.808380070171,6.5884946524248e-05,6.5884946524248e-05,6.5884946524248e-05,434483.58326677,0.015343644419995
18144000,0.99968418746137,0.015042265550034,0.0050140885166779,0.0050140885166778,0.0050140885166778,-0.0012205734674099,0.0012205734674099,2.1716248348226e-17,-1.539658846832e-17,-8.6791466227342e-17,9.3114802465525e-17,-0.0012502159498551,0.001250215949855,-0.0012502159498551,0.001250215949855,-0.001250215949855,0.0012502159498551,-0.001250215949855,0.0012502159498551,-0.001200140230219,0.0012001402302191,-0.001200140230219,0.001200140230219,9.6688222711754e-17,-8.298275905132e-17,-1.030850861155e-17,2.9263811892987e-17,-0.0012205734674098,0.0012205734674099,-0.001250215949855,0.001250215949855,-0.001250215949855,0.0012502159498551,-0.001250215949855,0.001250215949855,-0.001250215949855,0.001250215949855,-0.001200140230219,0.001200140230219,-0.001200140230219,0.001200140230219,-0.0012001402302189,0.0012001402302191,-0.0012001402302191,0.001200140230219,-1.8293558791395e-17,2.0499373758203e-17,-0.0012205734674098,0.0012205734674098,1.4381913583589e-17,-1.7528876269568e-17,-0.001250215949855,0.001250215949855,-0.001250215949855,0.001250215949855,-0.001250215949855,0.001250215949855,-0.001250215949855,0.001250215949855,-0.001200140230219,0.001200140230219,-0.001200140230219,0.001200140230219,0.52641398209298,0.46764876411549,1270536,32768,0.0050727991367993,0.0050727991367993,0.0050727991367992,18.41617432673,18.388936174587,6.2529394613836e-05,6.2529394613836e-05,6.2529394613836e-05,430746.97452119,0.015334961676993
18230400,0.99969007873144,0.015042333571554,0.0050141111905181,0.005014111190518,0.005014111190518,-0.0012198766811276,0.0012198766811276,2.2451520003828e-17,-1.4595142363713e-17,-8.6041489138627e-17,9.4291237114489e-17,-0.0012494571176685,0.0012494571176685,-0.0012494571176685,0.0012494571176684,-0.0012494571176685,0.0012494571176685,-0.0012494571176685,0.0012494571176685,-0.0011994887328086,0.0011994887328087,-0.0011994887328086,0.0011994887328086,9.7092622122335e-17,-8.2416599876506e-17,-9.8011711691839e-18,2.9881440083693e-17,-0.0012198766811276,0.0012198766811276,-0.0012494571176684,0.0012494571176685,-0.0012494571176684,0.0012494571176685,-0.0012494571176685,0.0012494571176685,-0.0012494571176685,0.0012494571176684,-0.0011994887328086,0.0011994887328086,-0.0011994887328086,0.0011994887328086,-0.0011994887328085,0.0011994887328087,-0.0011994887328087,0.0011994887328086,-1.8065624578158e-17,2.0661133522436e-17,-0.0012198766811276,0.0012198766811276,1.4573084214045e-17,-1.7234767607327e-17,-0.0012494571176685,0.0012494571176685,-0.0012494571176685,0.0012494571176684,-0.0012494571176684,0.0012494571176685,-0.0012494571176684,0.0012494571176685,-0.0011994887328086,0.0011994887328086,-0.0011994887328086,0.0011994887328086,0.52697668113137,0.47962916559167,1270536,32768,0.0050699105740984,0.0050699105740983,0.0050699105740983,17.996730421997,17.969492279003,5.9173843375978e-05,5.9173843375978e-05,5.9173843375978e-05,427124.06146178,0.015326163205344
18316800,0.99969572095581,0.015042398838073,0.0050141329460243,0.0050141329460243,0.0050141329460243,-0.001219187715117,0.001219187715117,2.172727742306e-17,-1.539658846832e-17,-8.7070869456471e-17,9.3497143726438e-17,-0.0012487282409787,0.0012487282409786,-0.0012487282409787,0.0012487282409786,-0.0012487282409787,0.0012487282409787,-0.0012487282409786,0.0012487282409787,-0.0011988222496689,0.0011988222496691,-0.001198822249669,0.001198822249669,9.7129385705116e-17,-8.2872468302979e-17,-9.9041092009683e-18,2.9454982523444e-17,-0.001219187715117,0.001219187715117,-0.0012487282409786,0.0012487282409787,-0.0012487282409786,0.0012487282409787,-0.0012487282409786,0.0012487282409786,-0.0012487282409787,0.0012487282409786,-0.001198822249669,0.001198822249669,-0.001198822249669,0.0011988222496689,-0.0011988222496689,0.0011988222496691,-0.0011988222496691,0.001198822249669,-1.8771485367537e-17,1.97641021026e-17,-0.001219187715117,0.001219187715117,1.3499587596865e-17,-1.7911217530482e-17,-0.0012487282409786,0.0012487282409786,-0.0012487282409786,0.0012487282409786,-0.0012487282409786,0.0012487282409787,-0.0012487282409786,0.0012487282409787,-0.0011988222496689,0.001198822249669,-0.001198822249669,0.001198822249669,0.52793783384439,0.49160956706785,1270536,32768,0.0050670544043638,0.0050670544043638,0.0050670544043638,17.607584095351,17.582248155016,5.6060672762811e-05,5.6060672762811e-05,5.6060672762811e-05,425067.13913054,0.015317463425285
18403200,0.99970121918013,0.015042462619765,0.0050141542065884,0.0050141542065883,0.0050141542065883,-0.0012190138148961,0.0012190138148961,2.1348612520424e-17,-1.574951886301e-17,-8.7556148749169e-17,9.3188329631085e-17,-0.0012485150820859,0.0012485150820859,-0.001248515082086,0.0012485150820859,-0.0012485150820859,0.001248515082086,-0.0012485150820859,0.0012485150820859,-0.001198670432625,0.0011986704326251,-0.001198670432625,0.001198670432625,9.7945537242835e-17,-8.2276898261941e-17,-9.1467793956975e-18,2.9646153153901e-17,-0.0012190138148961,0.0012190138148961,-0.0012485150820858,0.0012485150820859,-0.0012485150820858,0.0012485150820859,-0.0012485150820859,0.0012485150820859,-0.0012485150820859,0.0012485150820859,-0.0011986704326251,0.001198670432625,-0.001198670432625,0.001198670432625,-0.0011986704326249,0.0011986704326251,-0.0011986704326251,0.001198670432625,-1.8914863340379e-17,1.9734691236376e-17,-0.0012190138148961,0.0012190138148961,1.3396649565081e-17,-1.7705341466913e-17,-0.0012485150820859,0.0012485150820859,-0.0012485150820859,0.0012485150820859,-0.0012485150820859,0.0012485150820859,-0.0012485150820859,0.0012485150820859,-0.001198670432625,0.001198670432625,-0.0011986704326251,0.001198670432625,0.52944556179733,0.50358996854403,1270536,32768,0.0050663335028783,0.0050663335028783,0.0050663335028783,17.488346827887,17.480018791454,5.5106774623095e-05,5.5106774623095e-05,5.5106774623095e-05,422891.98312734,0.015315267527661
18489600,0.99970658301181,0.015042525086298,0.0050141750287661,0.0050141750287661,0.005014175028766,-0.0012188675088898,0.0012188675088898,2.0811864211834e-17,-1.6293619888156e-17,-8.8313478554439e-17,9.2555996007267e-17,-0.0012483402698419,0.0012483402698418,-0.0012483402698419,0.0012483402698418,-0.0012483402698418,0.0012483402698419,-0.0012483402698418,0.0012483402698419,-0.0011985393325587,0.0011985393325588,-0.0011985393325587,0.0011985393325587,9.7372025351464e-17,-8.2872468302979e-17,-9.6394114049513e-18,2.9175579294315e-17,-0.0012188675088897,0.0012188675088898,-0.0012483402698418,0.0012483402698418,-0.0012483402698418,0.0012483402698419,-0.0012483402698418,0.0012483402698418,-0.0012483402698418,0.0012483402698418,-0.0011985393325587,0.0011985393325587,-0.0011985393325587,0.0011985393325587,-0.0011985393325586,0.0011985393325588,-0.0011985393325588,0.0011985393325587,-1.8238413417225e-17,2.0469962891979e-17,-0.0012188675088897,0.0012188675088898,1.3911339724003e-17,-1.7367116505336e-17,-0.0012483402698418,0.0012483402698418,-0.0012483402698418,0.0012483402698418,-0.0012483402698418,0.0012483402698418,-0.0012483402698418,0.0012483402698418,-0.0011985393325587,0.0011985393325587,-0.0011985393325587,0.0011985393325587,0.53150944183776,0.51557037002021,1270536,32768,0.0050657269706169,0.0050657269706169,0.0050657269706169,17.384590540697,17.377789427893,5.4276724325573e-05,5.4276724325573e-05,5.4276724325573e-05,420934.59340732,0.015313420111077
18576000,0.99971181678764,0.015042584617594,0.0050141948725313,0.0050141948725312,0.0050141948725312,-0.0012187226532425,0.0012187226532425,2.0355995785361e-17,-1.6793604613965e-17,-8.846053288556e-17,9.2203065612578e-17,-0.0012481711425116,0.0012481711425116,-0.0012481711425117,0.0012481711425116,-0.0012481711425116,0.0012481711425116,-0.0012481711425116,0.0012481711425116,-0.0011984072960502,0.0011984072960503,-0.0011984072960503,0.0011984072960503,9.8239645905076e-17,-8.2085727631485e-17,-8.8232598672323e-18,3.0087316147262e-17,-0.0012187226532424,0.0012187226532425,-0.0012481711425115,0.0012481711425116,-0.0012481711425115,0.0012481711425116,-0.0012481711425116,0.0012481711425116,-0.0012481711425116,0.0012481711425116,-0.0011984072960503,0.0011984072960502,-0.0011984072960503,0.0011984072960502,-0.0011984072960502,0.0011984072960503,-0.0011984072960503,0.0011984072960503,-1.8576638378802e-17,1.9969978166169e-17,-0.0012187226532424,0.0012187226532424,1.3367238698857e-17,-1.8028860995378e-17,-0.0012481711425116,0.0012481711425116,-0.0012481711425116,0.0012481711425116,-0.0012481711425116,0.0012481711425116,-0.0012481711425116,0.0012481711425116,-0.0011984072960502,0.0011984072960503,-0.0011984072960503,0.0011984072960503,0.51911282509141,0.44491818485885,1270536,32768,0.005065126443288,0.005065126443288,0.0050651264432879,17.2822145703,17.275560064332,5.3457716562401e-05,5.3457716562401e-05,5.3457716562401e-05,418953.22553697,0.015311591015465
18662400,0.99971692427456,0.01504264414666,0.0050142147155535,0.0050142147155535,0.0050142147155535,-0.001218366025355,0.001218366025355,2.0830246003224e-17,-1.6161270990147e-17,-8.8306125837883e-17,9.2703050338387e-17,-0.0012478646726843,0.0012478646726843,-0.0012478646726844,0.0012478646726843,-0.0012478646726843,0.0012478646726844,-0.0012478646726843,0.0012478646726843,-0.0011979988685848,0.0011979988685849,-0.0011979988685848,0.0011979988685848,9.7511726966029e-17,-8.2835704720199e-17,-9.4776516407187e-18,2.9219695593651e-17,-0.001218366025355,0.001218366025355,-0.0012478646726842,0.0012478646726843,-0.0012478646726842,0.0012478646726843,-0.0012478646726843,0.0012478646726843,-0.0012478646726843,0.0012478646726843,-0.0011979988685848,0.0011979988685848,-0.0011979988685848,0.0011979988685848,-0.0011979988685847,0.0011979988685849,-0.0011979988685849,0.0011979988685848,-1.8186944401333e-17,2.0528784624427e-17,-0.001218366025355,0.001218366025355,1.3690758227322e-17,-1.7455349104008e-17,-0.0012478646726843,0.0012478646726843,-0.0012478646726843,0.0012478646726843,-0.0012478646726843,0.0012478646726843,-0.0012478646726843,0.0012478646726843,-0.0011979988685848,0.0011979988685848,-0.0011979988685848,0.0011979988685848,0.53191617332912,0.54534554436908,1270536,32768,0.0050636480093206,0.0050636480093206,0.0050636480093206,17.179970898247,17.17333070077,5.2639767185977e-05,5.2639767185977e-05,5.2639767185977e-05,424365.67660155,0.015307087489219
18748800,0.99972190907705,0.015042704600756,0.0050142348669186,0.0050142348669186,0.0050142348669185,-0.0012184030635477,0.0012184030635477,2.1216263622416e-17,-1.6050980241807e-17,-8.7747319379625e-17,9.2908926401956e-17,-0.0012478173557147,0.0012478173557147,-0.0012478173557148,0.0012478173557147,-0.0012478173557147,0.0012478173557148,-0.0012478173557147,0.0012478173557147,-0.0011981130869548,0.001198113086955,-0.0011981130869549,0.0011981130869549,9.876904149711e-17,-8.098282014808e-17,-7.8085849825006e-18,3.0866704102201e-17,-0.0012184030635476,0.0012184030635477,-0.0012478173557146,0.0012478173557147,-0.0012478173557146,0.0012478173557147,-0.0012478173557147,0.0012478173557147,-0.0012478173557147,0.0012478173557147,-0.0011981130869549,0.0011981130869549,-0.0011981130869549,0.0011981130869549,-0.0011981130869548,0.001198113086955,-0.001198113086955,0.0011981130869549,-1.7128153217265e-17,2.1455226910487e-17,-0.0012184030635476,0.0012184030635476,1.4602495080269e-17,-1.6602433983509e-17,-0.0012478173557147,0.0012478173557147,-0.0012478173557147,0.0012478173557147,-0.0012478173557147,0.0012478173557147,-0.0012478173557147,0.0012478173557147,-0.0011981130869548,0.0011981130869549,-0.0011981130869549,0.0011981130869549,0.55350340941735,0.64489692877595,1270536,32768,0.0050638015618323,0.0050638015618323,0.0050638015618323,17.077740132017,17.071101337209,5.1821921056133e-05,5.1821921056133e-05,5.1821921056133e-05,416178.28614371,0.015307555567516
18835200,0.9997267746791,0.015042765164343,0.0050142550547811,0.0050142550547811,0.0050142550547811,-0.001218486136042,0.001218486136042,1.9322939109239e-17,-1.7771515915917e-17,-8.9909018047097e-17,9.0776638600708e-17,-0.0012478032091008,0.0012478032091008,-0.0012478032091009,0.0012478032091008,-0.0012478032091008,0.0012478032091009,-0.0012478032091008,0.0012478032091008,-0.0011982710162657,0.0011982710162658,-0.0011982710162657,0.0011982710162657,9.7644075864037e-17,-8.2497479758622e-17,-9.551178806279e-18,2.9352044491659e-17,-0.001218486136042,0.001218486136042,-0.0012478032091007,0.0012478032091008,-0.0012478032091007,0.0012478032091008,-0.0012478032091008,0.0012478032091008,-0.0012478032091008,0.0012478032091008,-0.0011982710162657,0.0011982710162657,-0.0011982710162657,0.0011982710162657,-0.0011982710162656,0.0011982710162658,-0.0011982710162658,0.0011982710162657,-1.7804603140419e-17,2.1028769350237e-17,-0.001218486136042,0.001218486136042,1.3911339724003e-17,-1.7117124142431e-17,-0.0012478032091008,0.0012478032091008,-0.0012478032091008,0.0012478032091008,-0.0012478032091008,0.0012478032091008,-0.0012478032091008,0.0012478032091008,-0.0011982710162657,0.0011982710162657,-0.0011982710162657,0.0011982710162657,0.56803532056645,0.67141121253251,1270536,32768,0.005064145881836,0.0050641458818359,0.0050641458818359,16.975510630779,16.968871973648,5.1004085046231e-05,5.1004085046231e-05,5.1004085046231e-05,405980.73067484,0.015308604913465
18921600,0.99973152445188,0.015042825729344,0.0050142752431146,0.0050142752431146,0.0050142752431146,-0.0012184212525768,0.0012184212525768,2.1734630139616e-17,-1.5345119452428e-17,-8.7254687370371e-17,9.3541260025774e-17,-0.0012476978818973,0.0012476978818973,-0.0012476978818974,0.0012476978818973,-0.0012476978818973,0.0012476978818974,-0.0012476978818973,0.0012476978818974,-0.0011982237247771,0.0011982237247773,-0.0011982237247772,0.0011982237247772,9.8577870866653e-17,-8.1696033654015e-17,-8.3600387242026e-18,3.0440246541951e-17,-0.0012184212525768,0.0012184212525768,-0.0012476978818972,0.0012476978818973,-0.0012476978818972,0.0012476978818973,-0.0012476978818973,0.0012476978818973,-0.0012476978818973,0.0012476978818973,-0.0011982237247772,0.0011982237247772,-0.0011982237247772,0.0011982237247772,-0.0011982237247771,0.0011982237247773,-0.0011982237247773,0.0011982237247772,-1.7870777589423e-17,2.0984653050901e-17,-0.0012184212525768,0.0012184212525768,1.417603752002e-17,-1.6808310047078e-17,-0.0012476978818973,0.0012476978818973,-0.0012476978818973,0.0012476978818973,-0.0012476978818973,0.0012476978818973,-0.0012476978818973,0.0012476978818973,-0.0011982237247771,0.0011982237247772,-0.0011982237247772,0.0011982237247772,0.58183347061537,0.69792549628906,1270536,32768,0.0050638768047509,0.0050638768047509,0.0050638768047508,16.8732812537,16.866642610087,5.0186250029597e-05,5.0186250029597e-05,5.0186250029597e-05,400535.12522797,0.015307785699301
19008000,0.99973616165812,0.015042887147182,0.0050142957157275,0.0050142957157275,0.0050142957157275,-0.0012183328814332,0.0012183328814332,2.2683130575343e-17,-1.4617200513382e-17,-8.6622353746553e-17,9.4541229477394e-17,-0.0012475823165328,0.0012475823165328,-0.0012475823165329,0.0012475823165328,-0.0012475823165328,0.0012475823165329,-0.0012475823165328,0.0012475823165329,-0.0011981457189074,0.0011981457189075,-0.0011981457189074,0.0011981457189074,9.7923479093167e-17,-8.240924715995e-17,-9.0732522301372e-18,2.9616742287676e-17,-0.0012183328814331,0.0012183328814332,-0.0012475823165328,0.0012475823165328,-0.0012475823165327,0.0012475823165329,-0.0012475823165328,0.0012475823165328,-0.0012475823165328,0.0012475823165328,-0.0011981457189074,0.0011981457189074,-0.0011981457189074,0.0011981457189074,-0.0011981457189073,0.0011981457189075,-0.0011981457189075,0.0011981457189074,-1.7624461584797e-17,2.1043474783349e-17,-0.0012183328814331,0.0012183328814331,1.4470146182261e-17,-1.6675961149069e-17,-0.0012475823165328,0.0012475823165328,-0.0012475823165328,0.0012475823165328,-0.0012475823165328,0.0012475823165328,-0.0012475823165328,0.0012475823165328,-0.0011981457189074,0.0011981457189074,-0.0011981457189074,0.0011981457189074,0.60430968524454,0.77244247275956,1270536,32768,0.0050635103645566,0.0050635103645566,0.0050635103645566,16.771051888811,16.764413246525,4.9368415110488e-05,4.9368415110488e-05,4.9368415110488e-05,395726.88736801,0.015306669887001
19094400,0.99974070034326,0.015042948541441,0.0050143161804805,0.0050143161804805,0.0050143161804804,-0.0012184052385002,0.0012184052385002,2.3168409868041e-17,-1.4028983188899e-17,-8.620324890286e-17,9.4997097903868e-17,-0.0012475994727361,0.001247599472736,-0.0012475994727361,0.001247599472736,-0.001247599472736,0.0012475994727361,-0.001247599472736,0.0012475994727361,-0.0011982563488626,0.0011982563488627,-0.0011982563488626,0.0011982563488626,9.9658720200389e-17,-8.1019583730861e-17,-7.8159376990566e-18,3.0925525834649e-17,-0.0012184052385001,0.0012184052385002,-0.001247599472736,0.0012475994727361,-0.001247599472736,0.0012475994727361,-0.001247599472736,0.001247599472736,-0.0012475994727361,0.001247599472736,-0.0011982563488626,0.0011982563488626,-0.0011982563488626,0.0011982563488626,-0.0011982563488625,0.0011982563488627,-0.0011982563488627,0.0011982563488626,-1.8231060700669e-17,2.0440552025755e-17,-0.0012184052385001,0.0012184052385001,1.3778990825994e-17,-1.7131829575543e-17,-0.001247599472736,0.001247599472736,-0.001247599472736,0.001247599472736,-0.001247599472736,0.001247599472736,-0.001247599472736,0.0012475994727361,-0.0011982563488626,0.0011982563488626,-0.0011982563488626,0.0011982563488626,0.61714714123453,0.77233723771011,1270536,32768,0.0050638102385881,0.0050638102385881,0.0050638102385881,16.706842212133,16.702590596921,4.8854737697059e-05,4.8854737697059e-05,4.8854737697059e-05,387714.2354264,0.015307583774726
19180800,0.99974522010032,0.015043013247784,0.0050143377492613,0.0050143377492613,0.0050143377492612,-0.001218863215476,0.001218863215476,2.2304465672708e-17,-1.4999541774295e-17,-8.6989989574354e-17,9.4452996878722e-17,-0.001248048057986,0.0012480480579859,-0.001248048057986,0.0012480480579859,-0.0012480480579859,0.001248048057986,-0.0012480480579859,0.001248048057986,-0.0011987086651992,0.0011987086651993,-0.0011987086651992,0.0011987086651992,9.8224940471964e-17,-8.2548948774514e-17,-8.7644381347841e-18,2.9763796618797e-17,-0.001218863215476,0.001218863215476,-0.0012480480579859,0.0012480480579859,-0.0012480480579859,0.001248048057986,-0.0012480480579859,0.0012480480579859,-0.0012480480579859,0.0012480480579859,-0.0011987086651992,0.0011987086651992,-0.0011987086651992,0.0011987086651992,-0.0011987086651991,0.0011987086651993,-0.0011987086651993,0.0011987086651992,-1.7639167017909e-17,2.0911125885341e-17,-0.001218863215476,0.001218863215476,1.4220153819356e-17,-1.6631844849733e-17,-0.0012480480579859,0.0012480480579859,-0.0012480480579859,0.0012480480579859,-0.0012480480579859,0.0012480480579859,-0.0012480480579859,0.0012480480579859,-0.0011987086651992,0.0011987086651992,-0.0011987086651992,0.0011987086651992,0.653033251774,0.91425068683464,1270536,32768,0.0050657087599192,0.0050657087599192,0.0050657087599192,16.915531236747,16.928491014325,5.0524249893977e-05,5.0524249893977e-05,5.0524249893977e-05,384019.90185653,0.015313366707689
19267200,0.99974972431522,0.015043078957556,0.0050143596525186,0.0050143596525186,0.0050143596525185,-0.0012195976027795,0.0012195976027795,2.2003004293911e-17,-1.5109832522635e-17,-8.73502726856e-17,9.4055950184696e-17,-0.0012486960213304,0.0012486960213304,-0.0012486960213305,0.0012486960213304,-0.0012486960213304,0.0012486960213304,-0.0012486960213304,0.0012486960213304,-0.0011995132072966,0.0011995132072967,-0.0011995132072966,0.0011995132072966,9.9496960436156e-17,-8.1357808692438e-17,-7.9924028964013e-18,3.0881409535313e-17,-0.0012195976027795,0.0012195976027795,-0.0012486960213303,0.0012486960213304,-0.0012486960213303,0.0012486960213304,-0.0012486960213304,0.0012486960213304,-0.0012486960213304,0.0012486960213304,-0.0011995132072967,0.0011995132072966,-0.0011995132072967,0.0011995132072966,-0.0011995132072965,0.0011995132072967,-0.0011995132072967,0.0011995132072966,-1.8010479203988e-17,2.0514079191315e-17,-0.0012195976027795,0.0012195976027795,1.3337827832633e-17,-1.747005453712e-17,-0.0012486960213304,0.0012486960213304,-0.0012486960213304,0.0012486960213303,-0.0012486960213304,0.0012486960213304,-0.0012486960213304,0.0012486960213304,-0.0011995132072966,0.0011995132072967,-0.0011995132072967,0.0011995132072967,0.66540955902663,0.87574310507145,1270536,32768,0.0050687531376037,0.0050687531376037,0.0050687531376036,17.13988620138,17.154391431729,5.2319089611036e-05,5.2319089611036e-05,5.2319089611036e-05,372160.90116267,0.015322640457847
19353600,0.99975421218825,0.015043144960994,0.0050143816536648,0.0050143816536648,0.0050143816536647,-0.0012200349501481,0.0012200349501481,2.2863272130966e-17,-1.4278975551804e-17,-8.6975284141242e-17,9.4467702311834e-17,-0.0012491551230919,0.0012491551230919,-0.001249155123092,0.0012491551230919,-0.0012491551230919,0.0012491551230919,-0.0012491551230919,0.0012491551230919,-0.0011999159105121,0.0011999159105123,-0.0011999159105122,0.0011999159105122,1.0079103855002e-16,-7.9924028964013e-17,-6.3159835216271e-18,3.2028433318053e-17,-0.001220034950148,0.0012200349501481,-0.0012491551230918,0.0012491551230919,-0.0012491551230918,0.0012491551230919,-0.0012491551230919,0.0012491551230919,-0.0012491551230919,0.0012491551230919,-0.0011999159105122,0.0011999159105122,-0.0011999159105122,0.0011999159105122,-0.0011999159105121,0.0011999159105123,-0.0011999159105123,0.0011999159105122,-1.6848749988136e-17,2.141111061115e-17,-0.001220034950148,0.001220034950148,1.4308386418028e-17,-1.6220092722595e-17,-0.0012491551230919,0.0012491551230919,-0.0012491551230919,0.0012491551230919,-0.0012491551230919,0.0012491551230919,-0.0012491551230919,0.0012491551230919,-0.0011999159105122,0.0011999159105122,-0.0011999159105122,0.0011999159105122,0.67074246962284,0.83723552330826,1270536,32768,0.0050705660812862,0.0050705660812861,0.0050705660812861,17.365638226537,17.380291849132,5.4125105812295e-05,5.4125105812295e-05,5.4125105812295e-05,369970.14108334,0.015328162881395
19440000,0.99975868255013,0.015043210782538,0.0050144035941792,0.0050144035941792,0.0050144035941792,-0.0012204170361568,0.0012204170361568,2.2506665377998e-17,-1.4492204331929e-17,-8.6857640676346e-17,9.4467702311834e-17,-0.0012495800996489,0.0012495800996489,-0.001249580099649,0.0012495800996489,-0.0012495800996489,0.001249580099649,-0.0012495800996489,0.0012495800996489,-0.0012002564200269,0.0012002564200271,-0.001200256420027,0.001200256420027,9.8761688780554e-17,-8.1997495032812e-17,-8.2203371096381e-18,3.014613787971e-17,-0.0012204170361567,0.0012204170361568,-0.0012495800996488,0.0012495800996489,-0.0012495800996488,0.0012495800996489,-0.0012495800996489,0.0012495800996489,-0.0012495800996489,0.0012495800996489,-0.001200256420027,0.001200256420027,-0.001200256420027,0.0012002564200269,-0.0012002564200269,0.0012002564200271,-0.001200256420027,0.001200256420027,-1.7664901525855e-17,2.0705249821772e-17,-0.0012204170361567,0.0012204170361568,1.3911339724003e-17,-1.6793604613965e-17,-0.0012495800996489,0.0012495800996489,-0.0012495800996489,0.0012495800996489,-0.0012495800996489,0.0012495800996489,-0.0012495800996489,0.0012495800996489,-0.0012002564200269,0.001200256420027,-0.001200256420027,0.001200256420027,0.67150101838779,0.79872794154507,1270536,32768,0.0050721499829234,0.0050721499829234,0.0050721499829233,17.591524161027,17.606192266536,5.5932193288217e-05,5.5932193288217e-05,5.5932193288217e-05,369678.0295804,0.01533298750183
19526400,0.99976313419657,0.01504327607237,0.0050144253574568,0.0050144253574567,0.0050144253574567,-0.0012207712284027,0.0012207712284027,2.1708895631669e-17,-1.5301003153092e-17,-8.7556148749169e-17,9.3967717586024e-17,-0.0012499843798115,0.0012499843798115,-0.0012499843798116,0.0012499843798115,-0.0012499843798115,0.0012499843798116,-0.0012499843798115,0.0012499843798116,-0.0012005704653855,0.0012005704653857,-0.0012005704653856,0.0012005704653856,9.9269026222919e-17,-8.1615153771899e-17,-7.4924181705914e-18,3.0690238904856e-17,-0.0012207712284027,0.0012207712284028,-0.0012499843798115,0.0012499843798115,-0.0012499843798114,0.0012499843798116,-0.0012499843798115,0.0012499843798115,-0.0012499843798115,0.0012499843798115,-0.0012005704653856,0.0012005704653856,-0.0012005704653856,0.0012005704653856,-0.0012005704653855,0.0012005704653857,-0.0012005704653857,0.0012005704653856,-1.7547258060958e-17,2.1043474783349e-17,-0.0012207712284027,0.0012207712284027,1.4131921220684e-17,-1.6440674219276e-17,-0.0012499843798115,0.0012499843798115,-0.0012499843798115,0.0012499843798115,-0.0012499843798115,0.0012499843798115,-0.0012499843798115,0.0012499843798115,-0.0012005704653856,0.0012005704653856,-0.0012005704653856,0.0012005704653856,0.66887871722077,0.76022035978189,1270536,32768,0.0050736182851396,0.0050736182851396,0.0050736182851396,17.817423158658,17.83209268394,5.7739385269267e-05,5.7739385269267e-05,5.7739385269267e-05,370412.20105272,0.01533745991379
19612800,0.99976756592103,0.015043340553394,0.0050144468511315,0.0050144468511315,0.0050144468511314,-0.0012211089262453,0.0012211089262453,2.3602220144846e-17,-1.3477529447197e-17,-8.5769438626054e-17,9.565884239391e-17,-0.0012503737527251,0.001250373752725,-0.0012503737527251,0.001250373752725,-0.0012503737527251,0.0012503737527251,-0.001250373752725,0.0012503737527251,-0.0012008711905746,0.0012008711905747,-0.0012008711905746,0.0012008711905747,9.8202882322296e-17,-8.2710708538747e-17,-8.5659147877714e-18,2.9984378115478e-17,-0.0012211089262452,0.0012211089262453,-0.001250373752725,0.0012503737527251,-0.001250373752725,0.0012503737527251,-0.0012503737527251,0.0012503737527251,-0.0012503737527251,0.001250373752725,-0.0012008711905747,0.0012008711905746,-0.0012008711905747,0.0012008711905746,-0.0012008711905745,0.0012008711905747,-0.0012008711905747,0.0012008711905746,-2.1076562007851e-17,1.754358170268e-17,-0.0012211089262452,0.0012211089262452,1.0940842235368e-17,-2.0028799898617e-17,-0.0012503737527251,0.0012503737527251,-0.0012503737527251,0.001250373752725,-0.001250373752725,0.0012503737527251,-0.001250373752725,0.0012503737527251,-0.0012008711905746,0.0012008711905746,-0.0012008711905747,0.0012008711905746,0.66357351748803,0.7217127780187,1270536,32768,0.0050750182360299,0.0050750182360298,0.0050750182360298,18.043323436707,18.057993101344,5.9546587493657e-05,5.9546587493657e-05,5.9546587493657e-05,371836.9343061,0.015341724060486
19699200,0.99977197651888,0.015043403997154,0.0050144679990515,0.0050144679990514,0.0050144679990514,-0.001221435842397,0.001221435842397,2.341104951439e-17,-1.371281637699e-17,-8.5762085909498e-17,9.5452966330341e-17,-0.0012507513323919,0.0012507513323919,-0.0012507513323919,0.0012507513323918,-0.0012507513323919,0.0012507513323919,-0.0012507513323919,0.0012507513323919,-0.0012011644576118,0.001201164457612,-0.0012011644576119,0.0012011644576119,1.0282038831948e-16,-7.7828504745545e-17,-4.1984011534914e-18,3.451365151399e-17,-0.0012214358423969,0.001221435842397,-0.0012507513323918,0.0012507513323919,-0.0012507513323918,0.0012507513323919,-0.0012507513323919,0.0012507513323919,-0.0012507513323919,0.0012507513323918,-0.0012011644576119,0.0012011644576119,-0.0012011644576119,0.0012011644576119,-0.0012011644576118,0.001201164457612,-0.0012011644576119,0.0012011644576119,-1.8826630741707e-17,1.9631753204592e-17,-0.0012214358423969,0.001221435842397,1.2749610508151e-17,-1.8175915326499e-17,-0.0012507513323919,0.0012507513323919,-0.0012507513323919,0.0012507513323918,-0.0012507513323918,0.0012507513323919,-0.0012507513323918,0.0012507513323919,-0.0012011644576118,0.0012011644576119,-0.0012011644576119,0.0012011644576119,0.65604456074454,0.68320519625551,1270536,32768,0.0050763735117379,0.0050763735117379,0.0050763735117379,18.269223840428,18.283893518748,6.1353790723423e-05,6.1353790723423e-05,6.1353790723423e-05,373795.13115772,0.015345852075516
19785600,0.99977636478876,0.015043466210462,0.0050144887368209,0.0050144887368208,0.0050144887368208,-0.0012217552004042,0.0012217552004042,2.3679423668685e-17,-1.3271653383629e-17,-8.5490035396925e-17,9.6144121686608e-17,-0.00125111910559,0.00125111910559,-0.00125111910559,0.0012511191055899,-0.00125111910559,0.00125111910559,-0.00125111910559,0.00125111910559,-0.0012014532075162,0.0012014532075164,-0.0012014532075163,0.0012014532075163,1.0002635602819e-16,-8.0806354950736e-17,-6.7792046646568e-18,3.2190193082286e-17,-0.0012217552004042,0.0012217552004042,-0.0012511191055899,0.00125111910559,-0.0012511191055899,0.00125111910559,-0.00125111910559,0.00125111910559,-0.00125111910559,0.00125111910559,-0.0012014532075163,0.0012014532075163,-0.0012014532075163,0.0012014532075163,-0.0012014532075162,0.0012014532075164,-0.0012014532075164,0.0012014532075163,-1.7947981113262e-17,2.0528784624427e-17,-0.0012217552004042,0.0012217552004042,1.4264270118692e-17,-1.6705372015293e-17,-0.00125111910559,0.00125111910559,-0.00125111910559,0.0012511191055899,-0.00125111910559,0.00125111910559,-0.00125111910559,0.00125111910559,-0.0012014532075162,0.0012014532075163,-0.0012014532075163,0.0012014532075163,0.64661785292591,0.64469761449232,1270536,32768,0.0050776974710911,0.005077697471091,0.005077697471091,18.495124256488,18.509793936152,6.3160994051905e-05,6.3160994051905e-05,6.3160994051905e-05,376204.16038567,0.015349884661222
19872000,0.99978072061413,0.015043526555129,0.0050145088517095,0.0050145088517095,0.0050145088517095,-0.0012220054510468,0.0012220054510468,2.2616956126339e-17,-1.4315739134584e-17,-8.6482652131989e-17,9.493827617142e-17,-0.0012514159619821,0.001251415961982,-0.0012514159619821,0.001251415961982,-0.001251415961982,0.0012514159619821,-0.001251415961982,0.0012514159619821,-0.0012016749156671,0.0012016749156673,-0.0012016749156672,0.0012016749156672,9.9430785987152e-17,-8.1681328220903e-17,-7.4997708871475e-18,3.1043169299546e-17,-0.0012220054510468,0.0012220054510468,-0.001251415961982,0.001251415961982,-0.0012514159619819,0.0012514159619821,-0.001251415961982,0.001251415961982,-0.001251415961982,0.001251415961982,-0.0012016749156672,0.0012016749156672,-0.0012016749156672,0.0012016749156672,-0.0012016749156671,0.0012016749156673,-0.0012016749156672,0.0012016749156672,-1.6981098886144e-17,2.1484637776711e-17,-0.0012220054510468,0.0012220054510468,1.4705433112054e-17,-1.6146565557035e-17,-0.001251415961982,0.001251415961982,-0.001251415961982,0.001251415961982,-0.001251415961982,0.001251415961982,-0.001251415961982,0.001251415961982,-0.0012016749156671,0.0012016749156672,-0.0012016749156672,0.0012016749156672,0.63190015970538,0.58613753799082,1270536,32768,0.0050787349521669,0.0050787349521669,0.0050787349521669,18.688111774966,18.700715052263,6.4704894199728e-05,6.4704894199728e-05,6.4704894199728e-05,379048.04356776,0.015353044600893
19958400,0.99978499074294,0.015043587094442,0.0050145290314808,0.0050145290314808,0.0050145290314808,-0.0012218272712435,0.0012218272712435,2.2631661559451e-17,-1.4234859252468e-17,-8.6563532014105e-17,9.5070625069428e-17,-0.001251301616953,0.0012513016169529,-0.001251301616953,0.0012513016169529,-0.0012513016169529,0.001251301616953,-0.0012513016169529,0.001251301616953,-0.0012014535045338,0.0012014535045339,-0.0012014535045338,0.0012014535045338,9.9629309334165e-17,-8.144604129111e-17,-7.3968328553631e-18,3.107258016577e-17,-0.0012218272712435,0.0012218272712435,-0.0012513016169529,0.0012513016169529,-0.0012513016169528,0.001251301616953,-0.0012513016169529,0.0012513016169529,-0.0012513016169529,0.0012513016169529,-0.0012014535045338,0.0012014535045338,-0.0012014535045338,0.0012014535045338,-0.0012014535045337,0.0012014535045339,-0.0012014535045339,0.0012014535045338,-1.7198004024547e-17,2.1278761713142e-17,-0.0012218272712435,0.0012218272712435,1.4573084214045e-17,-1.6117154690811e-17,-0.0012513016169529,0.0012513016169529,-0.0012513016169529,0.0012513016169529,-0.0012513016169529,0.0012513016169529,-0.0012513016169529,0.0012513016169529,-0.0012014535045338,0.0012014535045338,-0.0012014535045338,0.0012014535045338,0.64670104716804,0.70684412759495,1270536,32768,0.0050779963516747,0.0050779963516746,0.0050779963516746,18.684796171784,18.685007471449,6.4678369374274e-05,6.4678369374274e-05,6.4678369374274e-05,383935.31485108,0.015350794441602
20044800,0.99978917393589,0.015043647381611,0.0050145491272037,0.0050145491272037,0.0050145491272037,-0.0012220133028012,0.0012220133028012,2.3194144375987e-17,-1.3933397873671e-17,-8.6063547288295e-17,9.5644136960798e-17,-0.0012514067455824,0.0012514067455823,-0.0012514067455824,0.0012514067455823,-0.0012514067455823,0.0012514067455824,-0.0012514067455823,0.0012514067455824,-0.0012017249585314,0.0012017249585315,-0.0012017249585314,0.0012017249585315,9.9210204490471e-17,-8.1747502669907e-17,-7.6027089189318e-18,3.0837293235977e-17,-0.0012220133028012,0.0012220133028012,-0.0012514067455823,0.0012514067455823,-0.0012514067455823,0.0012514067455824,-0.0012514067455823,0.0012514067455823,-0.0012514067455823,0.0012514067455823,-0.0012017249585315,0.0012017249585314,-0.0012017249585315,0.0012017249585314,-0.0012017249585313,0.0012017249585315,-0.0012017249585315,0.0012017249585314,-1.7859748514589e-17,2.0778776987332e-17,-0.0012220133028012,0.0012220133028012,1.3940750590227e-17,-1.6749488314629e-17,-0.0012514067455823,0.0012514067455823,-0.0012514067455823,0.0012514067455823,-0.0012514067455823,0.0012514067455823,-0.0012514067455823,0.0012514067455823,-0.0012017249585314,0.0012017249585314,-0.0012017249585315,0.0012017249585314,0.65743077277705,0.74287786107422,1270536,32768,0.0050787676097293,0.0050787676097293,0.0050787676097293,18.670201492782,18.669299890635,6.4561611942258e-05,6.4561611942258e-05,6.4561611942258e-05,376107.01454058,0.015353144000503
20131200,0.99979327177851,0.015043707490951,0.0050145691636502,0.0050145691636502,0.0050145691636502,-0.0012220832414862,0.0012220832414862,2.3271347899825e-17,-1.3970161456451e-17,-8.6269423351864e-17,9.5673547827022e-17,-0.0012514370065349,0.0012514370065348,-0.0012514370065349,0.0012514370065348,-0.0012514370065348,0.0012514370065349,-0.0012514370065348,0.0012514370065349,-0.0012018254262508,0.0012018254262509,-0.0012018254262508,0.0012018254262508,9.9644014767277e-17,-8.1673975504347e-17,-7.374774705695e-18,3.1131401898218e-17,-0.0012220832414861,0.0012220832414862,-0.0012514370065348,0.0012514370065348,-0.0012514370065347,0.0012514370065349,-0.0012514370065348,0.0012514370065348,-0.0012514370065348,0.0012514370065348,-0.0012018254262508,0.0012018254262508,-0.0012018254262508,0.0012018254262508,-0.0012018254262507,0.0012018254262509,-0.0012018254262509,0.0012018254262508,-1.7069331484816e-17,2.1572870375383e-17,-0.0012220832414861,0.0012220832414861,1.4661316812718e-17,-1.6102449257699e-17,-0.0012514370065348,0.0012514370065348,-0.0012514370065348,0.0012514370065348,-0.0012514370065348,0.0012514370065348,-0.0012514370065348,0.0012514370065348,-0.0012018254262508,0.0012018254262508,-0.0012018254262508,0.0012018254262508,0.66909434795128,0.77624390056034,1270536,32768,0.0050790575311161,0.0050790575311161,0.005079057531116,18.654600776042,18.65359230982,6.4436806208334e-05,6.4436806208334e-05,6.4436806208334e-05,371716.73832233,0.015354027287659
20217600,0.99979728606422,0.015043767496667,0.0050145891655558,0.0050145891655558,0.0050145891655557,-0.0012221436809665,0.0012221436809665,2.2844890339576e-17,-1.4381913583589e-17,-8.6666470045889e-17,9.5276501132997e-17,-0.0012514648525387,0.0012514648525387,-0.0012514648525388,0.0012514648525387,-0.0012514648525387,0.0012514648525388,-0.0012514648525387,0.0012514648525387,-0.001201907743073,0.0012019077430732,-0.0012019077430731,0.0012019077430731,9.9813127248065e-17,-8.1703386370571e-17,-7.8232904156126e-18,3.0910820401537e-17,-0.0012221436809665,0.0012221436809665,-0.0012514648525386,0.0012514648525387,-0.0012514648525386,0.0012514648525387,-0.0012514648525387,0.0012514648525387,-0.0012514648525387,0.0012514648525387,-0.0012019077430731,0.0012019077430731,-0.0012019077430731,0.0012019077430731,-0.001201907743073,0.0012019077430732,-0.0012019077430732,0.0012019077430731,-1.7179622233157e-17,2.1484637776711e-17,-0.0012221436809665,0.0012221436809665,1.4617200513382e-17,-1.6102449257699e-17,-0.0012514648525387,0.0012514648525387,-0.0012514648525387,0.0012514648525387,-0.0012514648525387,0.0012514648525387,-0.0012514648525387,0.0012514648525387,-0.001201907743073,0.0012019077430731,-0.0012019077430731,0.0012019077430731,0.68181568613066,0.80868178139082,1270536,32768,0.0050793080583001,0.0050793080583,0.0050793080583,18.638903625166,18.637884729006,6.4311229001328e-05,6.4311229001328e-05,6.4311229001328e-05,367516.55724216,0.015354790593602
20304000,0.99980121856951,0.01504382747186,0.0050146091572866,0.0050146091572866,0.0050146091572866,-0.001222200103653,0.001222200103653,2.2227262148869e-17,-1.4764254844502e-17,-8.7342919969044e-17,9.4879454438971e-17,-0.0012514932334939,0.0012514932334939,-0.0012514932334939,0.0012514932334938,-0.0012514932334939,0.0012514932334939,-0.0012514932334939,0.0012514932334939,-0.0012019814961932,0.0012019814961933,-0.0012019814961932,0.0012019814961932,1.003425228401e-16,-8.1203401644761e-17,-6.9189062792213e-18,3.1440215993571e-17,-0.001222200103653,0.001222200103653,-0.0012514932334938,0.0012514932334939,-0.0012514932334938,0.0012514932334939,-0.0012514932334939,0.0012514932334939,-0.0012514932334939,0.0012514932334938,-0.0012019814961932,0.0012019814961932,-0.0012019814961932,0.0012019814961932,-0.0012019814961931,0.0012019814961933,-0.0012019814961933,0.0012019814961932,-1.7705341466913e-17,2.0896420452229e-17,-0.001222200103653,0.001222200103653,1.3911339724003e-17,-1.6793604613965e-17,-0.0012514932334939,0.0012514932334939,-0.0012514932334939,0.0012514932334938,-0.0012514932334938,0.0012514932334939,-0.0012514932334939,0.0012514932334939,-0.0012019814961932,0.0012019814961932,-0.0012019814961932,0.0012019814961932,0.69561281871662,0.84111966222131,1270536,32768,0.0050795419240211,0.0050795419240211,0.0050795419240211,18.623197066811,18.622177148191,6.4185576534489e-05,6.4185576534489e-05,6.4185576534489e-05,363332.8199042,0.015355503165035
20390400,0.9998050710337,0.015043886676259,0.0050146288920865,0.0050146288920864,0.0050146288920864,-0.0012222544341428,0.0012222544341428,2.2359611046878e-17,-1.463925866305e-17,-8.7012047724023e-17,9.508533050254e-17,-0.0012515229054946,0.0012515229054945,-0.0012515229054946,0.0012515229054945,-0.0012515229054945,0.0012515229054946,-0.0012515229054945,0.0012515229054946,-0.0012020503541224,0.0012020503541225,-0.0012020503541224,0.0012020503541224,9.9820479964621e-17,-8.1798971685799e-17,-7.3233056898028e-18,3.1160812764442e-17,-0.0012222544341427,0.0012222544341428,-0.0012515229054945,0.0012515229054946,-0.0012515229054945,0.0012515229054946,-0.0012515229054945,0.0012515229054945,-0.0012515229054946,0.0012515229054945,-0.0012020503541224,0.0012020503541224,-0.0012020503541224,0.0012020503541224,-0.0012020503541223,0.0012020503541225,-0.0012020503541225,0.0012020503541224,-1.7495789045066e-17,2.1043474783349e-17,-0.0012222544341427,0.0012222544341428,1.4308386418028e-17,-1.6558317684173e-17,-0.0012515229054945,0.0012515229054945,-0.0012515229054945,0.0012515229054945,-0.0012515229054945,0.0012515229054946,-0.0012515229054945,0.0012515229054946,-0.0012020503541224,0.0012020503541224,-0.0012020503541224,0.0012020503541224,0.70090955979346,0.82126598431432,1270536,32768,0.0050797671095766,0.0050797671095766,0.0050797671095766,18.607489586355,18.606469567377,6.4059916690835e-05,6.4059916690835e-05,6.4059916690835e-05,359104.99633494,0.015356189311683
20476800,0.99980884515787,0.015043943415673,0.0050146478052244,0.0050146478052243,0.0050146478052243,-0.0012222081780677,0.0012222081780677,2.2536076244223e-17,-1.4359855433921e-17,-8.7107633039251e-17,9.5350028298557e-17,-0.0012514895988427,0.0012514895988427,-0.0012514895988428,0.0012514895988426,-0.0012514895988427,0.0012514895988427,-0.0012514895988427,0.0012514895988427,-0.0012019858683246,0.0012019858683248,-0.0012019858683247,0.0012019858683247,9.9960181579186e-17,-8.1865146134804e-17,-7.2865421070227e-18,3.1013758433322e-17,-0.0012222081780677,0.0012222081780677,-0.0012514895988426,0.0012514895988427,-0.0012514895988426,0.0012514895988427,-0.0012514895988427,0.0012514895988427,-0.0012514895988427,0.0012514895988427,-0.0012019858683247,0.0012019858683247,-0.0012019858683247,0.0012019858683246,-0.0012019858683246,0.0012019858683247,-0.0012019858683247,0.0012019858683246,-1.7039920618592e-17,2.1440521477374e-17,-0.0012222081780677,0.0012222081780677,1.4631905946494e-17,-1.5955394926578e-17,-0.0012514895988427,0.0012514895988427,-0.0012514895988427,0.0012514895988426,-0.0012514895988427,0.0012514895988427,-0.0012514895988427,0.0012514895988427,-0.0012019858683246,0.0012019858683247,-0.0012019858683247,0.0012019858683247,0.68563583005834,0.7051435878032,1270536,32768,0.0050795753128991,0.005079575312899,0.005079575312899,18.591782015394,18.590761986563,6.3934256123151e-05,6.3934256123151e-05,6.3934256123151e-05,358031.79400583,0.015355605128189
20563200,0.99981254260549,0.015043996611423,0.0050146655371411,0.005014665537141,0.005014665537141,-0.0012219478052493,0.0012219478052493,2.2841213981298e-17,-1.4051041338567e-17,-8.696057870813e-17,9.60117727886e-17,-0.0012513179324098,0.0012513179324097,-0.0012513179324098,0.0012513179324097,-0.0012513179324098,0.0012513179324098,-0.0012513179324097,0.0012513179324098,-0.0012016454031018,0.0012016454031019,-0.0012016454031018,0.0012016454031018,1.0024693752487e-16,-8.1703386370571e-17,-7.4262437215872e-18,3.0954936700873e-17,-0.0012219478052493,0.0012219478052493,-0.0012513179324097,0.0012513179324098,-0.0012513179324097,0.0012513179324098,-0.0012513179324097,0.0012513179324097,-0.0012513179324098,0.0012513179324097,-0.0012016454031019,0.0012016454031018,-0.0012016454031018,0.0012016454031018,-0.0012016454031017,0.0012016454031019,-0.0012016454031019,0.0012016454031018,-1.8341351449009e-17,2.0058210764841e-17,-0.0012219478052493,0.0012219478052493,1.3279006100185e-17,-1.7293589339775e-17,-0.0012513179324097,0.0012513179324097,-0.0012513179324097,0.0012513179324097,-0.0012513179324097,0.0012513179324098,-0.0012513179324097,0.0012513179324098,-0.0012016454031018,0.0012016454031018,-0.0012016454031018,0.0012016454031018,0.6561306206994,0.5627439105104,1270536,32768,0.0050784959227897,0.0050784959227896,0.0050784959227896,18.576074435547,18.575054405748,6.3808595484377e-05,6.3808595484377e-05,6.3808595484377e-05,363955.04623204,0.015352316852031
20649600,0.99981615165793,0.015044045489364,0.005014681829788,0.005014681829788,0.0050146818297879,-0.0012214422924055,0.0012214422924055,2.3822801641527e-17,-1.31760680684e-17,-8.6063547288295e-17,9.6835277042875e-17,-0.0012509441648423,0.0012509441648423,-0.0012509441648423,0.0012509441648422,-0.0012509441648423,0.0012509441648423,-0.0012509441648423,0.0012509441648423,-0.0012010345540594,0.0012010345540595,-0.0012010345540594,0.0012010345540595,1.0191600418309e-16,-8.0549009871275e-17,-5.7130607640329e-18,3.2572534343199e-17,-0.0012214422924055,0.0012214422924055,-0.0012509441648422,0.0012509441648423,-0.0012509441648422,0.0012509441648423,-0.0012509441648423,0.0012509441648423,-0.0012509441648423,0.0012509441648422,-0.0012010345540595,0.0012010345540594,-0.0012010345540595,0.0012010345540594,-0.0012010345540593,0.0012010345540595,-0.0012010345540595,0.0012010345540594,-1.5411293901432e-17,2.2925770221692e-17,-0.0012214422924055,0.0012214422924055,1.6146565557035e-17,-1.4337797284252e-17,-0.0012509441648423,0.0012509441648423,-0.0012509441648423,0.0012509441648422,-0.0012509441648422,0.0012509441648423,-0.0012509441648422,0.0012509441648423,-0.0012010345540594,0.0012010345540594,-0.0012010345540595,0.0012010345540594,0.61767074231791,0.4203442332176,1270536,32768,0.0050764003553126,0.0050764003553126,0.0050764003553126,18.501063888917,18.496320583305,6.3208511111338e-05,6.3208511111338e-05,6.3208511111338e-05,374648.08246807,0.015345932942716
20736000,0.9998196093399,0.015044092622296,0.0050146975407655,0.0050146975407655,0.0050146975407655,-0.0012202779846749,0.0012202779846749,2.2719894158123e-17,-1.4293680984916e-17,-8.7512032449832e-17,9.5688253260134e-17,-0.0012499363708036,0.0012499363708035,-0.0012499363708036,0.0012499363708035,-0.0012499363708035,0.0012499363708036,-0.0012499363708035,0.0012499363708036,-0.0011997557665672,0.0011997557665674,-0.0011997557665673,0.0011997557665673,1.00460166305e-16,-8.1975436883144e-17,-7.2203676580184e-18,3.0969642133985e-17,-0.0012202779846749,0.0012202779846749,-0.0012499363708035,0.0012499363708035,-0.0012499363708035,0.0012499363708036,-0.0012499363708035,0.0012499363708035,-0.0012499363708035,0.0012499363708035,-0.0011997557665673,0.0011997557665673,-0.0011997557665673,0.0011997557665673,-0.0011997557665672,0.0011997557665674,-0.0011997557665674,0.0011997557665673,-1.7606079793406e-17,2.1043474783349e-17,-0.0012202779846749,0.0012202779846749,1.417603752002e-17,-1.6440674219276e-17,-0.0012499363708035,0.0012499363708035,-0.0012499363708035,0.0012499363708035,-0.0012499363708035,0.0012499363708035,-0.0012499363708035,0.0012499363708035,-0.0011997557665673,0.0011997557665673,-0.0011997557665673,0.0011997557665673,0.62177294970634,0.55131483595069,1270536,32768,0.0050715737482028,0.0050715737482028,0.0050715737482027,18.125604081961,18.101876137917,6.0204832655691e-05,6.0204832655691e-05,6.0204832655691e-05,388898.26589882,0.015331230136897
20822400,0.99982291967309,0.015044139261146,0.0050147130870487,0.0050147130870487,0.0050147130870486,-0.0012197248500618,0.0012197248500618,2.3164733509763e-17,-1.3859870708111e-17,-8.6754702644562e-17,9.623235428528e-17,-0.0012492956154172,0.0012492956154171,-0.0012492956154172,0.0012492956154171,-0.0012492956154171,0.0012492956154172,-0.0012492956154171,0.0012492956154172,-0.0011993106034601,0.0011993106034602,-0.0011993106034601,0.0011993106034601,1.0092338744803e-16,-8.1696033654015e-17,-6.558623167976e-18,3.1616681190916e-17,-0.0012197248500618,0.0012197248500618,-0.0012492956154171,0.0012492956154172,-0.0012492956154171,0.0012492956154172,-0.0012492956154171,0.0012492956154171,-0.0012492956154172,0.0012492956154171,-0.0011993106034601,0.0011993106034601,-0.0011993106034601,0.0011993106034601,-0.00119931060346,0.0011993106034602,-0.0011993106034602,0.0011993106034601,-1.7550934419236e-17,2.0911125885341e-17,-0.0012197248500618,0.0012197248500618,1.3984866889563e-17,-1.6528906817949e-17,-0.0012492956154171,0.0012492956154171,-0.0012492956154171,0.0012492956154171,-0.0012492956154171,0.0012492956154171,-0.0012492956154171,0.0012492956154172,-0.0011993106034601,0.0011993106034601,-0.0011993106034601,0.0011993106034601,0.64277781458434,0.69238088739836,1270536,32768,0.0050692808229306,0.0050692808229306,0.0050692808229305,17.732864927979,17.70743169253,5.7062919423834e-05,5.7062919423834e-05,5.7062919423834e-05,382292.28797696,0.015324246003815
20908800,0.99982608985555,0.015044183624685,0.005014727874895,0.005014727874895,0.005014727874895,-0.0012192812831434,0.0012192812831434,2.1664779332333e-17,-1.5528937366329e-17,-8.8416416586224e-17,9.4673578375403e-17,-0.001248724234203,0.0012487242342029,-0.001248724234203,0.0012487242342029,-0.0012487242342029,0.001248724234203,-0.0012487242342029,0.001248724234203,-0.0011989815977379,0.001198981597738,-0.0011989815977379,0.0011989815977379,1.0401888111811e-16,-7.8681419866044e-17,-3.2204898515398e-18,3.486658190868e-17,-0.0012192812831433,0.0012192812831434,-0.0012487242342029,0.0012487242342029,-0.0012487242342028,0.001248724234203,-0.0012487242342029,0.0012487242342029,-0.0012487242342029,0.0012487242342029,-0.001198981597738,0.0011989815977379,-0.0011989815977379,0.0011989815977379,-0.0011989815977378,0.001198981597738,-0.001198981597738,0.0011989815977379,-1.791489388876e-17,2.0558195490651e-17,-0.0012192812831433,0.0012192812831433,1.352899846309e-17,-1.6808310047078e-17,-0.0012487242342029,0.0012487242342029,-0.0012487242342029,0.0012487242342029,-0.0012487242342029,0.0012487242342029,-0.0012487242342029,0.0012487242342029,-0.0011989815977379,0.0011989815977379,-0.001198981597738,0.0011989815977379,0.63840250328208,0.63314123000179,1270536,32768,0.0050674419928762,0.0050674419928762,0.0050674419928761,17.338584237292,17.312987247142,5.3908673898339e-05,5.3908673898339e-05,5.3908673898339e-05,371576.90120383,0.015318645451232
20995200,0.9998291269407,0.015044225622868,0.0050147418742892,0.0050147418742892,0.0050147418742892,-0.0012184519603042,0.0012184519603042,2.2580192543559e-17,-1.4345150000809e-17,-8.7416447134604e-17,9.608529995416e-17,-0.0012479078973662,0.0012479078973662,-0.0012479078973663,0.0012479078973662,-0.0012479078973662,0.0012479078973663,-0.0012479078973662,0.0012479078973663,-0.0011981260849695,0.0011981260849696,-0.0011981260849695,0.0011981260849695,1.0132778685861e-16,-8.1541626606339e-17,-6.3748052540753e-18,3.1749030088924e-17,-0.0012184519603042,0.0012184519603042,-0.0012479078973661,0.0012479078973662,-0.0012479078973661,0.0012479078973663,-0.0012479078973662,0.0012479078973662,-0.0012479078973662,0.0012479078973662,-0.0011981260849695,0.0011981260849695,-0.0011981260849695,0.0011981260849695,-0.0011981260849694,0.0011981260849696,-0.0011981260849696,0.0011981260849695,-1.7050949693426e-17,2.1249350846918e-17,-0.0012184519603042,0.0012184519603042,1.432309185114e-17,-1.5837751461682e-17,-0.0012479078973662,0.0012479078973662,-0.0012479078973662,0.0012479078973662,-0.0012479078973662,0.0012479078973662,-0.0012479078973662,0.0012479078973662,-0.0011981260849695,0.0011981260849695,-0.0011981260849695,0.0011981260849695,0.63077075839539,0.59471585585635,1270536,32768,0.0050640039222099,0.0050640039222098,0.0050640039222098,16.944155774576,16.918542801755,5.075324619661e-05,5.075324619661e-05,5.075324619661e-05,373130.28381063,0.015308173163422
21081600,0.9998320375853,0.015044265754591,0.0050147552515302,0.0050147552515302,0.0050147552515302,-0.0012176058674824,0.0012176058674824,2.2786068607127e-17,-1.4220153819356e-17,-8.7769377529293e-17,9.5850013024367e-17,-0.0012470843223856,0.0012470843223856,-0.0012470843223857,0.0012470843223856,-0.0012470843223856,0.0012470843223856,-0.0012470843223856,0.0012470843223856,-0.0011972558503933,0.0011972558503934,-0.0011972558503933,0.0011972558503934,1.0157777922151e-16,-8.144604129111e-17,-5.2498396210032e-18,3.1484332292907e-17,-0.0012176058674824,0.0012176058674824,-0.0012470843223855,0.0012470843223856,-0.0012470843223855,0.0012470843223856,-0.0012470843223856,0.0012470843223856,-0.0012470843223856,0.0012470843223856,-0.0011972558503934,0.0011972558503933,-0.0011972558503934,0.0011972558503933,-0.0011972558503932,0.0011972558503934,-0.0011972558503934,0.0011972558503933,-1.7334029280833e-17,2.1352288878702e-17,-0.0012176058674824,0.0012176058674824,1.4190742953132e-17,-1.5073068939855e-17,-0.0012470843223856,0.0012470843223856,-0.0012470843223856,0.0012470843223855,-0.0012470843223856,0.0012470843223856,-0.0012470843223856,0.0012470843223856,-0.0011972558503933,0.0011972558503933,-0.0011972558503934,0.0011972558503933,0.6289341593062,0.60389552379455,1270536,32768,0.0050604963574028,0.0050604963574028,0.0050604963574028,16.549712895995,16.524098356367,4.759770316796e-05,4.759770316796e-05,4.759770316796e-05,375405.88541475,0.015297489230594
21168000,0.99983482805279,0.015044304210594,0.0050147680701981,0.0050147680701981,0.005014768070198,-0.0012168489856096,0.0012168489856097,2.4690422195138e-17,-1.260255617703e-17,-8.566650059427e-17,9.8129355156735e-17,-0.0012463187567043,0.0012463187567042,-0.0012463187567043,0.0012463187567042,-0.0012463187567042,0.0012463187567043,-0.0012463187567042,0.0012463187567043,-0.0011965074754922,0.0011965074754924,-0.0011965074754923,0.0011965074754923,1.0353360182542e-16,-7.9460807820983e-17,-3.4410713482206e-18,3.3057813635897e-17,-0.0012168489856096,0.0012168489856097,-0.0012463187567042,0.0012463187567043,-0.0012463187567042,0.0012463187567043,-0.0012463187567042,0.0012463187567042,-0.0012463187567043,0.0012463187567042,-0.0011965074754923,0.0011965074754923,-0.0011965074754923,0.0011965074754923,-0.0011965074754921,0.0011965074754924,-0.0011965074754923,0.0011965074754923,-1.1893019029374e-17,2.6616833932817e-17,-0.0012168489856096,0.0012168489856096,1.861707831986e-17,-1.0234981445989e-17,-0.0012463187567042,0.0012463187567042,-0.0012463187567042,0.0012463187567042,-0.0012463187567042,0.0012463187567043,-0.0012463187567042,0.0012463187567043,-0.0011965074754922,0.0011965074754923,-0.0011965074754923,0.0011965074754923,0.62864712193456,0.61307519173276,1270536,32768,0.0050573586274804,0.0050573586274803,0.0050573586274803,16.155268604395,16.12965391098,4.4442148835157e-05,4.4442148835157e-05,4.4442148835157e-05,374870.07330898,0.015287932016649
21254400,0.99983750818687,0.015044341186956,0.005014780395652,0.0050147803956519,0.0050147803956519,-0.0012161499695343,0.0012161499695343,2.1510372284657e-17,-1.5499526500105e-17,-8.8592881783568e-17,9.5129446801876e-17,-0.0012456060978208,0.0012456060978207,-0.0012456060978208,0.0012456060978207,-0.0012456060978208,0.0012456060978208,-0.0012456060978207,0.0012456060978208,-0.0011958193110837,0.0011958193110838,-0.0011958193110837,0.0011958193110837,1.0366595072342e-16,-7.9504924120319e-17,-3.7351800104617e-18,3.2896053871664e-17,-0.0012161499695343,0.0012161499695343,-0.0012456060978207,0.0012456060978208,-0.0012456060978207,0.0012456060978208,-0.0012456060978208,0.0012456060978208,-0.0012456060978208,0.0012456060978207,-0.0011958193110837,0.0011958193110837,-0.0011958193110837,0.0011958193110837,-0.0011958193110836,0.0011958193110838,-0.0011958193110838,0.0011958193110837,-1.6139212840479e-17,2.2543428960779e-17,-0.0012161499695343,0.0012161499695343,1.4587789647157e-17,-1.4352502717365e-17,-0.0012456060978208,0.0012456060978208,-0.0012456060978207,0.0012456060978207,-0.0012456060978207,0.0012456060978208,-0.0012456060978207,0.0012456060978208,-0.0011958193110837,0.0011958193110837,-0.0011958193110837,0.0011958193110837,0.62934321493693,0.62225485967096,1270536,32768,0.0050544607697786,0.0050544607697786,0.0050544607697786,15.783997811008,15.75983803545,4.1471982488064e-05,4.1471982488064e-05,4.1471982488064e-05,373860.05091594,0.015279105537197
21340800,0.99984009628145,0.015044376974367,0.005014792324789,0.005014792324789,0.005014792324789,-0.001215610401386,0.001215610401386,2.3157380793207e-17,-1.4028983188899e-17,-8.7416447134604e-17,9.608529995416e-17,-0.0012450502813014,0.0012450502813013,-0.0012450502813014,0.0012450502813013,-0.0012450502813013,0.0012450502813014,-0.0012450502813013,0.0012450502813014,-0.0011952912711849,0.0011952912711851,-0.001195291271185,0.001195291271185,1.0121749611027e-16,-8.1997495032812e-17,-6.0733438752782e-18,3.1087285598882e-17,-0.001215610401386,0.001215610401386,-0.0012450502813013,0.0012450502813013,-0.0012450502813012,0.0012450502813014,-0.0012450502813013,0.0012450502813013,-0.0012450502813013,0.0012450502813013,-0.001195291271185,0.001195291271185,-0.001195291271185,0.001195291271185,-0.0011952912711849,0.0011952912711851,-0.0011952912711851,0.001195291271185,-1.7201680382825e-17,2.1425816044262e-17,-0.001215610401386,0.001215610401386,1.3970161456451e-17,-1.5367177602096e-17,-0.0012450502813013,0.0012450502813013,-0.0012450502813013,0.0012450502813013,-0.0012450502813013,0.0012450502813013,-0.0012450502813013,0.0012450502813013,-0.001195291271185,0.001195291271185,-0.001195291271185,0.001195291271185,0.63076438456228,0.63143452760917,1270536,32768,0.0050522239178318,0.0050522239178317,0.0050522239178317,15.492256896441,15.473137698729,3.9138055171526e-05,3.9138055171526e-05,3.9138055171526e-05,372581.63573362,0.015272292438477
21427200,0.99984259688373,0.01504441166189,0.0050148038872967,0.0050148038872967,0.0050148038872967,-0.0012150825196726,0.0012150825196726,2.3054442761422e-17,-1.4058394055123e-17,-8.7401741701492e-17,9.6482346648185e-17,-0.0012445083949903,0.0012445083949903,-0.0012445083949904,0.0012445083949903,-0.0012445083949903,0.0012445083949904,-0.0012445083949903,0.0012445083949904,-0.0011947726330333,0.0011947726330335,-0.0011947726330334,0.0011947726330334,1.0094544559769e-16,-8.2071022198372e-17,-6.3968634037434e-18,3.0969642133985e-17,-0.0012150825196726,0.0012150825196726,-0.0012445083949902,0.0012445083949903,-0.0012445083949902,0.0012445083949904,-0.0012445083949903,0.0012445083949903,-0.0012445083949903,0.0012445083949903,-0.0011947726330334,0.0011947726330334,-0.0011947726330334,0.0011947726330334,-0.0011947726330333,0.0011947726330335,-0.0011947726330335,0.0011947726330334,-1.7253149398717e-17,2.1558164942271e-17,-0.0012150825196726,0.0012150825196726,1.3926045157115e-17,-1.5631875398113e-17,-0.0012445083949903,0.0012445083949903,-0.0012445083949903,0.0012445083949903,-0.0012445083949903,0.0012445083949903,-0.0012445083949903,0.0012445083949903,-0.0011947726330334,0.0011947726330334,-0.0011947726330334,0.0011947726330334,0.63276389062286,0.64061419554737,1270536,32768,0.0050500354965764,0.0050500354965763,0.0050500354965763,15.205103527933,15.186437362008,3.6840828223459e-05,3.6840828223459e-05,3.6840828223459e-05,371238.10644405,0.015265626944062
21513600,0.99984501362409,0.01504444648303,0.0050148154943435,0.0050148154943435,0.0050148154943434,-0.0012145570577512,0.0012145570577512,2.4212495618997e-17,-1.2984897437944e-17,-8.6431183116096e-17,9.7188207437564e-17,-0.0012439699004256,0.0012439699004255,-0.0012439699004256,0.0012439699004255,-0.0012439699004255,0.0012439699004256,-0.0012439699004255,0.0012439699004256,-0.0011942553184122,0.0011942553184123,-0.0011942553184122,0.0011942553184123,1.0130572870894e-16,-8.1769560819575e-17,-6.1909873401747e-18,3.1028463866434e-17,-0.0012145570577512,0.0012145570577512,-0.0012439699004255,0.0012439699004255,-0.0012439699004254,0.0012439699004256,-0.0012439699004255,0.0012439699004255,-0.0012439699004255,0.0012439699004255,-0.0011942553184123,0.0011942553184122,-0.0011942553184123,0.0011942553184122,-0.0011942553184121,0.0011942553184123,-0.0011942553184123,0.0011942553184122,-1.7650196092743e-17,2.1131707382021e-17,-0.0012145570577512,0.0012145570577512,1.374957995977e-17,-1.5881867761018e-17,-0.0012439699004255,0.0012439699004255,-0.0012439699004255,0.0012439699004255,-0.0012439699004255,0.0012439699004255,-0.0012439699004255,0.0012439699004255,-0.0011942553184122,0.0011942553184122,-0.0011942553184123,0.0011942553184122,0.65725350109845,0.77112383032438,1270536,32768,0.0050478570965071,0.005047857096507,0.005047857096507,14.918359681346,14.899737025288,3.4546877450769e-05,3.4546877450769e-05,3.4546877450769e-05,369811.72335942,0.015258992033132
21600000,0.99984734989773,0.015044479744513,0.0050148265815043,0.0050148265815043,0.0050148265815043,-0.0012142817813065,0.0012142817813065,2.3642660085905e-17,-1.3455471297529e-17,-8.7122338472363e-17,9.7173502004452e-17,-0.0012435970405126,0.0012435970405126,-0.0012435970405127,0.0012435970405126,-0.0012435970405126,0.0012435970405127,-0.0012435970405126,0.0012435970405127,-0.0011940623321196,0.0011940623321198,-0.0011940623321197,0.0011940623321197,1.0128367055927e-16,-8.2548948774514e-17,-6.8674372633291e-18,3.1263750796226e-17,-0.0012142817813064,0.0012142817813065,-0.0012435970405126,0.0012435970405126,-0.0012435970405125,0.0012435970405127,-0.0012435970405126,0.0012435970405126,-0.0012435970405126,0.0012435970405126,-0.0011940623321197,0.0011940623321196,-0.0011940623321197,0.0011940623321196,-0.0011940623321195,0.0011940623321197,-0.0011940623321197,0.0011940623321196,-1.8289882433117e-17,2.0440552025755e-17,-0.0012142817813064,0.0012142817813064,1.31760680684e-17,-1.6808310047078e-17,-0.0012435970405126,0.0012435970405126,-0.0012435970405126,0.0012435970405126,-0.0012435970405126,0.0012435970405126,-0.0012435970405126,0.0012435970405126,-0.0011940623321196,0.0011940623321197,-0.0011940623321197,0.0011940623321196,0.6494171434614,0.66996005977474,1270536,32768,0.0050467158493308,0.0050467158493307,0.0050467158493307,14.631655097835,14.613036688567,3.2253240782682e-05,3.2253240782682e-05,3.2253240782682e-05,360075.39843129,0.015255516582202
21686400,0.99984960893139,0.015044511733317,0.0050148372444389,0.0050148372444389,0.0050148372444389,-0.0012135841242172,0.0012135841242172,2.4028677705096e-17,-1.3198126218068e-17,-8.6754702644562e-17,9.7702897596486e-17,-0.0012429520760399,0.0012429520760398,-0.0012429520760399,0.0012429520760398,-0.0012429520760398,0.0012429520760399,-0.0012429520760398,0.0012429520760399,-0.001193303173317,0.0011933031733171,-0.0011933031733171,0.0011933031733171,1.0990840707949e-16,-7.378451063973e-17,2.7057996926179e-18,4.0822282319061e-17,-0.0012135841242172,0.0012135841242172,-0.0012429520760398,0.0012429520760399,-0.0012429520760398,0.0012429520760399,-0.0012429520760398,0.0012429520760398,-0.0012429520760398,0.0012429520760398,-0.0011933031733171,0.001193303173317,-0.001193303173317,0.001193303173317,-0.001193303173317,0.0011933031733172,-0.0011933031733171,0.0011933031733171,-1.4966454549793e-17,2.3866917940863e-17,-0.0012135841242172,0.0012135841242172,1.6514201384836e-17,-1.3734874526658e-17,-0.0012429520760398,0.0012429520760398,-0.0012429520760398,0.0012429520760398,-0.0012429520760398,0.0012429520760398,-0.0012429520760398,0.0012429520760398,-0.001193303173317,0.0011933031733171,-0.0011933031733171,0.0011933031733171,0.64585282437233,0.65084678893061,1270536,32768,0.0050438235254385,0.0050438235254385,0.0050438235254385,14.344954344791,14.326336351846,2.9959634758323e-05,2.9959634758323e-05,2.9959634758323e-05,363814.82019712,0.015246707099539
21772800,0.99985179379757,0.015044542457309,0.0050148474857696,0.0050148474857695,0.0050148474857695,-0.0012129768051992,0.0012129768051992,2.289268299719e-17,-1.4190742953132e-17,-8.7754672096181e-17,9.6452935781961e-17,-0.0012423669422578,0.0012423669422578,-0.0012423669422579,0.0012423669422578,-0.0012423669422578,0.0012423669422578,-0.0012423669422578,0.0012423669422578,-0.0011926769544989,0.0011926769544991,-0.001192676954499,0.001192676954499,1.0179100800164e-16,-8.1990142316256e-17,-6.3306889547392e-18,3.1631386624028e-17,-0.0012129768051992,0.0012129768051992,-0.0012423669422577,0.0012423669422578,-0.0012423669422577,0.0012423669422578,-0.0012423669422578,0.0012423669422578,-0.0012423669422578,0.0012423669422578,-0.001192676954499,0.001192676954499,-0.001192676954499,0.0011926769544989,-0.0011926769544988,0.0011926769544991,-0.001192676954499,0.0011926769544989,-1.8113417235772e-17,2.0572900923763e-17,-0.0012129768051992,0.0012129768051992,1.3484882163753e-17,-1.6690666582181e-17,-0.0012423669422578,0.0012423669422578,-0.0012423669422578,0.0012423669422578,-0.0012423669422578,0.0012423669422578,-0.0012423669422578,0.0012423669422578,-0.0011926769544989,0.001192676954499,-0.001192676954499,0.001192676954499,0.6413942296307,0.63173351808648,1270536,32768,0.0050413057634259,0.0050413057634259,0.0050413057634259,14.058253967206,14.039636015125,2.7666031737646e-05,2.7666031737646e-05,2.7666031737646e-05,364857.92080127,0.015239038577776
21859200,0.99985392383429,0.015044572159343,0.0050148573864476,0.0050148573864476,0.0050148573864476,-0.0012126004171024,0.0012126004171024,2.3477223963394e-17,-1.3683405510766e-17,-8.7159102055143e-17,9.7055858539555e-17,-0.0012420077199832,0.0012420077199831,-0.0012420077199832,0.0012420077199831,-0.0012420077199831,0.0012420077199832,-0.0012420077199831,0.0012420077199832,-0.0011922877129152,0.0011922877129153,-0.0011922877129152,0.0011922877129152,1.0165865910363e-16,-8.1622506488455e-17,-6.0806965918343e-18,3.1881378986933e-17,-0.0012126004171023,0.0012126004171024,-0.0012420077199831,0.0012420077199831,-0.001242007719983,0.0012420077199832,-0.0012420077199831,0.0012420077199831,-0.0012420077199831,0.0012420077199831,-0.0011922877129152,0.0011922877129152,-0.0011922877129152,0.0011922877129152,-0.0011922877129151,0.0011922877129153,-0.0011922877129153,0.0011922877129152,-1.8444289480794e-17,2.033761399397e-17,-0.0012126004171024,0.0012126004171024,1.2999602871056e-17,-1.6955364378198e-17,-0.0012420077199831,0.0012420077199831,-0.0012420077199831,0.0012420077199831,-0.0012420077199831,0.0012420077199831,-0.0012420077199831,0.0012420077199831,-0.0011922877129152,0.0011922877129152,-0.0011922877129152,0.0011922877129152,0.63602349960494,0.61262024724234,1270536,32768,0.0050397453907017,0.0050397453907017,0.0050397453907017,13.891246495584,13.880143341192,2.6329971964669e-05,2.6329971964669e-05,2.6329971964669e-05,365875.03847929,0.015234285964448
21945600,0.99985604119723,0.015044601396932,0.0050148671323108,0.0050148671323107,0.0050148671323107,-0.001212798844143,0.001212798844143,2.3918386956756e-17,-1.3286358816741e-17,-8.6695880912113e-17,9.7173502004452e-17,-0.0012422173944943,0.0012422173944943,-0.0012422173944944,0.0012422173944943,-0.0012422173944943,0.0012422173944943,-0.0012422173944943,0.0012422173944943,-0.0011924785074594,0.0011924785074595,-0.0011924785074595,0.0011924785074595,1.0109985264537e-16,-8.2203371096381e-17,-6.6615611997604e-18,3.1057874732658e-17,-0.0012127988441429,0.001212798844143,-0.0012422173944942,0.0012422173944943,-0.0012422173944942,0.0012422173944943,-0.0012422173944943,0.0012422173944943,-0.0012422173944943,0.0012422173944943,-0.0011924785074595,0.0011924785074594,-0.0011924785074595,0.0011924785074594,-0.0011924785074593,0.0011924785074595,-0.0011924785074595,0.0011924785074594,-1.8683252768864e-17,1.9940567299945e-17,-0.0012127988441429,0.001212798844143,1.2646672476366e-17,-1.7337705639111e-17,-0.0012422173944943,0.0012422173944943,-0.0012422173944943,0.0012422173944942,-0.0012422173944943,0.0012422173944943,-0.0012422173944943,0.0012422173944943,-0.0011924785074594,0.0011924785074595,-0.0011924785074595,0.0011924785074594,0.62983407304737,0.59350697639821,1270536,32768,0.0050405680619828,0.0050405680619828,0.0050405680619828,14.023047452066,14.030949381117,2.7384379616528e-05,2.7384379616528e-05,2.7384379616528e-05,366878.56433005,0.015236791314176
22032000,0.99985814803435,0.015044630169251,0.0050148767230837,0.0050148767230837,0.0050148767230837,-0.0012130290702351,0.0012130290702351,2.3091206344203e-17,-1.4271622835248e-17,-8.7342919969044e-17,9.6291176017729e-17,-0.0012424647361961,0.0012424647361961,-0.0012424647361961,0.001242464736196,-0.0012424647361961,0.0012424647361961,-0.0012424647361961,0.0012424647361961,-0.0011926977477871,0.0011926977477873,-0.0011926977477872,0.0011926977477872,1.0053369347056e-16,-8.2504832475178e-17,-6.9630225785575e-18,3.0454951975063e-17,-0.0012130290702351,0.0012130290702351,-0.001242464736196,0.0012424647361961,-0.001242464736196,0.0012424647361961,-0.0012424647361961,0.0012424647361961,-0.0012424647361961,0.001242464736196,-0.0011926977477872,0.0011926977477872,-0.0011926977477872,0.0011926977477872,-0.0011926977477871,0.0011926977477873,-0.0011926977477873,0.0011926977477872,-1.869060548542e-17,2.0028799898617e-17,-0.0012130290702351,0.0012130290702351,1.2720199641927e-17,-1.7308294772887e-17,-0.0012424647361961,0.0012424647361961,-0.001242464736196,0.001242464736196,-0.001242464736196,0.0012424647361961,-0.001242464736196,0.0012424647361961,-0.0011926977477871,0.0011926977477872,-0.0011926977477872,0.0011926977477872,0.62292144661894,0.57439370555408,1270536,32768,0.0050415225467779,0.0050415225467778,0.0050415225467778,14.172144229142,14.181755421043,2.8577153833133e-05,2.8577153833133e-05,2.8577153833133e-05,368283.29812682,0.015239698230096
22118400,0.99986024428527,0.015044658449045,0.0050148861496817,0.0050148861496817,0.0050148861496817,-0.001213261055707,0.001213261055707,2.3969855972648e-17,-1.3117246335952e-17,-8.6504710281657e-17,9.7320556335572e-17,-0.0012427134015926,0.0012427134015926,-0.0012427134015927,0.0012427134015926,-0.0012427134015926,0.0012427134015927,-0.0012427134015926,0.0012427134015926,-0.0011929194074379,0.0011929194074381,-0.001192919407438,0.001192919407438,1.0099691461359e-16,-8.205631676526e-17,-6.2130454898427e-18,3.0969642133985e-17,-0.001213261055707,0.001213261055707,-0.0012427134015925,0.0012427134015926,-0.0012427134015925,0.0012427134015926,-0.0012427134015926,0.0012427134015926,-0.0012427134015926,0.0012427134015926,-0.001192919407438,0.001192919407438,-0.001192919407438,0.001192919407438,-0.0011929194074379,0.0011929194074381,-0.0011929194074381,0.001192919407438,-1.8249442492059e-17,2.0411141159531e-17,-0.001213261055707,0.001213261055707,1.2940781138607e-17,-1.6602433983509e-17,-0.0012427134015926,0.0012427134015926,-0.0012427134015926,0.0012427134015926,-0.0012427134015926,0.0012427134015926,-0.0012427134015926,0.0012427134015926,-0.001192919407438,0.001192919407438,-0.001192919407438,0.001192919407438,0.61536673530372,0.55528043470995,1270536,32768,0.0050424843271844,0.0050424843271843,0.0050424843271843,14.322786081016,14.332561460968,2.9782288648129e-05,2.9782288648129e-05,2.9782288648129e-05,369862.83059193,0.015242627372276
22204800,0.99986232969681,0.015044686290151,0.0050148954300504,0.0050148954300504,0.0050148954300503,-0.0012134924708889,0.0012134924708889,2.4286022784557e-17,-1.2734905075039e-17,-8.5990020122735e-17,9.7938184526279e-17,-0.0012429603770737,0.0012429603770736,-0.0012429603770737,0.0012429603770736,-0.0012429603770736,0.0012429603770737,-0.0012429603770736,0.0012429603770737,-0.0011931413907367,0.0011931413907368,-0.0011931413907368,0.0011931413907368,1.0045281358844e-16,-8.2850410153311e-17,-6.9262589957774e-18,3.014613787971e-17,-0.0012134924708889,0.0012134924708889,-0.0012429603770736,0.0012429603770736,-0.0012429603770735,0.0012429603770737,-0.0012429603770736,0.0012429603770736,-0.0012429603770736,0.0012429603770736,-0.0011931413907368,0.0011931413907367,-0.0011931413907368,0.0011931413907367,-0.0011931413907366,0.0011931413907368,-0.0011931413907368,0.0011931413907367,-1.8881776115877e-17,1.9867040134385e-17,-0.0012134924708889,0.0012134924708889,1.245550184591e-17,-1.6940658945086e-17,-0.0012429603770736,0.0012429603770736,-0.0012429603770736,0.0012429603770736,-0.0012429603770736,0.0012429603770736,-0.0012429603770736,0.0012429603770736,-0.0011931413907367,0.0011931413907367,-0.0011931413907368,0.0011931413907367,0.60898661763152,0.54581434588776,1270536,32768,0.0050434437461409,0.0050434437461408,0.0050434437461408,14.473576094589,14.483367500893,3.0988608756708e-05,3.0988608756708e-05,3.0988608756708e-05,371584.32015901,0.015245549319851
22291200,0.99986440399944,0.015044714570529,0.005014904856843,0.005014904856843,0.005014904856843,-0.0012137456282825,0.0012137456282825,2.4223524693831e-17,-1.2823137673711e-17,-8.6195896186304e-17,9.7585254131589e-17,-0.0012432203805305,0.0012432203805305,-0.0012432203805305,0.0012432203805304,-0.0012432203805305,0.0012432203805305,-0.0012432203805305,0.0012432203805305,-0.0011933926649118,0.0011933926649119,-0.0011933926649118,0.0011933926649118,1.0142337217384e-16,-8.1666622787791e-17,-5.6910026143648e-18,3.1454921426683e-17,-0.0012137456282825,0.0012137456282825,-0.0012432203805304,0.0012432203805305,-0.0012432203805304,0.0012432203805305,-0.0012432203805305,0.0012432203805305,-0.0012432203805305,0.0012432203805305,-0.0011933926649118,0.0011933926649118,-0.0011933926649118,0.0011933926649118,-0.0011933926649117,0.0011933926649119,-0.0011933926649119,0.0011933926649118,-1.856193294569e-17,2.0219970529074e-17,-0.0012137456282825,0.0012137456282825,1.2734905075039e-17,-1.6675961149069e-17,-0.0012432203805305,0.0012432203805305,-0.0012432203805305,0.0012432203805304,-0.0012432203805305,0.0012432203805305,-0.0012432203805305,0.0012432203805305,-0.0011933926649118,0.0011933926649118,-0.0011933926649118,0.0011933926649118,0.62191243344956,0.6415819639154,1270536,32768,0.0050444933017032,0.0050444933017032,0.0050444933017032,14.624380563387,14.634173540819,3.2195044507097e-05,3.2195044507097e-05,3.2195044507097e-05,372697.17225017,0.015248745841654
22377600,0.99986646692418,0.015044743120917,0.0050149143736391,0.0050149143736391,0.005014914373639,-0.0012142372699977,0.0012142372699977,2.1444197835653e-17,-1.5550995515997e-17,-8.8989928477594e-17,9.4747105540963e-17,-0.0012436366701416,0.0012436366701416,-0.0012436366701417,0.0012436366701416,-0.0012436366701416,0.0012436366701416,-0.0012436366701416,0.0012436366701416,-0.0011939534037588,0.0011939534037589,-0.0011939534037588,0.0011939534037588,1.0234246174334e-16,-8.090929298252e-17,-5.4410102514599e-18,3.2234309381622e-17,-0.0012142372699977,0.0012142372699977,-0.0012436366701415,0.0012436366701416,-0.0012436366701415,0.0012436366701416,-0.0012436366701416,0.0012436366701416,-0.0012436366701416,0.0012436366701416,-0.0011939534037588,0.0011939534037588,-0.0011939534037588,0.0011939534037588,-0.0011939534037587,0.0011939534037589,-0.0011939534037589,0.0011939534037588,-2.0668486238992e-17,1.7999450129154e-17,-0.0012142372699977,0.0012142372699977,1.0646733573127e-17,-1.9131768478782e-17,-0.0012436366701416,0.0012436366701416,-0.0012436366701416,0.0012436366701416,-0.0012436366701416,0.0012436366701416,-0.0012436366701416,0.0012436366701416,-0.0011939534037588,0.0011939534037588,-0.0011939534037588,0.0011939534037588,0.63131506093414,0.67319470915953,1270536,32768,0.0050465315079459,0.0050465315079459,0.0050465315079458,14.7751864491,14.784979580744,3.3401491592801e-05,3.3401491592801e-05,3.3401491592801e-05,365914.69426548,0.015254954029468
22464000,0.99986851820435,0.0150447719016,0.0050149239672002,0.0050149239672001,0.0050149239672001,-0.0012146329404149,0.0012146329404149,2.3955150539536e-17,-1.3264300667073e-17,-8.6409124966428e-17,9.7555843265365e-17,-0.00124399304243,0.00124399304243,-0.0012439930424301,0.00124399304243,-0.00124399304243,0.0012439930424301,-0.00124399304243,0.0012439930424301,-0.0011943748693276,0.0011943748693277,-0.0011943748693276,0.0011943748693277,1.0085721299902e-16,-8.2306309128165e-17,-6.007169426274e-18,3.0337308510167e-17,-0.0012146329404149,0.0012146329404149,-0.0012439930424299,0.00124399304243,-0.0012439930424299,0.0012439930424301,-0.00124399304243,0.00124399304243,-0.00124399304243,0.00124399304243,-0.0011943748693277,0.0011943748693276,-0.0011943748693277,0.0011943748693276,-0.0011943748693275,0.0011943748693277,-0.0011943748693277,0.0011943748693276,-1.7962686546374e-17,2.0675838955548e-17,-0.0012146329404149,0.0012146329404149,1.2984897437944e-17,-1.5925984060354e-17,-0.00124399304243,0.00124399304243,-0.00124399304243,0.00124399304243,-0.00124399304243,0.00124399304243,-0.00124399304243,0.00124399304243,-0.0011943748693276,0.0011943748693276,-0.0011943748693277,0.0011943748693276,0.63996843314282,0.69548811134313,1270536,32768,0.0050481717986696,0.0050481717986695,0.0050481717986695,14.925992473884,14.93578562067,3.4607939791069e-05,3.4607939791069e-05,3.4607939791069e-05,362007.73294014,0.015259950202062
22550400,0.99987055757584,0.015044800843159,0.0050149336143864,0.0050149336143864,0.0050149336143863,-0.0012150024554683,0.0012150024554683,2.3234584317045e-17,-1.3999572322675e-17,-8.7217923787591e-17,9.6423524915737e-17,-0.0012443362878766,0.0012443362878766,-0.0012443362878767,0.0012443362878766,-0.0012443362878766,0.0012443362878767,-0.0012443362878766,0.0012443362878767,-0.0011947584413833,0.0011947584413835,-0.0011947584413834,0.0011947584413834,1.0075427496724e-16,-8.2394541726838e-17,-6.1101074580584e-18,3.0234370478383e-17,-0.0012150024554683,0.0012150024554683,-0.0012443362878765,0.0012443362878766,-0.0012443362878765,0.0012443362878766,-0.0012443362878766,0.0012443362878766,-0.0012443362878766,0.0012443362878766,-0.0011947584413834,0.0011947584413834,-0.0011947584413834,0.0011947584413834,-0.0011947584413833,0.0011947584413835,-0.0011947584413835,0.0011947584413834,-1.7845043081477e-17,2.0778776987332e-17,-0.0012150024554683,0.0012150024554683,1.2984897437944e-17,-1.5837751461682e-17,-0.0012443362878766,0.0012443362878766,-0.0012443362878766,0.0012443362878766,-0.0012443362878766,0.0012443362878766,-0.0012443362878766,0.0012443362878766,-0.0011947584413833,0.0011947584413834,-0.0011947584413834,0.0011947584413834,0.64727199165991,0.70836833440602,1270536,32768,0.0050497036483831,0.005049703648383,0.005049703648383,15.076798512322,15.086591660595,3.5814388098578e-05,3.5814388098578e-05,3.5814388098578e-05,358825.11724326,0.015264616085528
22636800,0.99987258086409,0.015044829871964,0.0050149432906548,0.0050149432906548,0.0050149432906548,-0.0012152882338804,0.0012152882338805,2.402132498854e-17,-1.3227537084292e-17,-8.624001248564e-17,9.715879657134e-17,-0.0012446081708924,0.0012446081708924,-0.0012446081708925,0.0012446081708924,-0.0012446081708924,0.0012446081708925,-0.0012446081708924,0.0012446081708924,-0.0011950488883298,0.0011950488883299,-0.0011950488883298,0.0011950488883298,1.006439842189e-16,-8.2357778144058e-17,-6.271867222291e-18,3.0410835675727e-17,-0.0012152882338804,0.0012152882338805,-0.0012446081708923,0.0012446081708924,-0.0012446081708923,0.0012446081708924,-0.0012446081708924,0.0012446081708924,-0.0012446081708924,0.0012446081708924,-0.0011950488883298,0.0011950488883298,-0.0011950488883298,0.0011950488883298,-0.0011950488883297,0.0011950488883299,-0.0011950488883299,0.0011950488883298,-1.7572992568904e-17,2.1131707382021e-17,-0.0012152882338804,0.0012152882338804,1.3587820195538e-17,-1.5293650436536e-17,-0.0012446081708924,0.0012446081708924,-0.0012446081708924,0.0012446081708924,-0.0012446081708924,0.0012446081708924,-0.0012446081708924,0.0012446081708924,-0.0011950488883298,0.0011950488883298,-0.0011950488883298,0.0011950488883298,0.65436000716913,0.72124855746891,1270536,32768,0.0050508883490293,0.0050508883490293,0.0050508883490292,15.197374193365,15.205269359804,3.6778993546915e-05,3.6778993546915e-05,3.6778993546915e-05,356396.16465155,0.015268224617439
22723200,0.99987457920188,0.015044858854218,0.0050149529514059,0.0050149529514058,0.0050149529514058,-0.0012154352116146,0.0012154352116146,2.3455165813726e-17,-1.3845165274999e-17,-8.7012047724023e-17,9.6526462947521e-17,-0.0012447464816326,0.0012447464816326,-0.0012447464816327,0.0012447464816326,-0.0012447464816326,0.0012447464816327,-0.0012447464816326,0.0012447464816326,-0.0011951982177295,0.0011951982177297,-0.0011951982177296,0.0011951982177296,1.0081309669969e-16,-8.1923967867252e-17,-6.1909873401747e-18,3.0660828038632e-17,-0.0012154352116146,0.0012154352116146,-0.0012447464816325,0.0012447464816326,-0.0012447464816325,0.0012447464816326,-0.0012447464816326,0.0012447464816326,-0.0012447464816326,0.0012447464816326,-0.0011951982177296,0.0011951982177296,-0.0011951982177296,0.0011951982177295,-0.0011951982177295,0.0011951982177297,-0.0011951982177296,0.0011951982177295,-1.8231060700669e-17,2.0528784624427e-17,-0.0012154352116146,0.0012154352116146,1.3043719170392e-17,-1.5925984060354e-17,-0.0012447464816326,0.0012447464816326,-0.0012447464816326,0.0012447464816326,-0.0012447464816326,0.0012447464816326,-0.0012447464816326,0.0012447464816326,-0.0011951982177295,0.0011951982177296,-0.0011951982177296,0.0011951982177296,0.66145355557353,0.73412878053179,1270536,32768,0.0050514976265666,0.0050514976265666,0.0050514976265666,15.249681545368,15.253228751199,3.7197452362945e-05,3.7197452362945e-05,3.7197452362945e-05,354157.04362815,0.015270080535549
22809600,0.9998765522891,0.015044887782117,0.005014962594039,0.005014962594039,0.005014962594039,-0.0012155706744262,0.0012155706744262,2.4153673886548e-17,-1.3234889800848e-17,-8.6394419533316e-17,9.7011742240219e-17,-0.0012448742471428,0.0012448742471428,-0.0012448742471429,0.0012448742471428,-0.0012448742471428,0.0012448742471429,-0.0012448742471428,0.0012448742471429,-0.0011953363205876,0.0011953363205877,-0.0011953363205876,0.0011953363205877,1.000410614613e-16,-8.2975406334764e-17,-6.9556698620015e-18,2.9793207485021e-17,-0.0012155706744262,0.0012155706744262,-0.0012448742471427,0.0012448742471428,-0.0012448742471427,0.0012448742471429,-0.0012448742471428,0.0012448742471428,-0.0012448742471428,0.0012448742471428,-0.0011953363205877,0.0011953363205876,-0.0011953363205877,0.0011953363205876,-0.0011953363205875,0.0011953363205877,-0.0011953363205877,0.0011953363205876,-1.8837659816541e-17,1.9852334701273e-17,-0.0012155706744262,0.0012155706744262,1.2352563814125e-17,-1.6764193747741e-17,-0.0012448742471428,0.0012448742471428,-0.0012448742471428,0.0012448742471428,-0.0012448742471428,0.0012448742471428,-0.0012448742471428,0.0012448742471428,-0.0011953363205876,0.0011953363205876,-0.0011953363205877,0.0011953363205876,0.6686447524556,0.74700900359468,1270536,32768,0.0050520591737733,0.0050520591737733,0.0050520591737733,15.298032080667,15.301188142595,3.7584256645337e-05,3.7584256645337e-05,3.7584256645337e-05,351925.93583023,0.015271791047865
22896000,0.99987850030224,0.015044914472712,0.005014971490904,0.005014971490904,0.005014971490904,-0.0012157024015308,0.0012157024015308,2.3289729691215e-17,-1.3889281574335e-17,-8.7056164023359e-17,9.6511757514409e-17,-0.0012449996632501,0.00124499966325,-0.0012449996632501,0.00124499966325,-0.00124499966325,0.0012449996632501,-0.00124499966325,0.0012449996632501,-0.001195470467144,0.0011954704671442,-0.0011954704671441,0.0011954704671441,1.0094544559769e-16,-8.2071022198372e-17,-6.3086308050711e-18,3.064612260552e-17,-0.0012157024015308,0.0012157024015308,-0.00124499966325,0.00124499966325,-0.00124499966325,0.0012449996632501,-0.00124499966325,0.00124499966325,-0.00124499966325,0.00124499966325,-0.0011954704671441,0.0011954704671441,-0.0011954704671441,0.0011954704671441,-0.001195470467144,0.0011954704671442,-0.0011954704671442,0.0011954704671441,-1.8889128832433e-17,2.0014094465505e-17,-0.0012157024015308,0.0012157024015308,1.2293742081677e-17,-1.6852426346414e-17,-0.00124499966325,0.00124499966325,-0.00124499966325,0.00124499966325,-0.00124499966325,0.00124499966325,-0.00124499966325,0.00124499966325,-0.001195470467144,0.0011954704671441,-0.0011954704671441,0.0011954704671441,0.62486028984309,0.47808803407847,1270536,32768,0.0050526052357761,0.0050526052357761,0.005052605235776,15.346029046941,15.34914753399,3.7968232375528e-05,3.7968232375528e-05,3.7968232375528e-05,349713.66014393,0.015273454390688
22982400,0.99988042345905,0.01504494081899,0.0050149802729966,0.0050149802729965,0.0050149802729965,-0.0012152357879948,0.0012152357879948,2.4407342607731e-17,-1.2786374090931e-17,-8.5570915279041e-17,9.7747013895822e-17,-0.0012447335959816,0.0012447335959816,-0.0012447335959817,0.0012447335959816,-0.0012447335959816,0.0012447335959817,-0.0012447335959816,0.0012447335959817,-0.0011948224511329,0.001194822451133,-0.0011948224511329,0.0011948224511329,1.0140131402417e-16,-8.1512215740114e-17,-5.6248281653606e-18,3.1190223630666e-17,-0.0012152357879948,0.0012152357879948,-0.0012447335959815,0.0012447335959816,-0.0012447335959815,0.0012447335959817,-0.0012447335959816,0.0012447335959816,-0.0012447335959816,0.0012447335959816,-0.0011948224511329,0.0011948224511329,-0.0011948224511329,0.0011948224511329,-0.0011948224511328,0.001194822451133,-0.001194822451133,0.0011948224511329,-1.7481083611954e-17,2.1219939980694e-17,-0.0012152357879948,0.0012152357879948,1.3690758227322e-17,-1.5631875398113e-17,-0.0012447335959816,0.0012447335959816,-0.0012447335959816,0.0012447335959816,-0.0012447335959816,0.0012447335959816,-0.0012447335959816,0.0012447335959816,-0.0011948224511329,0.0011948224511329,-0.0011948224511329,0.0011948224511329,0.62475989176925,0.56798774821511,1270536,32768,0.005050670835918,0.005050670835918,0.005050670835918,15.393992106076,15.397106925386,3.8351936848609e-05,3.8351936848609e-05,3.8351936848609e-05,367133.73566288,0.015267561575264
23068800,0.9998823219806,0.015044966677755,0.0050149888925851,0.0050149888925851,0.0050149888925851,-0.0012154200783062,0.0012154200783062,2.3263995183269e-17,-1.3881928857779e-17,-8.6835582526678e-17,9.6467641215073e-17,-0.0012448850027922,0.0012448850027922,-0.0012448850027923,0.0012448850027922,-0.0012448850027922,0.0012448850027923,-0.0012448850027922,0.0012448850027922,-0.0011950629390906,0.0011950629390908,-0.0011950629390907,0.0011950629390907,1.0062927878578e-16,-8.2218076529493e-17,-6.3895106871874e-18,3.0734355204193e-17,-0.0012154200783062,0.0012154200783062,-0.0012448850027921,0.0012448850027922,-0.0012448850027921,0.0012448850027922,-0.0012448850027922,0.0012448850027922,-0.0012448850027922,0.0012448850027922,-0.0011950629390907,0.0011950629390907,-0.0011950629390907,0.0011950629390907,-0.0011950629390906,0.0011950629390908,-0.0011950629390908,0.0011950629390907,-1.8694281843698e-17,2.0058210764841e-17,-0.0012154200783062,0.0012154200783062,1.252902901147e-17,-1.6837720913302e-17,-0.0012448850027922,0.0012448850027922,-0.0012448850027922,0.0012448850027922,-0.0012448850027922,0.0012448850027922,-0.0012448850027922,0.0012448850027922,-0.0011950629390907,0.0011950629390907,-0.0011950629390907,0.0011950629390907,0.62127853541426,0.57343655006176,1270536,32768,0.0050514349483135,0.0050514349483135,0.0050514349483134,15.441951857037,15.445066316781,3.8735614856293e-05,3.8735614856293e-05,3.8735614856293e-05,364067.23061209,0.015269888901585
23155200,0.99988419608775,0.015044992133348,0.0050149973777826,0.0050149973777825,0.0050149973777825,-0.0012155117997327,0.0012155117997327,2.307650091109e-17,-1.4087804921348e-17,-8.692381512535e-17,9.6114710820384e-17,-0.0012449710974194,0.0012449710974194,-0.0012449710974195,0.0012449710974194,-0.0012449710974194,0.0012449710974195,-0.0012449710974194,0.0012449710974195,-0.0011951670040434,0.0011951670040435,-0.0011951670040434,0.0011951670040434,9.9570487601717e-17,-8.2703355822191e-17,-7.110076909678e-18,3.007261071415e-17,-0.0012155117997327,0.0012155117997327,-0.0012449710974194,0.0012449710974194,-0.0012449710974193,0.0012449710974195,-0.0012449710974194,0.0012449710974194,-0.0012449710974194,0.0012449710974194,-0.0011951670040434,0.0011951670040434,-0.0011951670040434,0.0011951670040434,-0.0011951670040433,0.0011951670040435,-0.0011951670040435,0.0011951670040434,-1.869060548542e-17,2.019055966285e-17,-0.0012155117997327,0.0012155117997327,1.2852548539935e-17,-1.6617139416621e-17,-0.0012449710974194,0.0012449710974194,-0.0012449710974194,0.0012449710974194,-0.0012449710974194,0.0012449710974194,-0.0012449710974194,0.0012449710974194,-0.0011951670040434,0.0011951670040434,-0.0011951670040434,0.0011951670040434,0.61954260315021,0.5822478885742,1270536,32768,0.0050518152365803,0.0050518152365803,0.0050518152365802,15.489911283725,15.493025708177,3.9119290269798e-05,3.9119290269798e-05,3.9119290269798e-05,363875.20712449,0.015271047102245
23241600,0.99988604600073,0.015045017635547,0.0050150058785159,0.0050150058785158,0.0050150058785158,-0.0012156178558155,0.0012156178558155,2.2771363174015e-17,-1.4381913583589e-17,-8.7078222173027e-17,9.5717664126358e-17,-0.001245066537148,0.001245066537148,-0.0012450665371481,0.001245066537148,-0.001245066537148,0.0012450665371481,-0.001245066537148,0.0012450665371481,-0.0011952855320341,0.0011952855320343,-0.0011952855320342,0.0011952855320342,9.937931697126e-17,-8.2828352003643e-17,-7.3453638394709e-18,2.9690269453237e-17,-0.0012156178558154,0.0012156178558155,-0.001245066537148,0.001245066537148,-0.0012450665371479,0.0012450665371481,-0.001245066537148,0.001245066537148,-0.001245066537148,0.001245066537148,-0.0011952855320342,0.0011952855320342,-0.0011952855320342,0.0011952855320342,-0.0011952855320341,0.0011952855320343,-0.0011952855320343,0.0011952855320342,-1.8348704165565e-17,2.0293497694634e-17,-0.0012156178558155,0.0012156178558155,1.2881959406159e-17,-1.64700850855e-17,-0.001245066537148,0.001245066537148,-0.001245066537148,0.001245066537148,-0.001245066537148,0.001245066537148,-0.001245066537148,0.001245066537148,-0.0011952855320341,0.0011952855320342,-0.0011952855320342,0.0011952855320342,0.62879352310557,0.64533473333085,1270536,32768,0.0050522549373128,0.0050522549373127,0.0050522549373127,15.537870678586,15.540985099572,3.9502965428685e-05,3.9502965428685e-05,3.9502965428685e-05,363228.93074692,0.015272386308047
23328000,0.99988787193915,0.015045043252579,0.0050150144175264,0.0050150144175263,0.0050150144175263,-0.0012158463892297,0.0012158463892297,2.2866948489244e-17,-1.432309185114e-17,-8.696057870813e-17,9.5967656489263e-17,-0.0012452432124805,0.0012452432124805,-0.0012452432124805,0.0012452432124804,-0.0012452432124805,0.0012452432124805,-0.0012452432124805,0.0012452432124805,-0.0011955600043727,0.0011955600043729,-0.0011955600043728,0.0011955600043728,9.8210235038852e-17,-8.3865085038043e-17,-8.6247365202196e-18,2.8572656536721e-17,-0.0012158463892297,0.0012158463892297,-0.0012452432124804,0.0012452432124805,-0.0012452432124804,0.0012452432124805,-0.0012452432124805,0.0012452432124805,-0.0012452432124805,0.0012452432124804,-0.0011955600043728,0.0011955600043728,-0.0011955600043728,0.0011955600043727,-0.0011955600043727,0.0011955600043728,-0.0011955600043728,0.0011955600043727,-1.9863363776107e-17,1.8970008714549e-17,-0.0012158463892297,0.0012158463892297,1.152905955985e-17,-1.7793574065585e-17,-0.0012452432124805,0.0012452432124805,-0.0012452432124805,0.0012452432124804,-0.0012452432124804,0.0012452432124805,-0.0012452432124804,0.0012452432124805,-0.0011955600043727,0.0011955600043728,-0.0011955600043728,0.0011955600043728,0.63991206299163,0.69102081424216,1270536,32768,0.0050532023624159,0.0050532023624159,0.0050532023624158,15.585830070322,15.588944490968,3.9886640562571e-05,3.9886640562571e-05,3.9886640562571e-05,358501.52602616,0.015275272209019
23414400,0.99988968055235,0.015045068216864,0.0050150227389549,0.0050150227389548,0.0050150227389548,-0.0012161688142279,0.0012161688142279,2.2113295042251e-17,-1.5146596105415e-17,-8.8048780758422e-17,9.4791221840299e-17,-0.0012455199597024,0.0012455199597024,-0.0012455199597024,0.0012455199597023,-0.0012455199597024,0.0012455199597024,-0.0012455199597024,0.0012455199597024,-0.0011959156346143,0.0011959156346144,-0.0011959156346144,0.0011959156346144,9.8938153977898e-17,-8.3350394879121e-17,-8.0144610460693e-18,2.957262598834e-17,-0.0012161688142279,0.0012161688142279,-0.0012455199597023,0.0012455199597024,-0.0012455199597023,0.0012455199597024,-0.0012455199597024,0.0012455199597024,-0.0012455199597024,0.0012455199597023,-0.0011959156346144,0.0011959156346143,-0.0011959156346144,0.0011959156346143,-0.0011959156346142,0.0011959156346144,-0.0011959156346144,0.0011959156346143,-1.7977391979486e-17,2.0543490057539e-17,-0.0012161688142279,0.0012161688142279,1.3308416966409e-17,-1.6617139416621e-17,-0.0012455199597024,0.0012455199597024,-0.0012455199597024,0.0012455199597023,-0.0012455199597023,0.0012455199597024,-0.0012455199597023,0.0012455199597024,-0.0011959156346143,0.0011959156346144,-0.0011959156346144,0.0011959156346143,0.62954969381449,0.60514741048134,1270536,32768,0.0050545389998964,0.0050545389998963,0.0050545389998963,15.689715044904,15.696340695733,4.0717720359233e-05,4.0717720359233e-05,4.0717720359233e-05,353977.45208376,0.015279343608808
23500800,0.99989148491529,0.015045092394843,0.0050150307982811,0.0050150307982811,0.0050150307982811,-0.001216446432885,0.001216446432885,2.0664809880714e-17,-1.6337736187492e-17,-8.9438444187511e-17,9.3555965458887e-17,-0.0012458450420408,0.0012458450420408,-0.0012458450420409,0.0012458450420408,-0.0012458450420408,0.0012458450420409,-0.0012458450420408,0.0012458450420409,-0.0011961417908095,0.0011961417908096,-0.0011961417908095,0.0011961417908095,9.8982270277234e-17,-8.3387158461901e-17,-7.933581163953e-18,2.9484393389668e-17,-0.001216446432885,0.001216446432885,-0.0012458450420407,0.0012458450420408,-0.0012458450420407,0.0012458450420409,-0.0012458450420408,0.0012458450420408,-0.0012458450420408,0.0012458450420408,-0.0011961417908095,0.0011961417908095,-0.0011961417908095,0.0011961417908095,-0.0011961417908094,0.0011961417908096,-0.0011961417908096,0.0011961417908095,-1.9275146451625e-17,1.9234706510566e-17,-0.001216446432885,0.001216446432885,1.2264331215453e-17,-1.7425938237784e-17,-0.0012458450420408,0.0012458450420408,-0.0012458450420408,0.0012458450420408,-0.0012458450420408,0.0012458450420408,-0.0012458450420408,0.0012458450420408,-0.0011961417908095,0.0011961417908095,-0.0011961417908095,0.0011961417908095,0.61113905437765,0.51927400672051,1270536,32768,0.0050556899029014,0.0050556899029013,0.0050556899029013,15.908299818676,15.922241114251,4.2466398549404e-05,4.2466398549404e-05,4.2466398549404e-05,358021.37064905,0.015282848803728
23587200,0.99989328534313,0.015045116976195,0.0050150389920651,0.0050150389920651,0.0050150389920651,-0.0012166727826127,0.0012166727826127,2.2433138212438e-17,-1.4896603742511e-17,-8.7335567252488e-17,9.5350028298557e-17,-0.0012461429770353,0.0012461429770353,-0.0012461429770354,0.0012461429770353,-0.0012461429770353,0.0012461429770354,-0.0012461429770353,0.0012461429770353,-0.0011963076128953,0.0011963076128954,-0.0011963076128953,0.0011963076128953,9.8702867048105e-17,-8.3497449210242e-17,-7.9997556129573e-18,2.9204990160539e-17,-0.0012166727826127,0.0012166727826127,-0.0012461429770352,0.0012461429770353,-0.0012461429770352,0.0012461429770353,-0.0012461429770353,0.0012461429770353,-0.0012461429770353,0.0012461429770353,-0.0011963076128953,0.0011963076128953,-0.0011963076128953,0.0011963076128953,-0.0011963076128952,0.0011963076128954,-0.0011963076128954,0.0011963076128953,-1.8962655997993e-17,1.9808218401937e-17,-0.0012166727826127,0.0012166727826127,1.2543734444582e-17,-1.7117124142431e-17,-0.0012461429770353,0.0012461429770353,-0.0012461429770353,0.0012461429770353,-0.0012461429770353,0.0012461429770353,-0.0012461429770353,0.0012461429770353,-0.0011963076128953,0.0011963076128953,-0.0011963076128953,0.0011963076128953,0.62271354980485,0.62948455144777,1270536,32768,0.0050566283101396,0.0050566283101395,0.0050566283101395,16.133541940358,16.148141532768,4.4268335522863e-05,4.4268335522863e-05,4.4268335522863e-05,364584.1438258,0.015285706619986
23673600,0.99989508143569,0.015045142341804,0.0050150474472679,0.0050150474472679,0.0050150474472679,-0.0012173046744129,0.0012173046744129,2.3841183432917e-17,-1.306577732006e-17,-8.581355492539e-17,9.6879393342211e-17,-0.0012467041657491,0.0012467041657491,-0.0012467041657491,0.001246704165749,-0.0012467041657491,0.0012467041657491,-0.0012467041657491,0.0012467041657491,-0.0011970126799473,0.0011970126799475,-0.0011970126799474,0.0011970126799474,9.984253811429e-17,-8.2122491214265e-17,-6.9556698620015e-18,2.9616742287676e-17,-0.0012173046744128,0.0012173046744129,-0.001246704165749,0.0012467041657491,-0.001246704165749,0.0012467041657491,-0.0012467041657491,0.0012467041657491,-0.0012467041657491,0.001246704165749,-0.0011970126799474,0.0011970126799474,-0.0011970126799474,0.0011970126799473,-0.0011970126799473,0.0011970126799475,-0.0011970126799474,0.0011970126799474,-2.1054503858183e-17,1.7631814301353e-17,-0.0012173046744129,0.0012173046744128,9.8673456181881e-18,-1.8867070682765e-17,-0.0012467041657491,0.001246704165749,-0.001246704165749,0.001246704165749,-0.001246704165749,0.001246704165749,-0.001246704165749,0.0012467041657491,-0.0011970126799473,0.0011970126799474,-0.0011970126799474,0.0011970126799474,0.64416218409514,0.7352820555999,1270536,32768,0.005059247942814,0.005059247942814,0.005059247942814,16.359379115843,16.374041951286,4.6075032926741e-05,4.6075032926741e-05,4.6075032926741e-05,358034.53725641,0.015293685952032
23760000,0.99989687272761,0.015045168389699,0.0050150561298996,0.0050150561298996,0.0050150561298996,-0.001217982849804,0.001217982849804,2.1469932343599e-17,-1.5631875398113e-17,-8.7967900876306e-17,9.4423586012498e-17,-0.0012472969774822,0.0012472969774822,-0.0012472969774823,0.0012472969774822,-0.0012472969774822,0.0012472969774823,-0.0012472969774822,0.0012472969774822,-0.0011977610429198,0.0011977610429199,-0.0011977610429198,0.0011977610429199,9.7724955746154e-17,-8.42400735824e-17,-8.2423952593062e-18,2.7881501180454e-17,-0.0012179828498039,0.001217982849804,-0.0012472969774821,0.0012472969774822,-0.0012472969774821,0.0012472969774822,-0.0012472969774822,0.0012472969774822,-0.0012472969774822,0.0012472969774822,-0.0011977610429199,0.0011977610429198,-0.0011977610429199,0.0011977610429198,-0.0011977610429197,0.0011977610429199,-0.0011977610429199,0.0011977610429198,-2.085598051117e-17,1.7925922963594e-17,-0.0012179828498039,0.0012179828498039,1.0146748847317e-17,-1.8146504460274e-17,-0.0012472969774822,0.0012472969774822,-0.0012472969774822,0.0012472969774822,-0.0012472969774822,0.0012472969774822,-0.0012472969774822,0.0012472969774822,-0.0011977610429198,0.0011977610429198,-0.0011977610429199,0.0011977610429198,0.66320363578332,0.7891656146954,1270536,32768,0.0050620593673022,0.0050620593673022,0.0050620593673022,16.585273360998,16.599942369804,4.7882186887983e-05,4.7882186887983e-05,4.7882186887983e-05,349634.40749026,0.015302249729404
23846400,0.99989865874581,0.015045195121984,0.0050150650406615,0.0050150650406615,0.0050150650406615,-0.001218578221726,0.001218578221726,1.408412856307e-17,-2.2991944670696e-17,-9.4864749005859e-17,8.6467946698877e-17,-0.0012478407274121,0.001247840727412,-0.0012478407274121,0.001247840727412,-0.001247840727412,0.0012478407274121,-0.001247840727412,0.0012478407274121,-0.0011983883364571,0.0011983883364572,-0.0011983883364572,0.0011983883364572,9.3144213331749e-17,-8.7747319379625e-17,-1.2131982317444e-17,2.4234553768665e-17,-0.001218578221726,0.001218578221726,-0.001247840727412,0.001247840727412,-0.0012478407274119,0.0012478407274121,-0.001247840727412,0.001247840727412,-0.001247840727412,0.001247840727412,-0.0011983883364572,0.0011983883364571,-0.0011983883364572,0.0011983883364571,-0.001198388336457,0.0011983883364572,-0.0011983883364572,0.0011983883364571,-1.0639380856571e-17,2.7896206613566e-17,-0.001218578221726,0.001218578221726,2.0278792261522e-17,-8.3673914407586e-18,-0.001247840727412,0.001247840727412,-0.001247840727412,0.001247840727412,-0.001247840727412,0.001247840727412,-0.001247840727412,0.001247840727412,-0.0011983883364571,0.0011983883364571,-0.0011983883364571,0.0011983883364572,0.68256795928881,0.83677736959159,1270536,32768,0.005064527475206,0.005064527475206,0.005064527475206,16.81117317431,16.825842788321,4.9689385394483e-05,4.9689385394483e-05,4.9689385394483e-05,343629.24070537,0.015309767787346
23932800,0.99990043901533,0.015045222569388,0.0050150741897959,0.0050150741897959,0.0050150741897959,-0.0012191504150693,0.0012191504150693,1.9139121195338e-17,-1.8036213711934e-17,-8.9475207770292e-17,9.1806018918552e-17,-0.001248374419528,0.001248374419528,-0.0012483744195281,0.001248374419528,-0.001248374419528,0.0012483744195281,-0.001248374419528,0.0012483744195281,-0.0011989814886557,0.0011989814886558,-0.0011989814886558,0.0011989814886558,9.6247059718392e-17,-8.474005830821e-17,-9.1835429784776e-18,2.7013880626843e-17,-0.0012191504150693,0.0012191504150693,-0.001248374419528,0.001248374419528,-0.0012483744195279,0.001248374419528,-0.001248374419528,0.001248374419528,-0.001248374419528,0.001248374419528,-0.0011989814886558,0.0011989814886557,-0.0011989814886558,0.0011989814886557,-0.0011989814886557,0.0011989814886558,-0.0011989814886558,0.0011989814886557,-1.6179652781537e-17,2.2719894158123e-17,-0.0012191504150693,0.0012191504150693,1.5455410200769e-17,-1.3161362635288e-17,-0.001248374419528,0.001248374419528,-0.001248374419528,0.001248374419528,-0.001248374419528,0.001248374419528,-0.001248374419528,0.001248374419528,-0.0011989814886557,0.0011989814886558,-0.0011989814886558,0.0011989814886557,0.70303737557096,0.88438912448778,1270536,32768,0.0050668994805142,0.0050668994805142,0.0050668994805142,17.037073533424,17.051743206839,5.1496588267394e-05,5.1496588267394e-05,5.1496588267394e-05,338175.63335878,0.015316993162447
24019200,0.99990221306016,0.01504525012952,0.0050150833765066,0.0050150833765065,0.0050150833765065,-0.0012197132820565,0.0012197132820565,2.3308111482605e-17,-1.3903987007447e-17,-8.6651764612777e-17,9.5526493495902e-17,-0.0012489056111498,0.0012489056111497,-0.0012489056111498,0.0012489056111497,-0.0012489056111497,0.0012489056111498,-0.0012489056111497,0.0012489056111498,-0.0011995609613142,0.0011995609613143,-0.0011995609613143,0.0011995609613143,9.3217740497309e-17,-8.8409063869668e-17,-1.3720169093546e-17,2.2572839827003e-17,-0.0012197132820565,0.0012197132820565,-0.0012489056111497,0.0012489056111497,-0.0012489056111496,0.0012489056111498,-0.0012489056111497,0.0012489056111497,-0.0012489056111497,0.0012489056111497,-0.0011995609613143,0.0011995609613143,-0.0011995609613143,0.0011995609613142,-0.0011995609613142,0.0011995609613143,-0.0011995609613144,0.0011995609613142,-1.8914863340379e-17,2.0175854229738e-17,-0.0012197132820565,0.0012197132820565,1.267608334259e-17,-1.6043627525251e-17,-0.0012489056111497,0.0012489056111497,-0.0012489056111497,0.0012489056111497,-0.0012489056111497,0.0012489056111497,-0.0012489056111497,0.0012489056111497,-0.0011995609613143,0.0011995609613143,-0.0011995609613143,0.0011995609613143,0.70836062121924,0.84208196311467,1270536,32768,0.0050692328136733,0.0050692328136733,0.0050692328136733,17.262973946109,17.277643625356,5.3303791568874e-05,5.3303791568874e-05,5.3303791568874e-05,332840.84321879,0.01532410079469
24105600,0.99990398040379,0.015045276635174,0.0050150922117245,0.0050150922117245,0.0050150922117245,-0.0012201143130566,0.0012201143130566,2.2436814570716e-17,-1.4984836341183e-17,-8.7563501465725e-17,9.4702989241627e-17,-0.0012493337877887,0.0012493337877887,-0.0012493337877887,0.0012493337877886,-0.0012493337877887,0.0012493337877887,-0.0012493337877887,0.0012493337877887,-0.0011999281787746,0.0011999281787748,-0.0011999281787747,0.0011999281787747,9.93057898057e-17,-8.2276898261941e-17,-7.1394877759021e-18,2.9043230396306e-17,-0.0012201143130566,0.0012201143130566,-0.0012493337877886,0.0012493337877887,-0.0012493337877886,0.0012493337877887,-0.0012493337877887,0.0012493337877887,-0.0012493337877887,0.0012493337877886,-0.0011999281787747,0.0011999281787747,-0.0011999281787747,0.0011999281787747,-0.0011999281787746,0.0011999281787747,-0.0011999281787747,0.0011999281787746,-1.9014125013886e-17,1.9587636905256e-17,-0.0012201143130566,0.0012201143130566,1.2087866018108e-17,-1.6220092722595e-17,-0.0012493337877887,0.0012493337877887,-0.0012493337877887,0.0012493337877886,-0.0012493337877886,0.0012493337877887,-0.0012493337877887,0.0012493337877887,-0.0011999281787746,0.0011999281787747,-0.0011999281787747,0.0011999281787747,0.68381265222822,0.6668147606019,1270536,32768,0.0050708952514866,0.0050708952514865,0.0050708952514865,17.488874364054,17.503544043874,5.5110994912433e-05,5.5110994912433e-05,5.5110994912433e-05,332550.43663588,0.01532916463821
24192000,0.99990573521491,0.015045302843628,0.0050151009478761,0.0050151009478761,0.005015100947876,-0.0012201313802399,0.0012201313802399,2.2128000475363e-17,-1.4977483624627e-17,-8.7239981937259e-17,9.4850043572747e-17,-0.0012494800071071,0.001249480007107,-0.0012494800071071,0.001249480007107,-0.0012494800071071,0.0012494800071071,-0.0012494800071071,0.0012494800071071,-0.0011998296723298,0.0011998296723299,-0.0011998296723299,0.0011998296723299,9.9577840318273e-17,-8.1968084166588e-17,-6.5953867507561e-18,2.9646153153901e-17,-0.0012201313802398,0.0012201313802399,-0.001249480007107,0.0012494800071071,-0.001249480007107,0.0012494800071071,-0.0012494800071071,0.0012494800071071,-0.0012494800071071,0.001249480007107,-0.0011998296723299,0.0011998296723298,-0.0011998296723299,0.0011998296723298,-0.0011998296723297,0.0011998296723299,-0.0011998296723299,0.0011998296723298,-1.970895672843e-17,1.9102357612558e-17,-0.0012201313802398,0.0012201313802398,1.1484943260514e-17,-1.689654264575e-17,-0.0012494800071071,0.001249480007107,-0.001249480007107,0.001249480007107,-0.001249480007107,0.0012494800071071,-0.001249480007107,0.0012494800071071,-0.0011998296723298,0.0011998296723299,-0.0011998296723299,0.0011998296723298,0.68097734752986,0.68906096147582,1270536,32768,0.0050709659917771,0.0050709659917771,0.0050709659917771,17.666153145728,17.677770166148,5.6529225165823e-05,5.6529225165823e-05,5.6529225165823e-05,341746.11963966,0.015329379618899
24278400,0.99990746731359,0.015045328781235,0.0050151095937449,0.0050151095937449,0.0050151095937449,-0.0012202730632299,0.0012202730632299,2.2605927051505e-17,-1.4506909765041e-17,-8.6857640676346e-17,9.5129446801876e-17,-0.0012496410077277,0.0012496410077277,-0.0012496410077277,0.0012496410077276,-0.0012496410077277,0.0012496410077277,-0.0012496410077277,0.0012496410077277,-0.0011999724865817,0.0011999724865818,-0.0011999724865817,0.0011999724865817,9.9717541932837e-17,-8.1879851567916e-17,-6.4556851361916e-18,2.9837323784357e-17,-0.0012202730632299,0.0012202730632299,-0.0012496410077276,0.0012496410077277,-0.0012496410077276,0.0012496410077277,-0.0012496410077277,0.0012496410077277,-0.0012496410077277,0.0012496410077277,-0.0011999724865817,0.0011999724865817,-0.0011999724865817,0.0011999724865817,-0.0011999724865816,0.0011999724865818,-0.0011999724865818,0.0011999724865817,-2.0006741748949e-17,1.8602372886748e-17,-0.0012202730632299,0.0012202730632299,1.102907483404e-17,-1.7484759970232e-17,-0.0012496410077277,0.0012496410077277,-0.0012496410077277,0.0012496410077276,-0.0012496410077277,0.0012496410077277,-0.0012496410077277,0.0012496410077277,-0.0011999724865817,0.0011999724865817,-0.0011999724865817,0.0011999724865817,0.68284951978973,0.71130716234974,1270536,32768,0.005071553395821,0.005071553395821,0.0050715533958209,17.752566558617,17.758379286882,5.7220532468932e-05,5.7220532468932e-05,5.7220532468932e-05,341843.2731385,0.015331168779502
24364800,0.99990917624803,0.015045354540469,0.0050151181801565,0.0050151181801564,0.0050151181801564,-0.0012204477285245,0.0012204477285245,2.5936707651385e-17,-1.1448179677734e-17,-8.3534212793022e-17,9.8585223583209e-17,-0.0012498124661816,0.0012498124661816,-0.0012498124661817,0.0012498124661816,-0.0012498124661816,0.0012498124661817,-0.0012498124661816,0.0012498124661816,-0.0012001599419892,0.0012001599419893,-0.0012001599419892,0.0012001599419893,1.0042340272222e-16,-8.1151932628869e-17,-5.735118913701e-18,3.0602006306184e-17,-0.0012204477285245,0.0012204477285245,-0.0012498124661815,0.0012498124661816,-0.0012498124661815,0.0012498124661816,-0.0012498124661816,0.0012498124661816,-0.0012498124661816,0.0012498124661816,-0.0012001599419893,0.0012001599419892,-0.0012001599419893,0.0012001599419892,-0.0012001599419891,0.0012001599419893,-0.0012001599419893,0.0012001599419892,-2.0374377576751e-17,1.8411202256291e-17,-0.0012204477285245,0.0012204477285245,1.0734966171799e-17,-1.7631814301353e-17,-0.0012498124661816,0.0012498124661816,-0.0012498124661816,0.0012498124661816,-0.0012498124661816,0.0012498124661816,-0.0012498124661816,0.0012498124661816,-0.0012001599419892,0.0012001599419892,-0.0012001599419893,0.0012001599419892,0.68734968521588,0.73347617344896,1270536,32768,0.0050722775110069,0.0050722775110069,0.0050722775110069,17.833698127828,17.838988407616,5.786958502262e-05,5.786958502262e-05,5.786958502262e-05,340484.21020031,0.015333374433192
24451200,0.99991086211162,0.015045379816507,0.0050151266055025,0.0050151266055025,0.0050151266055025,-0.0012206393504315,0.0012206393504315,2.2105942325695e-17,-1.5168654255084e-17,-8.7438505284272e-17,9.4335353413825e-17,-0.0012499932675344,0.0012499932675344,-0.0012499932675345,0.0012499932675344,-0.0012499932675344,0.0012499932675345,-0.0012499932675344,0.0012499932675345,-0.001200365567748,0.0012003655677482,-0.0012003655677481,0.0012003655677481,1.0001900331163e-16,-8.151956845667e-17,-6.0292275759421e-18,3.0043199847926e-17,-0.0012206393504315,0.0012206393504315,-0.0012499932675344,0.0012499932675344,-0.0012499932675343,0.0012499932675345,-0.0012499932675344,0.0012499932675344,-0.0012499932675344,0.0012499932675344,-0.0012003655677481,0.0012003655677481,-0.0012003655677481,0.0012003655677481,-0.001200365567748,0.0012003655677482,-0.0012003655677482,0.0012003655677481,-1.9492051590027e-17,1.911706304567e-17,-0.0012206393504315,0.0012206393504315,1.160258672541e-17,-1.6808310047078e-17,-0.0012499932675344,0.0012499932675344,-0.0012499932675344,0.0012499932675344,-0.0012499932675344,0.0012499932675344,-0.0012499932675344,0.0012499932675344,-0.0012003655677481,0.0012003655677481,-0.0012003655677481,0.0012003655677481,0.68367771997932,0.70088906137732,1270536,32768,0.0050730719027517,0.0050730719027517,0.0050730719027517,17.914357444204,17.91959752835,5.8514859553633e-05,5.8514859553633e-05,5.8514859553633e-05,338512.74071752,0.015335794206557
24537600,0.99991252504721,0.015045405149609,0.0050151350498698,0.0050151350498697,0.0050151350498697,-0.0012207346357992,0.0012207346357992,2.1918448053516e-17,-1.5293650436536e-17,-8.738703626838e-17,9.4247120815153e-17,-0.0012501110730475,0.0012501110730475,-0.0012501110730476,0.0012501110730475,-0.0012501110730475,0.0012501110730476,-0.0012501110730475,0.0012501110730476,-0.0012004416979208,0.0012004416979209,-0.0012004416979208,0.0012004416979208,9.9283731656031e-17,-8.183573526858e-17,-6.2056927732867e-18,2.9749091185685e-17,-0.0012207346357992,0.0012207346357992,-0.0012501110730474,0.0012501110730475,-0.0012501110730474,0.0012501110730475,-0.0012501110730475,0.0012501110730475,-0.0012501110730475,0.0012501110730475,-0.0012004416979208,0.0012004416979208,-0.0012004416979208,0.0012004416979208,-0.0012004416979207,0.0012004416979209,-0.0012004416979209,0.0012004416979208,-1.9330291825795e-17,1.9587636905256e-17,-0.0012207346357992,0.0012207346357992,1.1896695387652e-17,-1.6499495951724e-17,-0.0012501110730475,0.0012501110730475,-0.0012501110730475,0.0012501110730475,-0.0012501110730475,0.0012501110730475,-0.0012501110730475,0.0012501110730475,-0.0012004416979208,0.0012004416979208,-0.0012004416979208,0.0012004416979208,0.69465718883938,0.76497482251868,1270536,32768,0.0050734669207348,0.0050734669207347,0.0050734669207347,17.994971464799,18.000206649084,5.9159771718389e-05,5.9159771718389e-05,5.9159771718389e-05,339611.12902034,0.015336997323019
24624000,0.99991416520392,0.015045430723898,0.0050151435746327,0.0050151435746327,0.0050151435746327,-0.0012209986945977,0.0012209986945977,2.1859626321068e-17,-1.5381883035208e-17,-8.7489974300164e-17,9.4144182783369e-17,-0.0012503382474507,0.0012503382474507,-0.0012503382474507,0.0012503382474506,-0.0012503382474507,0.0012503382474507,-0.0012503382474507,0.0012503382474507,-0.0012007420504798,0.00120074205048,-0.0012007420504799,0.0012007420504799,1.0007782504408e-16,-8.1173990778537e-17,-5.7718824964811e-18,3.0513773707512e-17,-0.0012209986945977,0.0012209986945977,-0.0012503382474506,0.0012503382474507,-0.0012503382474506,0.0012503382474507,-0.0012503382474507,0.0012503382474507,-0.0012503382474507,0.0012503382474506,-0.0012007420504799,0.0012007420504799,-0.0012007420504799,0.0012007420504799,-0.0012007420504798,0.00120074205048,-0.00120074205048,0.0012007420504799,-1.9436906215857e-17,1.9278822809903e-17,-0.0012209986945977,0.0012209986945977,1.1705524757195e-17,-1.6881837212638e-17,-0.0012503382474507,0.0012503382474507,-0.0012503382474507,0.0012503382474506,-0.0012503382474506,0.0012503382474507,-0.0012503382474506,0.0012503382474507,-0.0012007420504799,0.0012007420504799,-0.0012007420504799,0.0012007420504799,0.71101976522491,0.82906058366005,1270536,32768,0.005074561599898,0.005074561599898,0.0050745615998979,18.075581065893,18.080815769818,5.9804648527144e-05,5.9804648527144e-05,5.9804648527144e-05,335374.42636309,0.015340331914863
24710400,0.99991578273305,0.015045456084063,0.0050151520280211,0.0050151520280211,0.0050151520280211,-0.0012212880112611,0.0012212880112611,1.5495850141827e-17,-2.2102265967417e-17,-9.3761841522455e-17,8.7717908513401e-17,-0.0012505829223162,0.0012505829223162,-0.0012505829223163,0.0012505829223161,-0.0012505829223162,0.0012505829223162,-0.0012505829223162,0.0012505829223162,-0.0012010673899748,0.0012010673899749,-0.0012010673899749,0.0012010673899749,9.4850043572747e-17,-8.6379714100204e-17,-1.1301125346613e-17,2.5160996054724e-17,-0.0012212880112611,0.0012212880112611,-0.0012505829223161,0.0012505829223162,-0.0012505829223161,0.0012505829223162,-0.0012505829223162,0.0012505829223162,-0.0012505829223162,0.0012505829223162,-0.0012010673899749,0.0012010673899748,-0.0012010673899749,0.0012010673899748,-0.0012010673899747,0.0012010673899749,-0.0012010673899749,0.0012010673899748,-1.9433229857579e-17,1.9352349975463e-17,-0.0012212880112611,0.0012212880112611,1.19555171201e-17,-1.6808310047078e-17,-0.0012505829223162,0.0012505829223162,-0.0012505829223162,0.0012505829223162,-0.0012505829223162,0.0012505829223162,-0.0012505829223162,0.0012505829223162,-0.0012010673899748,0.0012010673899748,-0.0012010673899748,0.0012010673899748,0.71489871230959,0.80338046085544,1270536,32768,0.0050757609510767,0.0050757609510767,0.0050757609510767,18.156190233777,18.161424890552,6.0449521870212e-05,6.0449521870212e-05,6.0449521870212e-05,330161.90125452,0.015343985453913
24796800,0.9999173777876,0.015045478945921,0.0050151596486405,0.0050151596486405,0.0050151596486404,-0.0012214272651614,0.0012214272651614,2.2543428960779e-17,-1.5087774372967e-17,-8.7019400440579e-17,9.4952981604532e-17,-0.0012507325251262,0.0012507325251262,-0.0012507325251263,0.0012507325251262,-0.0012507325251262,0.0012507325251263,-0.0012507325251262,0.0012507325251263,-0.0012011899719067,0.0012011899719068,-0.0012011899719067,0.0012011899719067,9.8945506694454e-17,-8.2622475940074e-17,-7.0144915944497e-18,2.9557920555228e-17,-0.0012214272651614,0.0012214272651614,-0.0012507325251261,0.0012507325251262,-0.0012507325251261,0.0012507325251263,-0.0012507325251262,0.0012507325251262,-0.0012507325251262,0.0012507325251262,-0.0012011899719067,0.0012011899719067,-0.0012011899719067,0.0012011899719067,-0.0012011899719066,0.0012011899719068,-0.0012011899719068,0.0012011899719067,-1.9348673617185e-17,1.954352060592e-17,-0.0012214272651614,0.0012214272651614,1.2161393183669e-17,-1.6661255715957e-17,-0.0012507325251262,0.0012507325251262,-0.0012507325251262,0.0012507325251262,-0.0012507325251262,0.0012507325251262,-0.0012507325251262,0.0012507325251262,-0.0012011899719067,0.0012011899719067,-0.0012011899719067,0.0012011899719067,0.65350626417734,0.43927619685029,1270536,32768,0.0050763381981168,0.0050763381981168,0.0050763381981168,18.23679935914,18.242034011286,6.109439487312e-05,6.109439487312e-05,6.109439487312e-05,329560.39250014,0.015345743810687
24883200,0.99991895052225,0.01504550099248,0.0050151669974933,0.0050151669974933,0.0050151669974933,-0.0012208399468748,0.0012208399468748,2.2701512366733e-17,-1.4668669529274e-17,-8.6982636857798e-17,9.5100035935652e-17,-0.0012504095727566,0.0012504095727566,-0.0012504095727567,0.0012504095727566,-0.0012504095727566,0.0012504095727567,-0.0012504095727566,0.0012504095727567,-0.0012003642898004,0.0012003642898006,-0.0012003642898005,0.0012003642898005,9.8688161614993e-17,-8.2784235704307e-17,-7.1762513586823e-18,2.9278517326099e-17,-0.0012208399468748,0.0012208399468748,-0.0012504095727566,0.0012504095727566,-0.0012504095727565,0.0012504095727567,-0.0012504095727566,0.0012504095727566,-0.0012504095727566,0.0012504095727566,-0.0012003642898005,0.0012003642898005,-0.0012003642898005,0.0012003642898005,-0.0012003642898004,0.0012003642898006,-0.0012003642898006,0.0012003642898005,-1.9168532061562e-17,1.9587636905256e-17,-0.0012208399468748,0.0012208399468748,1.202904428566e-17,-1.682301548019e-17,-0.0012504095727566,0.0012504095727566,-0.0012504095727566,0.0012504095727566,-0.0012504095727566,0.0012504095727566,-0.0012504095727566,0.0012504095727566,-0.0012003642898005,0.0012003642898005,-0.0012003642898005,0.0012003642898005,0.63914347466287,0.49107144933571,1270536,32768,0.005073903472663,0.0050739034726629,0.0050739034726629,18.317408480329,18.32264313202,6.1739267842629e-05,6.1739267842629e-05,6.1739267842629e-05,352414.15218983,0.015338326228307
24969600,0.99992050793702,0.01504552266737,0.0050151742224566,0.0050151742224566,0.0050151742224566,-0.0012210944058767,0.0012210944058767,2.2525047169388e-17,-1.485984015973e-17,-8.681352437701e-17,9.4805927273411e-17,-0.0012506688557088,0.0012506688557088,-0.0012506688557088,0.0012506688557087,-0.0012506688557088,0.0012506688557088,-0.0012506688557088,0.0012506688557088,-0.0012006503511312,0.0012006503511314,-0.0012006503511313,0.0012006503511313,9.773230846271e-17,-8.3151871532108e-17,-7.9997556129573e-18,2.8660889135393e-17,-0.0012210944058767,0.0012210944058767,-0.0012506688557087,0.0012506688557088,-0.0012506688557087,0.0012506688557088,-0.0012506688557088,0.0012506688557088,-0.0012506688557088,0.0012506688557087,-0.0012006503511313,0.0012006503511313,-0.0012006503511313,0.0012006503511313,-0.0012006503511312,0.0012006503511314,-0.0012006503511314,0.0012006503511313,-1.9311910034405e-17,1.9455288007247e-17,-0.0012210944058767,0.0012210944058767,1.1896695387652e-17,-1.6955364378198e-17,-0.0012506688557088,0.0012506688557088,-0.0012506688557088,0.0012506688557087,-0.0012506688557087,0.0012506688557088,-0.0012506688557088,0.0012506688557088,-0.0012006503511312,0.0012006503511313,-0.0012006503511313,0.0012006503511313,0.63472443746832,0.53635853196325,1270536,32768,0.0050749585267558,0.0050749585267558,0.0050749585267558,18.468721762077,18.478395501747,6.2949774096615e-05,6.2949774096615e-05,6.2949774096615e-05,353758.62493624,0.015341539565672
25056000,0.9999220614971,0.015045544345198,0.0050151814483994,0.0050151814483993,0.0050151814483993,-0.0012216684981591,0.001221668498159,1.2812108598877e-17,-2.448454613157e-17,-9.6511757514409e-17,8.4482713228749e-17,-0.0012512082144251,0.0012512082144251,-0.0012512082144252,0.001251208214425,-0.0012512082144251,0.0012512082144251,-0.0012512082144251,0.0012512082144251,-0.0012012712446282,0.0012012712446284,-0.0012012712446283,0.0012012712446283,9.5129446801876e-17,-8.5320922916136e-17,-9.9188146340803e-18,2.7043291493067e-17,-0.001221668498159,0.0012216684981591,-0.001251208214425,0.0012512082144251,-0.001251208214425,0.0012512082144251,-0.0012512082144251,0.0012512082144251,-0.0012512082144251,0.0012512082144251,-0.0012012712446283,0.0012012712446283,-0.0012012712446283,0.0012012712446283,-0.0012012712446282,0.0012012712446283,-0.0012012712446283,0.0012012712446282,-1.7289912981497e-17,2.1558164942271e-17,-0.001221668498159,0.001221668498159,1.4528967914709e-17,-1.4793665710726e-17,-0.0012512082144251,0.0012512082144251,-0.0012512082144251,0.0012512082144251,-0.0012512082144251,0.0012512082144251,-0.0012512082144251,0.0012512082144251,-0.0012012712446282,0.0012012712446283,-0.0012012712446283,0.0012012712446282,0.63640846493211,0.58164561459079,1270536,32768,0.0050773385726652,0.0050773385726651,0.0050773385726651,18.740769496036,18.758167973673,6.5126155968284e-05,6.5126155968284e-05,6.5126155968284e-05,352222.27005212,0.015348789112121
25142400,0.99992361131296,0.015045566172413,0.0050151887241377,0.0050151887241377,0.0050151887241377,-0.0012222965854638,0.0012222965854638,2.3694129101797e-17,-1.3418707714749e-17,-8.5754733192942e-17,9.5570609795238e-17,-0.0012517905718013,0.0012517905718012,-0.0012517905718013,0.0012517905718012,-0.0012517905718012,0.0012517905718013,-0.0012517905718012,0.0012517905718013,-0.0012019436918403,0.0012019436918404,-0.0012019436918403,0.0012019436918404,9.8526401850761e-17,-8.1879851567916e-17,-7.6247670685999e-18,2.9940261816142e-17,-0.0012222965854638,0.0012222965854638,-0.0012517905718012,0.0012517905718012,-0.0012517905718012,0.0012517905718013,-0.0012517905718012,0.0012517905718012,-0.0012517905718012,0.0012517905718012,-0.0012019436918403,0.0012019436918403,-0.0012019436918403,0.0012019436918403,-0.0012019436918402,0.0012019436918404,-0.0012019436918404,0.0012019436918403,-1.9565578755588e-17,1.9161179345006e-17,-0.0012222965854638,0.0012222965854638,1.2720199641927e-17,-1.7146535008655e-17,-0.0012517905718012,0.0012517905718012,-0.0012517905718012,0.0012517905718012,-0.0012517905718012,0.0012517905718012,-0.0012517905718012,0.0012517905718012,-0.0012019436918403,0.0012019436918403,-0.0012019436918403,0.0012019436918403,0.64233080143737,0.62693269721833,1270536,32768,0.0050799423923382,0.0050799423923382,0.0050799423923381,19.019846446612,19.037940445599,6.7358771572892e-05,6.7358771572892e-05,6.7358771572892e-05,349388.1403339,0.015356720531911
25228800,0.99992515685485,0.015045588250211,0.0050151960834036,0.0050151960834035,0.0050151960834035,-0.0012229447786633,0.0012229447786633,2.2716217799845e-17,-1.474954941139e-17,-8.6762055361118e-17,9.4717694674739e-17,-0.0012523897154447,0.0012523897154446,-0.0012523897154447,0.0012523897154446,-0.0012523897154446,0.0012523897154447,-0.0012523897154446,0.0012523897154447,-0.0012026314689942,0.0012026314689943,-0.0012026314689942,0.0012026314689943,9.9173440907691e-17,-8.2343072710945e-17,-7.102724193122e-18,2.9528509689004e-17,-0.0012229447786632,0.0012229447786633,-0.0012523897154446,0.0012523897154446,-0.0012523897154445,0.0012523897154447,-0.0012523897154446,0.0012523897154446,-0.0012523897154446,0.0012523897154446,-0.0012026314689943,0.0012026314689942,-0.0012026314689943,0.0012026314689942,-0.0012026314689941,0.0012026314689943,-0.0012026314689943,0.0012026314689942,-2.0484668325091e-17,1.8131799027162e-17,-0.0012229447786632,0.0012229447786632,1.1249656330721e-17,-1.789651209737e-17,-0.0012523897154446,0.0012523897154446,-0.0012523897154446,0.0012523897154446,-0.0012523897154446,0.0012523897154446,-0.0012523897154446,0.0012523897154446,-0.0012026314689942,0.0012026314689942,-0.0012026314689942,0.0012026314689942,0.65147700397111,0.67221977984587,1270536,32768,0.0050826295170719,0.0050826295170719,0.0050826295170718,19.299552089298,19.317712917525,6.9596416714383e-05,6.9596416714383e-05,6.9596416714383e-05,345815.17401214,0.015364905870282
25315200,0.99992669753331,0.01504561065624,0.0050152035520799,0.0050152035520798,0.0050152035520798,-0.0012236018052615,0.0012236018052615,2.2668425142231e-17,-1.471278582861e-17,-8.692381512535e-17,9.5144152234988e-17,-0.0012529987392914,0.0012529987392914,-0.0012529987392915,0.0012529987392914,-0.0012529987392914,0.0012529987392915,-0.0012529987392914,0.0012529987392915,-0.0012033228554838,0.001203322855484,-0.0012033228554839,0.0012033228554839,9.8717572481217e-17,-8.2497479758622e-17,-7.5144763202595e-18,2.9675564020125e-17,-0.0012236018052615,0.0012236018052615,-0.0012529987392913,0.0012529987392914,-0.0012529987392913,0.0012529987392915,-0.0012529987392914,0.0012529987392914,-0.0012529987392914,0.0012529987392914,-0.0012033228554839,0.0012033228554839,-0.0012033228554839,0.0012033228554839,-0.0012033228554838,0.001203322855484,-0.001203322855484,0.0012033228554839,-2.0642751731046e-17,1.8175915326499e-17,-0.0012236018052615,0.0012236018052615,1.0896725936032e-17,-1.8293558791395e-17,-0.0012529987392914,0.0012529987392914,-0.0012529987392914,0.0012529987392914,-0.0012529987392914,0.0012529987392914,-0.0012529987392914,0.0012529987392914,-0.0012033228554839,0.0012033228554839,-0.0012033228554839,0.0012033228554839,0.66321778511004,0.71750686247341,1270536,32768,0.0050853532267041,0.0050853532267041,0.0050853532267041,19.579318037533,19.597485389451,7.1834544300265e-05,7.1834544300265e-05,7.1834544300265e-05,341799.71711199,0.015373202784736
25401600,0.99992823275082,0.015045634056392,0.0050152113521307,0.0050152113521307,0.0050152113521306,-0.001224262121394,0.001224262121394,1.811709359405e-17,-1.9175884778118e-17,-9.132809234241e-17,9.0923692931829e-17,-0.001253614241852,0.0012536142418519,-0.001253614241852,0.0012536142418519,-0.0012536142418519,0.001253614241852,-0.0012536142418519,0.001253614241852,-0.0012040127055529,0.001204012705553,-0.0012040127055529,0.0012040127055529,9.4982392470756e-17,-8.6637059179665e-17,-1.1867284521427e-17,2.5352166685181e-17,-0.001224262121394,0.001224262121394,-0.0012536142418519,0.0012536142418519,-0.0012536142418518,0.001253614241852,-0.0012536142418519,0.0012536142418519,-0.0012536142418519,0.0012536142418519,-0.0012040127055529,0.0012040127055529,-0.0012040127055529,0.0012040127055529,-0.0012040127055528,0.001204012705553,-0.001204012705553,0.0012040127055529,-2.2543428960779e-17,1.6161270990147e-17,-0.001224262121394,0.001224262121394,8.8967870327926e-18,-2.0322908560858e-17,-0.0012536142418519,0.0012536142418519,-0.0012536142418519,0.0012536142418519,-0.0012536142418519,0.0012536142418519,-0.0012536142418519,0.0012536142418519,-0.0012040127055529,0.0012040127055529,-0.0012040127055529,0.0012040127055529,0.69506220313716,0.8616739196317,1270536,32768,0.0050880905461196,0.0050880905461195,0.0050880905461195,19.859089869902,19.877257861378,7.4072718959216e-05,7.4072718959216e-05,7.4072718959216e-05,337506.51404313,0.015381541272565
25488000,0.99992976190666,0.015045658425164,0.0050152194750548,0.0050152194750547,0.0050152194750547,-0.0012251005136936,0.0012251005136936,1.9992036315837e-17,-1.7330352922555e-17,-8.8614939933236e-17,9.3350089395318e-17,-0.0012543509543799,0.0012543509543798,-0.0012543509543799,0.0012543509543798,-0.0012543509543798,0.0012543509543799,-0.0012543509543798,0.0012543509543799,-0.0012049295812701,0.0012049295812703,-0.0012049295812702,0.0012049295812702,9.5975009205819e-17,-8.5497388113481e-17,-8.8453180169004e-18,2.7690330549997e-17,-0.0012251005136936,0.0012251005136936,-0.0012543509543798,0.0012543509543799,-0.0012543509543798,0.0012543509543799,-0.0012543509543798,0.0012543509543799,-0.0012543509543798,0.0012543509543798,-0.0012049295812702,0.0012049295812701,-0.0012049295812701,0.0012049295812701,-0.0012049295812701,0.0012049295812703,-0.0012049295812703,0.0012049295812701,-1.9606018696646e-17,1.9528815172807e-17,-0.0012251005136936,0.0012251005136936,1.2926075705495e-17,-1.5911278627242e-17,-0.0012543509543798,0.0012543509543798,-0.0012543509543798,0.0012543509543798,-0.0012543509543798,0.0012543509543798,-0.0012543509543798,0.0012543509543799,-0.0012049295812701,0.0012049295812702,-0.0012049295812702,0.0012049295812701,0.72665707748005,0.95250232212385,1270536,32768,0.0050915660362422,0.0050915660362422,0.0050915660362422,20.138855350266,20.157030333304,7.6310842802124e-05,7.6310842802124e-05,7.6310842802124e-05,327271.46761282,0.015392128807503
25574400,0.99993128439866,0.015045682974274,0.0050152276580914,0.0050152276580913,0.0050152276580913,-0.0012258652324704,0.0012258652324704,2.4524986072628e-17,-1.2837843106823e-17,-8.5107694136012e-17,9.9129324608355e-17,-0.001255045485342,0.001255045485342,-0.001255045485342,0.0012550454853419,-0.001255045485342,0.001255045485342,-0.001255045485342,0.001255045485342,-0.0012057369992206,0.0012057369992207,-0.0012057369992207,0.0012057369992207,1.0242334162545e-16,-8.137251412555e-17,-4.4778043826204e-18,3.2763704973656e-17,-0.0012258652324704,0.0012258652324704,-0.0012550454853419,0.001255045485342,-0.0012550454853419,0.001255045485342,-0.001255045485342,0.001255045485342,-0.001255045485342,0.0012550454853419,-0.0012057369992207,0.0012057369992206,-0.0012057369992207,0.0012057369992206,-0.0012057369992206,0.0012057369992208,-0.0012057369992207,0.0012057369992206,-1.7389174655004e-17,2.1293467146254e-17,-0.0012258652324704,0.0012258652324704,1.4499557048485e-17,-1.482307657695e-17,-0.001255045485342,0.001255045485342,-0.001255045485342,0.0012550454853419,-0.0012550454853419,0.0012550454853419,-0.001255045485342,0.001255045485342,-0.0012057369992206,0.0012057369992207,-0.0012057369992207,0.0012057369992207,0.73516077903678,0.89921598704722,1270536,32768,0.0050947360576195,0.0050947360576195,0.0050947360576194,20.418612416436,20.43680280523,7.8548899331484e-05,7.8548899331484e-05,7.8548899331484e-05,319010.05006377,0.015401785889939
25660800,0.99993279962483,0.015045707536477,0.0050152358454924,0.0050152358454924,0.0050152358454923,-0.001226384721014,0.001226384721014,1.9517786097973e-17,-1.7705341466913e-17,-9.0857518482825e-17,9.4247120815153e-17,-0.0012555857989687,0.0012555857989686,-0.0012555857989687,0.0012555857989686,-0.0012555857989686,0.0012555857989687,-0.0012555857989686,0.0012555857989687,-0.0012062197010978,0.001206219701098,-0.0012062197010979,0.0012062197010979,9.9460196853376e-17,-8.4798880040658e-17,-8.455624039431e-18,2.9131462994979e-17,-0.001226384721014,0.001226384721014,-0.0012555857989686,0.0012555857989686,-0.0012555857989685,0.0012555857989687,-0.0012555857989686,0.0012555857989686,-0.0012555857989686,0.0012555857989686,-0.0012062197010979,0.0012062197010979,-0.0012062197010979,0.0012062197010979,-0.0012062197010978,0.001206219701098,-0.001206219701098,0.0012062197010979,-2.1205234547582e-17,1.7234767607327e-17,-0.001226384721014,0.001226384721014,9.7349967201796e-18,-2.0175854229738e-17,-0.0012555857989686,0.0012555857989686,-0.0012555857989686,0.0012555857989686,-0.0012555857989686,0.0012555857989686,-0.0012555857989686,0.0012555857989686,-0.0012062197010979,0.0012062197010979,-0.0012062197010979,0.0012062197010979,0.73901814156322,0.86523706048209,1270536,32768,0.0050968894865111,0.005096889486511,0.005096889486511,20.698368711153,20.716575277156,8.0786949689223e-05,8.0786949689223e-05,8.0786949689223e-05,318263.09880319,0.015408345855934
25747200,0.99993429530355,0.015045731702217,0.0050152439007389,0.0050152439007389,0.0050152439007389,-0.0012266356856884,0.0012266356856884,2.5672009855368e-17,-1.1573175859186e-17,-8.5225337600908e-17,9.945284413682e-17,-0.0012558707045251,0.0012558707045251,-0.0012558707045251,0.001255870704525,-0.0012558707045251,0.0012558707045251,-0.0012558707045251,0.0012558707045251,-0.0012064358937136,0.0012064358937138,-0.0012064358937136,0.0012064358937137,9.7335261768684e-17,-8.6681175479001e-17,-1.0727613455243e-17,2.7675625116885e-17,-0.0012266356856884,0.0012266356856884,-0.001255870704525,0.0012558707045251,-0.001255870704525,0.0012558707045251,-0.0012558707045251,0.0012558707045251,-0.0012558707045251,0.001255870704525,-0.0012064358937137,0.0012064358937136,-0.0012064358937137,0.0012064358937136,-0.0012064358937135,0.0012064358937137,-0.0012064358937137,0.0012064358937136,-2.13192016542e-17,1.7367116505336e-17,-0.0012266356856884,0.0012266356856884,1.0484973808894e-17,-2.0234675962186e-17,-0.0012558707045251,0.0012558707045251,-0.0012558707045251,0.001255870704525,-0.001255870704525,0.0012558707045251,-0.0012558707045251,0.0012558707045251,-0.0012064358937136,0.0012064358937136,-0.0012064358937137,0.0012064358937136,0.73660575289846,0.81827565817244,1270536,32768,0.0050979297904149,0.0050979297904148,0.0050979297904148,20.85069420235,20.860888483298,8.2005553618798e-05,8.2005553618798e-05,8.2005553618798e-05,318396.62003974,0.015411514961866
25833600,0.99993575350653,0.015045755222607,0.0050152517408691,0.005015251740869,0.005015251740869,-0.0012264590476546,0.0012264590476546,2.4010295913706e-17,-1.3051071886948e-17,-8.6173838036635e-17,9.7849951927606e-17,-0.0012557432863122,0.0012557432863122,-0.0012557432863122,0.0012557432863121,-0.0012557432863122,0.0012557432863122,-0.0012557432863122,0.0012557432863122,-0.0012062181528661,0.0012062181528662,-0.0012062181528661,0.0012062181528662,1.0042340272222e-16,-8.305628621688e-17,-7.6835888010481e-18,3.1190223630666e-17,-0.0012264590476546,0.0012264590476546,-0.0012557432863121,0.0012557432863122,-0.0012557432863121,0.0012557432863122,-0.0012557432863122,0.0012557432863122,-0.0012557432863122,0.0012557432863121,-0.0012062181528662,0.0012062181528661,-0.0012062181528662,0.0012062181528661,-0.001206218152866,0.0012062181528662,-0.0012062181528662,0.0012062181528661,-2.1069209291295e-17,1.7587698002016e-17,-0.0012264590476546,0.0012264590476546,1.088202050292e-17,-2.0087621631066e-17,-0.0012557432863122,0.0012557432863121,-0.0012557432863122,0.0012557432863121,-0.0012557432863121,0.0012557432863122,-0.0012557432863121,0.0012557432863122,-0.0012062181528661,0.0012062181528661,-0.0012062181528662,0.0012062181528661,0.73538818345801,0.79960567941862,1270536,32768,0.0050971975017943,0.0050971975017943,0.0050971975017943,20.803716501523,20.801103767876,8.162973201218e-05,8.162973201218e-05,8.162973201218e-05,320020.02858117,0.015409284246382
25920000,0.99993717424883,0.015045778072457,0.0050152593574858,0.0050152593574858,0.0050152593574858,-0.0012262918384236,0.0012262918384236,2.3245613391879e-17,-1.3793696259106e-17,-8.6879698826014e-17,9.6717633577978e-17,-0.0012556061395528,0.0012556061395527,-0.0012556061395528,0.0012556061395527,-0.0012556061395528,0.0012556061395528,-0.0012556061395527,0.0012556061395528,-0.001206031040234,0.0012060310402342,-0.0012060310402341,0.0012060310402341,9.9335200671924e-17,-8.348274377713e-17,-8.9041397493486e-18,3.0219665045271e-17,-0.0012262918384236,0.0012262918384236,-0.0012556061395527,0.0012556061395528,-0.0012556061395527,0.0012556061395528,-0.0012556061395528,0.0012556061395528,-0.0012556061395528,0.0012556061395527,-0.0012060310402341,0.0012060310402341,-0.0012060310402341,0.0012060310402341,-0.001206031040234,0.0012060310402342,-0.0012060310402342,0.0012060310402341,-1.745167274573e-17,2.1043474783349e-17,-0.0012262918384236,0.0012262918384236,1.4940720041847e-17,-1.6293619888156e-17,-0.0012556061395528,0.0012556061395527,-0.0012556061395527,0.0012556061395527,-0.0012556061395527,0.0012556061395528,-0.0012556061395527,0.0012556061395528,-0.001206031040234,0.0012060310402341,-0.0012060310402341,0.0012060310402341,0.73326899363219,0.7809357006648,1270536,32768,0.0050965043387045,0.0050965043387044,0.0050965043387044,20.745087313709,20.741319052455,8.1160698509669e-05,8.1160698509669e-05,8.1160698509669e-05,320605.93054867,0.015407172655477
26006400,0.99993855851394,0.015045799880896,0.0050152666269654,0.0050152666269654,0.0050152666269654,-0.0012261235810914,0.0012261235810914,2.6749182830826e-17,-1.0433504793002e-17,-8.3791557872483e-17,9.9688131066613e-17,-0.0012554638100003,0.0012554638100003,-0.0012554638100003,0.0012554638100003,-0.0012554638100003,0.0012554638100003,-0.0012554638100003,0.0012554638100003,-0.0012058468047831,0.0012058468047832,-0.0012058468047831,0.0012058468047831,9.7908773660054e-17,-8.4923876222111e-17,-9.8526401850761e-18,2.8910881498298e-17,-0.0012261235810914,0.0012261235810914,-0.0012554638100002,0.0012554638100003,-0.0012554638100002,0.0012554638100003,-0.0012554638100003,0.0012554638100003,-0.0012554638100003,0.0012554638100002,-0.0012058468047831,0.0012058468047831,-0.0012058468047831,0.0012058468047831,-0.001205846804783,0.0012058468047832,-0.0012058468047832,0.0012058468047831,-2.031923220258e-17,1.8190620759611e-17,-0.0012261235810914,0.0012261235810914,1.2087866018108e-17,-1.8896481548989e-17,-0.0012554638100003,0.0012554638100003,-0.0012554638100003,0.0012554638100002,-0.0012554638100003,0.0012554638100003,-0.0012554638100003,0.0012554638100003,-0.0012058468047831,0.0012058468047831,-0.0012058468047831,0.0012058468047831,0.71828083753599,0.69652168285282,1270536,32768,0.0050958068408603,0.0050958068408603,0.0050958068408603,20.685413208127,20.681534337034,8.0683305665014e-05,8.0683305665014e-05,8.0683305665014e-05,321226.56675593,0.015405047835316
26092800,0.99993990733871,0.015045820117881,0.0050152733726271,0.005015273372627,0.005015273372627,-0.0012258318990252,0.0012258318990252,2.2102265967417e-17,-1.5102479806079e-17,-8.8335536704107e-17,9.4394175146274e-17,-0.0012552382469036,0.0012552382469035,-0.0012552382469036,0.0012552382469035,-0.0012552382469036,0.0012552382469036,-0.0012552382469036,0.0012552382469036,-0.0012055032252752,0.0012055032252754,-0.0012055032252753,0.0012055032252753,9.5857365740923e-17,-8.6115016304187e-17,-1.1323183496281e-17,2.7793268581782e-17,-0.0012258318990251,0.0012258318990252,-0.0012552382469035,0.0012552382469036,-0.0012552382469035,0.0012552382469036,-0.0012552382469036,0.0012552382469036,-0.0012552382469036,0.0012552382469035,-0.0012055032252753,0.0012055032252753,-0.0012055032252753,0.0012055032252753,-0.0012055032252752,0.0012055032252754,-0.0012055032252753,0.0012055032252752,-1.9958949091335e-17,1.8705310918532e-17,-0.0012258318990251,0.0012258318990251,1.2705494208815e-17,-1.85435511543e-17,-0.0012552382469036,0.0012552382469036,-0.0012552382469035,0.0012552382469035,-0.0012552382469035,0.0012552382469036,-0.0012552382469035,0.0012552382469036,-0.0012055032252752,0.0012055032252753,-0.0012055032252753,0.0012055032252753,0.68401330461704,0.53839686589601,1270536,32768,0.0050945977053233,0.0050945977053233,0.0050945977053233,20.625638642151,20.621749621612,8.020510913721e-05,8.020510913721e-05,8.020510913721e-05,325834.23276281,0.015401364214395
26179200,0.99994122173535,0.015045840647808,0.0050152802159361,0.0050152802159361,0.0050152802159361,-0.001225350982006,0.001225350982006,2.7168287674519e-17,-9.7349967201796e-18,-8.1188696211649e-17,1.0005576689441e-16,-0.001254884917037,0.001254884917037,-0.0012548849170371,0.001254884917037,-0.001254884917037,0.0012548849170371,-0.001254884917037,0.001254884917037,-0.0012049211476326,0.0012049211476327,-0.0012049211476326,0.0012049211476327,1.0189394603342e-16,-7.8747594315048e-17,-3.8675289084702e-18,3.5278334035817e-17,-0.001225350982006,0.001225350982006,-0.0012548849170369,0.001254884917037,-0.0012548849170369,0.001254884917037,-0.001254884917037,0.001254884917037,-0.001254884917037,0.001254884917037,-0.0012049211476326,0.0012049211476326,-0.0012049211476326,0.0012049211476326,-0.0012049211476325,0.0012049211476327,-0.0012049211476327,0.0012049211476326,-2.0628046297934e-17,1.8146504460274e-17,-0.001225350982006,0.001225350982006,1.245550184591e-17,-1.8837659816541e-17,-0.001254884917037,0.001254884917037,-0.001254884917037,0.0012548849170369,-0.001254884917037,0.001254884917037,-0.001254884917037,0.001254884917037,-0.0012049211476326,0.0012049211476326,-0.0012049211476326,0.0012049211476326,0.71215860360885,0.78002189925125,1270536,32768,0.0050926041470846,0.0050926041470845,0.0050926041470845,20.565854253874,20.561964906191,7.9726834030992e-05,7.9726834030992e-05,7.9726834030992e-05,336807.84310929,0.015395290685814
26265600,0.99994250268522,0.015045861594976,0.0050152871983255,0.0050152871983255,0.0050152871983254,-0.0012256251508018,0.0012256251508018,2.2866948489244e-17,-1.4315739134584e-17,-8.577679134261e-17,9.4952981604532e-17,-0.0012550157921038,0.0012550157921037,-0.0012550157921038,0.0012550157921037,-0.0012550157921037,0.0012550157921038,-0.0012550157921037,0.0012550157921038,-0.0012053447163574,0.0012053447163575,-0.0012053447163574,0.0012053447163574,9.6445583065405e-17,-8.3460685627462e-17,-9.6173532552832e-18,2.9910850949917e-17,-0.0012256251508018,0.0012256251508018,-0.0012550157921037,0.0012550157921037,-0.0012550157921037,0.0012550157921038,-0.0012550157921037,0.0012550157921037,-0.0012550157921037,0.0012550157921037,-0.0012053447163574,0.0012053447163574,-0.0012053447163574,0.0012053447163574,-0.0012053447163573,0.0012053447163575,-0.0012053447163575,0.0012053447163574,-2.0583929998597e-17,1.8205326192723e-17,-0.0012256251508018,0.0012256251508018,1.2734905075039e-17,-1.9308233676127e-17,-0.0012550157921037,0.0012550157921037,-0.0012550157921037,0.0012550157921037,-0.0012550157921037,0.0012550157921037,-0.0012550157921037,0.0012550157921037,-0.0012053447163574,0.0012053447163574,-0.0012053447163574,0.0012053447163574,0.74571601289119,0.92560067273982,1270536,32768,0.0050937407856909,0.0050937407856909,0.0050937407856908,20.506068901011,20.50218019077,7.9248551208091e-05,7.9248551208091e-05,7.9248551208091e-05,324297.27863652,0.015398753641407
26352000,0.99994375113913,0.015045882252098,0.0050152940840327,0.0050152940840327,0.0050152940840327,-0.0012258108670291,0.0012258108670291,2.2050796951525e-17,-1.5095127089523e-17,-8.6159132603523e-17,9.4291237114489e-17,-0.0012550915387531,0.0012550915387531,-0.0012550915387532,0.0012550915387531,-0.0012550915387531,0.0012550915387532,-0.0012550915387531,0.0012550915387532,-0.0012056183451157,0.0012056183451159,-0.0012056183451158,0.0012056183451158,9.6555873813745e-17,-8.3512154643354e-17,-9.8158766022959e-18,2.9410866224108e-17,-0.0012258108670291,0.0012258108670291,-0.001255091538753,0.0012550915387531,-0.001255091538753,0.0012550915387532,-0.0012550915387531,0.0012550915387531,-0.0012550915387531,0.0012550915387531,-0.0012056183451158,0.0012056183451158,-0.0012056183451158,0.0012056183451158,-0.0012056183451157,0.0012056183451159,-0.0012056183451159,0.0012056183451158,-2.5315403102401e-17,1.3043719170392e-17,-0.0012258108670291,0.0012258108670291,6.9409644288894e-18,-2.4763949360699e-17,-0.0012550915387531,0.0012550915387531,-0.0012550915387531,0.0012550915387531,-0.0012550915387531,0.0012550915387531,-0.0012550915387531,0.0012550915387531,-0.0012056183451158,0.0012056183451158,-0.0012056183451158,0.0012056183451158,0.75443782940221,0.8874016471762,1270536,32768,0.0050945106127967,0.0050945106127967,0.0050945106127967,20.446283453347,20.442395475348,7.8770267626773e-05,7.8770267626773e-05,7.8770267626773e-05,314042.24480909,0.015401099285382
26438400,0.99994496801835,0.015045902829378,0.0050153009431261,0.0050153009431261,0.005015300943126,-0.0012257021551181,0.0012257021551181,2.1830215454844e-17,-1.5506879216661e-17,-8.6747349928006e-17,9.3114802465525e-17,-0.0012549832533438,0.0012549832533437,-0.0012549832533438,0.0012549832533437,-0.0012549832533437,0.0012549832533438,-0.0012549832533437,0.0012549832533438,-0.0012054912785067,0.0012054912785069,-0.0012054912785068,0.0012054912785068,9.8077886140843e-17,-8.1269576093766e-17,-8.3012169917544e-18,3.1396099694235e-17,-0.0012257021551181,0.0012257021551181,-0.0012549832533437,0.0012549832533437,-0.0012549832533436,0.0012549832533438,-0.0012549832533437,0.0012549832533437,-0.0012549832533437,0.0012549832533437,-0.0012054912785068,0.0012054912785068,-0.0012054912785068,0.0012054912785068,-0.0012054912785067,0.0012054912785069,-0.0012054912785069,0.0012054912785068,-2.3396344081278e-17,1.5220123270976e-17,-0.0012257021551181,0.0012257021551181,9.0585467970252e-18,-2.2852243056132e-17,-0.0012549832533437,0.0012549832533437,-0.0012549832533437,0.0012549832533437,-0.0012549832533437,0.0012549832533437,-0.0012549832533437,0.0012549832533437,-0.0012054912785068,0.0012054912785068,-0.0012054912785068,0.0012054912785068,0.77095090946465,0.93136439565299,1270536,32768,0.0050940598695893,0.0050940598695893,0.0050940598695892,20.386497996393,20.382610759927,7.8291983971143e-05,7.8291983971143e-05,7.8291983971143e-05,312650.03724546,0.015399726366509
26524800,0.99994616142513,0.015045923215658,0.0050153077385526,0.0050153077385526,0.0050153077385526,-0.0012258675582482,0.0012258675582482,2.7043291493067e-17,-9.9702836499725e-18,-8.1159285345425e-17,9.9026386576571e-17,-0.0012551215518843,0.0012551215518843,-0.0012551215518844,0.0012551215518843,-0.0012551215518843,0.0012551215518844,-0.0012551215518843,0.0012551215518844,-0.0012056725176318,0.0012056725176319,-0.0012056725176318,0.0012056725176318,1.0024693752487e-16,-7.9387280655423e-17,-6.5292123017519e-18,3.2822526706104e-17,-0.0012258675582482,0.0012258675582482,-0.0012551215518843,0.0012551215518843,-0.0012551215518842,0.0012551215518844,-0.0012551215518843,0.0012551215518843,-0.0012551215518843,0.0012551215518843,-0.0012056725176318,0.0012056725176318,-0.0012056725176318,0.0012056725176318,-0.0012056725176317,0.0012056725176319,-0.0012056725176319,0.0012056725176318,-2.6793299130162e-17,1.1734935623419e-17,-0.0012258675582482,0.0012258675582482,5.4115993852358e-18,-2.6616833932817e-17,-0.0012551215518843,0.0012551215518843,-0.0012551215518843,0.0012551215518843,-0.0012551215518843,0.0012551215518843,-0.0012551215518843,0.0012551215518843,-0.0012056725176318,0.0012056725176318,-0.0012056725176319,0.0012056725176318,0.77878330413509,0.91692149253239,1270536,32768,0.005094745502399,0.005094745502399,0.005094745502399,20.425544850666,20.427870439668,7.8604358805329e-05,7.8604358805329e-05,7.8604358805329e-05,308595.75007909,0.015401815154762
26611200,0.99994734195731,0.015045943390021,0.0050153144633402,0.0050153144633402,0.0050153144633402,-0.0012262156643193,0.0012262156643194,2.4120586662046e-17,-1.3117246335952e-17,-8.3644503541362e-17,9.6849982475987e-17,-0.0012554748816108,0.0012554748816108,-0.0012554748816109,0.0012554748816108,-0.0012554748816108,0.0012554748816109,-0.0012554748816108,0.0012554748816109,-0.0012060080857705,0.0012060080857707,-0.0012060080857706,0.0012060080857706,9.6967625940883e-17,-8.2703355822191e-17,-9.2423647109258e-18,3.0013788981702e-17,-0.0012262156643193,0.0012262156643194,-0.0012554748816108,0.0012554748816108,-0.0012554748816107,0.0012554748816109,-0.0012554748816108,0.0012554748816108,-0.0012554748816108,0.0012554748816108,-0.0012060080857706,0.0012060080857706,-0.0012060080857706,0.0012060080857705,-0.0012060080857705,0.0012060080857707,-0.0012060080857707,0.0012060080857706,-2.5782300603708e-17,1.3087835469728e-17,-0.0012262156643193,0.0012262156643193,7.1174296262341e-18,-2.4572778730242e-17,-0.0012554748816108,0.0012554748816108,-0.0012554748816108,0.0012554748816108,-0.0012554748816108,0.0012554748816108,-0.0012554748816108,0.0012554748816108,-0.0012060080857706,0.0012060080857706,-0.0012060080857706,0.0012060080857706,0.7790281869533,0.87726751581883,1270536,32768,0.005096188534868,0.005096188534868,0.005096188534868,20.606406351692,20.617856155914,8.0051250813538e-05,8.0051250813538e-05,8.0051250813538e-05,307191.59774456,0.015406210973427
26697600,0.99994851003969,0.01504596325725,0.00501532108575,0.00501532108575,0.00501532108575,-0.0012265189957797,0.0012265189957797,2.3657365519017e-17,-1.3903987007447e-17,-8.4835643623439e-17,9.4452996878722e-17,-0.0012558086264579,0.0012558086264578,-0.0012558086264579,0.0012558086264578,-0.0012558086264578,0.0012558086264579,-0.0012558086264578,0.0012558086264579,-0.0012062822993268,0.001206282299327,-0.0012062822993269,0.0012062822993269,1.0030575925732e-16,-7.8556423684592e-17,-7.2865421070227e-18,3.286664300544e-17,-0.0012265189957797,0.0012265189957797,-0.0012558086264578,0.0012558086264578,-0.0012558086264577,0.0012558086264579,-0.0012558086264578,0.0012558086264578,-0.0012558086264578,0.0012558086264578,-0.0012062822993269,0.0012062822993269,-0.0012062822993269,0.0012062822993269,-0.0012062822993268,0.001206282299327,-0.001206282299327,0.0012062822993269,-2.4186761111051e-17,1.4764254844502e-17,-0.0012265189957797,0.0012265189957797,8.3526860076466e-18,-2.4013972271984e-17,-0.0012558086264578,0.0012558086264578,-0.0012558086264578,0.0012558086264578,-0.0012558086264578,0.0012558086264578,-0.0012558086264578,0.0012558086264578,-0.0012062822993269,0.0012062822993269,-0.0012062822993269,0.0012062822993269,0.775329054725,0.83761353910526,1270536,32768,0.0050974459667053,0.0050974459667053,0.0050974459667053,20.795561851465,20.807841872159,8.156449481172e-05,8.156449481172e-05,8.156449481172e-05,307793.78692268,0.015410041341022
26784000,0.99994966553394,0.015045982742855,0.0050153275809516,0.0050153275809516,0.0050153275809515,-0.0012268036916936,0.0012268036916937,2.8083700885745e-17,-9.3673608923783e-18,-8.0424013689822e-17,9.8894037678562e-17,-0.0012561295336323,0.0012561295336323,-0.0012561295336323,0.0012561295336322,-0.0012561295336323,0.0012561295336323,-0.0012561295336322,0.0012561295336323,-0.0012065381156781,0.0012065381156782,-0.0012065381156781,0.0012065381156782,9.8055827991175e-17,-8.0696064202395e-17,-8.1541626606339e-18,3.1690208356476e-17,-0.0012268036916936,0.0012268036916936,-0.0012561295336322,0.0012561295336323,-0.0012561295336322,0.0012561295336323,-0.0012561295336322,0.0012561295336322,-0.0012561295336323,0.0012561295336322,-0.0012065381156781,0.0012065381156781,-0.0012065381156781,0.0012065381156781,-0.001206538115678,0.0012065381156782,-0.0012065381156782,0.0012065381156781,-2.3392667723e-17,1.5484821066993e-17,-0.0012268036916936,0.0012268036916936,1.0440857509558e-17,-2.2146382266753e-17,-0.0012561295336322,0.0012561295336322,-0.0012561295336322,0.0012561295336322,-0.0012561295336322,0.0012561295336322,-0.0012561295336322,0.0012561295336322,-0.0012065381156781,0.0012065381156781,-0.0012065381156781,0.0012065381156781,0.76872272092407,0.7979595623917,1270536,32768,0.0050986261688728,0.0050986261688728,0.0050986261688728,20.985460833696,20.997827588404,8.3083686669564e-05,8.3083686669564e-05,8.3083686669564e-05,309128.92061773,0.01541363638933
26870400,0.99995080825759,0.015046001789156,0.0050153339297187,0.0050153339297187,0.0050153339297187,-0.0012270769353894,0.0012270769353894,2.2786068607127e-17,-1.4521615198153e-17,-8.5570915279041e-17,9.3805957821791e-17,-0.0012564402694081,0.0012564402694081,-0.0012564402694082,0.0012564402694081,-0.0012564402694081,0.0012564402694081,-0.0012564402694081,0.0012564402694081,-0.0012067845157821,0.0012067845157823,-0.0012067845157822,0.0012067845157822,9.9592545751385e-17,-7.9365222505755e-17,-6.4850960024157e-18,3.4675411278223e-17,-0.0012270769353894,0.0012270769353894,-0.001256440269408,0.0012564402694081,-0.001256440269408,0.0012564402694081,-0.0012564402694081,0.0012564402694081,-0.0012564402694081,0.001256440269408,-0.0012067845157822,0.0012067845157822,-0.0012067845157822,0.0012067845157822,-0.0012067845157821,0.0012067845157823,-0.0012067845157823,0.0012067845157822,-2.3940445106424e-17,1.4734843978278e-17,-0.0012270769353894,0.0012270769353894,9.1320739625854e-18,-2.4249259201777e-17,-0.0012564402694081,0.0012564402694081,-0.0012564402694081,0.001256440269408,-0.001256440269408,0.0012564402694081,-0.001256440269408,0.0012564402694081,-0.0012067845157822,0.0012067845157822,-0.0012067845157822,0.0012067845157822,0.75979839130997,0.75830558567814,1270536,32768,0.005099758914811,0.005099758914811,0.0050997589148109,21.175431292611,21.18781330465,8.4603450340884e-05,8.4603450340884e-05,8.4603450340884e-05,310954.88454971,0.015417086828643
26956800,0.99995193802961,0.015046020350125,0.0050153401167084,0.0050153401167084,0.0050153401167084,-0.0012273426692245,0.0012273426692245,1.9815571118493e-17,-1.7389174655004e-17,-8.8100249774315e-17,9.1188390727846e-17,-0.0012567428771485,0.0012567428771485,-0.0012567428771486,0.0012567428771485,-0.0012567428771485,0.0012567428771486,-0.0012567428771485,0.0012567428771486,-0.0012070256499901,0.0012070256499902,-0.0012070256499901,0.0012070256499901,9.7791130195158e-17,-8.0644595186503e-17,-9.1320739625854e-18,3.2190193082286e-17,-0.0012273426692245,0.0012273426692245,-0.0012567428771485,0.0012567428771485,-0.0012567428771484,0.0012567428771486,-0.0012567428771485,0.0012567428771485,-0.0012567428771485,0.0012567428771485,-0.0012070256499902,0.0012070256499901,-0.0012070256499902,0.0012070256499901,-0.00120702564999,0.0012070256499902,-0.0012070256499902,0.0012070256499901,-2.4157350244826e-17,1.4470146182261e-17,-0.0012273426692245,0.0012273426692245,1.0132043414205e-17,-2.3734569042855e-17,-0.0012567428771485,0.0012567428771485,-0.0012567428771485,0.0012567428771485,-0.0012567428771485,0.0012567428771485,-0.0012567428771485,0.0012567428771485,-0.0012070256499901,0.0012070256499901,-0.0012070256499902,0.0012070256499901,0.74893987396955,0.71865160896458,1270536,32768,0.005100860543302,0.005100860543302,0.0051008605433019,21.365408743263,21.377799020895,8.6123269946102e-05,8.6123269946102e-05,8.6123269946102e-05,313168.2950223,0.015420442441419
27043200,0.99995305467484,0.015046038388295,0.0050153461294316,0.0050153461294316,0.0050153461294315,-0.0012276031130164,0.0012276031130164,2.3973532330926e-17,-1.3271653383629e-17,-8.4284189881737e-17,9.508533050254e-17,-0.0012570387133491,0.001257038713349,-0.0012570387133491,0.001257038713349,-0.001257038713349,0.0012570387133491,-0.001257038713349,0.0012570387133491,-0.0012072635678579,0.0012072635678581,-0.001207263567858,0.001207263567858,9.6342645033621e-17,-8.2512185191734e-17,-1.0837904203584e-17,3.0278486777719e-17,-0.0012276031130164,0.0012276031130164,-0.001257038713349,0.001257038713349,-0.001257038713349,0.0012570387133491,-0.001257038713349,0.001257038713349,-0.001257038713349,0.001257038713349,-0.001207263567858,0.0012072635678579,-0.001207263567858,0.0012072635678579,-0.0012072635678578,0.001207263567858,-0.001207263567858,0.0012072635678579,-2.0352319427083e-17,1.8293558791395e-17,-0.0012276031130164,0.0012276031130164,1.260255617703e-17,-2.0719955254884e-17,-0.001257038713349,0.001257038713349,-0.001257038713349,0.001257038713349,-0.001257038713349,0.001257038713349,-0.001257038713349,0.001257038713349,-0.0012072635678579,0.0012072635678579,-0.001207263567858,0.0012072635678579,0.73641910627879,0.67899763225102,1270536,32768,0.0051019402534485,0.0051019402534484,0.0051019402534484,21.555386880377,21.56778473714,8.7643095043016e-05,8.7643095043016e-05,8.7643095043016e-05,315717.62601252,0.015423731257986
27129600,0.99995415802455,0.01504605587283,0.00501535195761,0.00501535195761,0.00501535195761,-0.0012278595872757,0.0012278595872758,2.5355843043459e-17,-1.191875353732e-17,-8.4041550235388e-17,9.6438230348849e-17,-0.0012573287380332,0.0012573287380331,-0.0012573287380332,0.0012573287380331,-0.0012573287380331,0.0012573287380332,-0.0012573287380331,0.0012573287380332,-0.0012074993369623,0.0012074993369624,-0.0012074993369623,0.0012074993369623,9.5997067355487e-17,-8.3953317636715e-17,-1.0896725936032e-17,2.9263811892987e-17,-0.0012278595872757,0.0012278595872758,-0.0012573287380331,0.0012573287380331,-0.0012573287380331,0.0012573287380332,-0.0012573287380332,0.0012573287380331,-0.0012573287380332,0.0012573287380331,-0.0012074993369623,0.0012074993369623,-0.0012074993369623,0.0012074993369623,-0.0012074993369622,0.0012074993369624,-0.0012074993369624,0.0012074993369623,-1.7789897707307e-17,2.0808187853556e-17,-0.0012278595872757,0.0012278595872757,1.5043658073631e-17,-1.7234767607327e-17,-0.0012573287380331,0.0012573287380331,-0.0012573287380331,0.0012573287380331,-0.0012573287380331,0.0012573287380331,-0.0012573287380331,0.0012573287380332,-0.0012074993369623,0.0012074993369623,-0.0012074993369623,0.0012074993369623,0.7224399100523,0.63934365553746,1270536,32768,0.0051030035170936,0.0051030035170935,0.0051030035170935,21.745365084039,21.757770453386,8.9162920672312e-05,8.9162920672312e-05,8.9162920672312e-05,318575.71177406,0.015426969952577
27216000,0.99995524791667,0.015046072778255,0.0050153575927517,0.0050153575927517,0.0050153575927517,-0.0012281129037935,0.0012281129037935,2.5006589007048e-17,-1.2337858381013e-17,-8.3938612203603e-17,9.6202943419056e-17,-0.0012576136689763,0.0012576136689762,-0.0012576136689763,0.0012576136689762,-0.0012576136689762,0.0012576136689763,-0.0012576136689762,0.0012576136689763,-0.0012077335157055,0.0012077335157056,-0.0012077335157055,0.0012077335157055,9.5261795699885e-17,-8.4276837165181e-17,-1.2109924167776e-17,2.7631508817549e-17,-0.0012281129037935,0.0012281129037935,-0.0012576136689762,0.0012576136689762,-0.0012576136689762,0.0012576136689763,-0.0012576136689762,0.0012576136689762,-0.0012576136689762,0.0012576136689762,-0.0012077335157055,0.0012077335157055,-0.0012077335157055,0.0012077335157055,-0.0012077335157054,0.0012077335157056,-0.0012077335157056,0.0012077335157055,-2.3580161995178e-17,1.5278945003424e-17,-0.0012281129037935,0.0012281129037935,9.0732522301372e-18,-2.2734599591235e-17,-0.0012576136689762,0.0012576136689762,-0.0012576136689762,0.0012576136689762,-0.0012576136689762,0.0012576136689762,-0.0012576136689762,0.0012576136689762,-0.0012077335157055,0.0012077335157055,-0.0012077335157055,0.0012077335157055,0.70716133896545,0.59968967882389,1270536,32768,0.0051040536977623,0.0051040536977623,0.0051040536977623,21.935343293183,21.947756169631,9.0682746345459e-05,9.0682746345459e-05,9.0682746345459e-05,321728.72246348,0.015430168775628
27302400,0.99995632216602,0.015046089248239,0.0050153630827464,0.0050153630827464,0.0050153630827463,-0.0012283032926899,0.0012283032926899,2.2962533804472e-17,-1.4293680984916e-17,-8.5423860947921e-17,9.4247120815153e-17,-0.0012578345954705,0.0012578345954704,-0.0012578345954705,0.0012578345954704,-0.0012578345954704,0.0012578345954705,-0.0012578345954704,0.0012578345954705,-0.0012079055581942,0.0012079055581944,-0.0012079055581943,0.0012079055581943,9.4725047391295e-17,-8.4107724684392e-17,-1.1609939441967e-17,2.8616772836057e-17,-0.0012283032926899,0.0012283032926899,-0.0012578345954704,0.0012578345954704,-0.0012578345954704,0.0012578345954705,-0.0012578345954704,0.0012578345954704,-0.0012578345954704,0.0012578345954704,-0.0012079055581943,0.0012079055581943,-0.0012079055581943,0.0012079055581943,-0.0012079055581942,0.0012079055581944,-0.0012079055581944,0.0012079055581943,-2.1311848937644e-17,1.7455349104008e-17,-0.0012283032926899,0.0012283032926899,1.1323183496281e-17,-2.1028769350237e-17,-0.0012578345954704,0.0012578345954704,-0.0012578345954704,0.0012578345954704,-0.0012578345954704,0.0012578345954704,-0.0012578345954704,0.0012578345954704,-0.0012079055581943,0.0012079055581943,-0.0012079055581943,0.0012079055581943,0.69900595858352,0.60576459798308,1270536,32768,0.0051048430185985,0.0051048430185985,0.0051048430185984,22.094089600016,22.104535272851,9.1952716800129e-05,9.1952716800129e-05,9.1952716800129e-05,325198.18547563,0.015432572940636
27388800,0.99995737810496,0.015046105647872,0.0050153685492909,0.0050153685492908,0.0050153685492908,-0.0012285064250195,0.0012285064250195,2.2142705908475e-17,-1.4940720041847e-17,-8.5754733192942e-17,9.39383067198e-17,-0.0012580341637798,0.0012580341637798,-0.0012580341637798,0.0012580341637797,-0.0012580341637798,0.0012580341637798,-0.0012580341637797,0.0012580341637798,-0.0012081200740312,0.0012081200740314,-0.0012081200740313,0.0012081200740313,9.7313203619016e-17,-8.2151902080489e-17,-9.7717603029598e-18,3.1043169299546e-17,-0.0012285064250195,0.0012285064250195,-0.0012580341637797,0.0012580341637798,-0.0012580341637797,0.0012580341637798,-0.0012580341637798,0.0012580341637798,-0.0012580341637798,0.0012580341637797,-0.0012081200740313,0.0012081200740313,-0.0012081200740313,0.0012081200740313,-0.0012081200740312,0.0012081200740314,-0.0012081200740314,0.0012081200740313,-2.1444197835653e-17,1.7337705639111e-17,-0.0012285064250195,0.0012285064250195,1.1411416094954e-17,-2.1616986674719e-17,-0.0012580341637798,0.0012580341637797,-0.0012580341637797,0.0012580341637797,-0.0012580341637797,0.0012580341637798,-0.0012580341637797,0.0012580341637798,-0.0012081200740313,0.0012081200740313,-0.0012081200740313,0.0012081200740313,0.70812417366187,0.6936596777507,1270536,32768,0.0051056851612922,0.0051056851612921,0.0051056851612921,22.211645382358,22.219426609391,9.2893163058864e-05,9.2893163058864e-05,9.2893163058864e-05,325974.9708877,0.015435138185668
27475200,0.99995841570413,0.015046121872535,0.0050153739575118,0.0050153739575118,0.0050153739575118,-0.0012288854798779,0.0012288854798779,2.407647036271e-17,-1.3036366453836e-17,-8.3835674171819e-17,9.4600051209842e-17,-0.001258345927139,0.0012583459271389,-0.001258345927139,0.0012583459271389,-0.001258345927139,0.001258345927139,-0.001258345927139,0.001258345927139,-0.0012085614012434,0.0012085614012435,-0.0012085614012435,0.0012085614012435,9.8063180707731e-17,-7.9931381680569e-17,-7.8232904156126e-18,3.344015489681e-17,-0.0012288854798779,0.0012288854798779,-0.0012583459271389,0.0012583459271389,-0.0012583459271389,0.001258345927139,-0.0012583459271389,0.0012583459271389,-0.0012583459271389,0.0012583459271389,-0.0012085614012435,0.0012085614012434,-0.0012085614012435,0.0012085614012434,-0.0012085614012433,0.0012085614012435,-0.0012085614012435,0.0012085614012434,-2.1451550552209e-17,1.7161240441767e-17,-0.0012288854798779,0.0012288854798779,1.2117276884332e-17,-2.1396405178038e-17,-0.0012583459271389,0.0012583459271389,-0.0012583459271389,0.0012583459271389,-0.0012583459271389,0.0012583459271389,-0.0012583459271389,0.0012583459271389,-0.0012085614012434,0.0012085614012434,-0.0012085614012435,0.0012085614012434,0.71296345259795,0.71481564294861,1270536,32768,0.0051072565451688,0.0051072565451688,0.0051072565451688,22.326775879849,22.33431794593,9.3814207038787e-05,9.3814207038787e-05,9.3814207038787e-05,321050.59114651,0.015439925291647
27561600,0.9999594350856,0.01504613793423,0.0050153793114101,0.00501537931141,0.00501537931141,-0.0012291726372977,0.0012291726372977,2.3683100026963e-17,-1.3293711533297e-17,-8.3879790471155e-17,9.5173563101212e-17,-0.0012586004946726,0.0012586004946726,-0.0012586004946727,0.0012586004946726,-0.0012586004946726,0.0012586004946727,-0.0012586004946726,0.0012586004946727,-0.0012088698910316,0.0012088698910318,-0.0012088698910317,0.0012088698910317,9.6533815664077e-17,-8.2048964048704e-17,-1.0124690697649e-17,3.1043169299546e-17,-0.0012291726372977,0.0012291726372977,-0.0012586004946725,0.0012586004946726,-0.0012586004946725,0.0012586004946727,-0.0012586004946726,0.0012586004946726,-0.0012586004946726,0.0012586004946726,-0.0012088698910317,0.0012088698910317,-0.0012088698910317,0.0012088698910317,-0.0012088698910316,0.0012088698910318,-0.0012088698910318,0.0012088698910317,-2.2377992838268e-17,1.6234798155707e-17,-0.0012291726372977,0.0012291726372977,1.1073191133377e-17,-2.2631661559451e-17,-0.0012586004946726,0.0012586004946726,-0.0012586004946726,0.0012586004946726,-0.0012586004946726,0.0012586004946726,-0.0012586004946726,0.0012586004946726,-0.0012088698910317,0.0012088698910317,-0.0012088698910317,0.0012088698910317,0.71838169817058,0.73597160814652,1270536,32768,0.0051084469321454,0.0051084469321453,0.0051084469321453,22.441687873249,22.449209282469,9.4733502985991e-05,9.4733502985991e-05,9.4733502985991e-05,318767.0796292,0.015443551686955
27648000,0.99996043638753,0.015046153847947,0.0050153846159824,0.0050153846159824,0.0050153846159824,-0.0012294532721104,0.0012294532721104,2.3359580498498e-17,-1.3837812558443e-17,-8.4820938190327e-17,9.4276531681377e-17,-0.0012588545626986,0.0012588545626985,-0.0012588545626986,0.0012588545626985,-0.0012588545626985,0.0012588545626986,-0.0012588545626985,0.0012588545626986,-0.001209166437253,0.0012091664372532,-0.0012091664372531,0.0012091664372531,9.6401466766069e-17,-8.2350425427501e-17,-1.1183481881717e-17,3.0602006306184e-17,-0.0012294532721104,0.0012294532721104,-0.0012588545626985,0.0012588545626985,-0.0012588545626985,0.0012588545626986,-0.0012588545626985,0.0012588545626985,-0.0012588545626985,0.0012588545626985,-0.0012091664372531,0.0012091664372531,-0.0012091664372531,0.0012091664372531,-0.001209166437253,0.0012091664372532,-0.0012091664372532,0.0012091664372531,-2.4102204870656e-17,1.4587789647157e-17,-0.0012294532721104,0.0012294532721104,9.4997097903868e-18,-2.4719833061363e-17,-0.0012588545626985,0.0012588545626985,-0.0012588545626985,0.0012588545626985,-0.0012588545626985,0.0012588545626985,-0.0012588545626985,0.0012588545626985,-0.0012091664372531,0.0012091664372531,-0.0012091664372531,0.0012091664372531,0.72460032941829,0.75712757334442,1270536,32768,0.0051096102711113,0.0051096102711113,0.0051096102711113,22.556578763603,22.564100619009,9.565263010882e-05,9.565263010882e-05,9.565263010882e-05,316603.33184669,0.015447095708091
27734400,0.9999614197522,0.015046169628196,0.0050153898760655,0.0050153898760654,0.0050153898760654,-0.001229731749352,0.001229731749352,1.9175884778118e-17,-1.8139151743718e-17,-8.8894343162365e-17,8.9556087652408e-17,-0.0012591100887547,0.0012591100887547,-0.0012591100887547,0.0012591100887546,-0.0012591100887547,0.0012591100887547,-0.0012591100887547,0.0012591100887547,-0.0012094580758374,0.0012094580758375,-0.0012094580758374,0.0012094580758374,9.7357319918352e-17,-8.0666653336171e-17,-8.9409033321287e-18,3.2881348438552e-17,-0.001229731749352,0.001229731749352,-0.0012591100887546,0.0012591100887547,-0.0012591100887546,0.0012591100887547,-0.0012591100887547,0.0012591100887547,-0.0012591100887547,0.0012591100887546,-0.0012094580758374,0.0012094580758374,-0.0012094580758374,0.0012094580758374,-0.0012094580758373,0.0012094580758375,-0.0012094580758375,0.0012094580758374,-1.9113386687392e-17,1.9631753204592e-17,-0.001229731749352,0.001229731749352,1.4867192876286e-17,-1.9146473911894e-17,-0.0012591100887547,0.0012591100887547,-0.0012591100887547,0.0012591100887546,-0.0012591100887546,0.0012591100887547,-0.0012591100887546,0.0012591100887547,-0.0012094580758374,0.0012094580758374,-0.0012094580758375,0.0012094580758374,0.73161546988354,0.77828353854233,1270536,32768,0.0051107646586103,0.0051107646586102,0.0051107646586102,22.67146758027,22.678991955548,9.6571740642163e-05,9.6571740642163e-05,9.6571740642163e-05,314421.69638096,0.01545061248647
27820800,0.9999623853249,0.01504618528754,0.0050153950958468,0.0050153950958468,0.0050153950958467,-0.0012300090008368,0.0012300090008368,2.7892530255288e-17,-9.3820663254903e-18,-7.9982850696461e-17,9.8629339882545e-17,-0.0012593671868422,0.0012593671868422,-0.0012593671868422,0.0012593671868421,-0.0012593671868421,0.0012593671868422,-0.0012593671868421,0.0012593671868422,-0.0012097466000076,0.0012097466000078,-0.0012097466000077,0.0012097466000077,9.5438260897229e-17,-8.2468068892398e-17,-1.1654055741303e-17,3.1204929063778e-17,-0.0012300090008368,0.0012300090008368,-0.0012593671868421,0.0012593671868422,-0.0012593671868421,0.0012593671868422,-0.0012593671868421,0.0012593671868421,-0.0012593671868422,0.0012593671868421,-0.0012097466000077,0.0012097466000077,-0.0012097466000077,0.0012097466000076,-0.0012097466000075,0.0012097466000077,-0.0012097466000077,0.0012097466000076,-2.5234523220284e-17,1.3587820195538e-17,-0.0012300090008368,0.0012300090008368,9.1026630963613e-18,-2.6293314404352e-17,-0.0012593671868422,0.0012593671868421,-0.0012593671868421,0.0012593671868421,-0.0012593671868421,0.0012593671868421,-0.0012593671868421,0.0012593671868422,-0.0012097466000076,0.0012097466000076,-0.0012097466000077,0.0012097466000076,0.73937325960248,0.79943950374024,1270536,32768,0.0051119139586436,0.0051119139586436,0.0051119139586436,22.786356191953,22.793883292087,9.7490849535619e-05,9.7490849535619e-05,9.7490849535619e-05,312194.09371703,0.015454113791402
27907200,0.9999633332537,0.015046200836515,0.0050154002788385,0.0050154002788385,0.0050154002788385,-0.0012302851426599,0.0012302851426599,2.0933184035009e-17,-1.632303075438e-17,-8.5681206027382e-17,9.1320739625854e-17,-0.0012596255671356,0.0012596255671355,-0.0012596255671356,0.0012596255671355,-0.0012596255671355,0.0012596255671356,-0.0012596255671355,0.0012596255671356,-0.0012100325181252,0.0012100325181254,-0.0012100325181253,0.0012100325181253,9.5629431527686e-17,-8.0938703848744e-17,-1.0999663967816e-17,3.1925495286269e-17,-0.0012302851426599,0.0012302851426599,-0.0012596255671355,0.0012596255671355,-0.0012596255671355,0.0012596255671356,-0.0012596255671355,0.0012596255671355,-0.0012596255671355,0.0012596255671355,-0.0012100325181253,0.0012100325181253,-0.0012100325181253,0.0012100325181253,-0.0012100325181252,0.0012100325181254,-0.0012100325181254,0.0012100325181253,-1.9455288007247e-17,1.9337644542351e-17,-0.0012302851426599,0.0012302851426599,1.4381913583589e-17,-2.0631722656212e-17,-0.0012596255671355,0.0012596255671355,-0.0012596255671355,0.0012596255671355,-0.0012596255671355,0.0012596255671355,-0.0012596255671355,0.0012596255671355,-0.0012100325181253,0.0012100325181253,-0.0012100325181253,0.0012100325181253,0.74781216721237,0.82059546893814,1270536,32768,0.0051130586535183,0.0051130586535183,0.0051130586535182,22.901244783123,22.908774628627,9.8409958264985e-05,9.8409958264985e-05,9.8409958264985e-05,309918.82375639,0.015457601089564
27993600,0.99996426368935,0.015046216283807,0.0050154054279358,0.0050154054279357,0.0050154054279357,-0.0012305600906412,0.0012305600906412,2.0911125885341e-17,-1.632303075438e-17,-8.588708209095e-17,9.0953103798053e-17,-0.001259884868413,0.001259884868413,-0.0012598848684131,0.001259884868413,-0.001259884868413,0.0012598848684131,-0.001259884868413,0.0012598848684131,-0.0012103159837863,0.0012103159837865,-0.0012103159837864,0.0012103159837864,9.9511665869268e-17,-7.6512368482016e-17,-7.2424258076865e-18,3.6690055614574e-17,-0.0012305600906412,0.0012305600906412,-0.0012598848684129,0.001259884868413,-0.0012598848684129,0.001259884868413,-0.001259884868413,0.001259884868413,-0.001259884868413,0.001259884868413,-0.0012103159837864,0.0012103159837864,-0.0012103159837864,0.0012103159837864,-0.0012103159837863,0.0012103159837865,-0.0012103159837864,0.0012103159837864,-2.1091267440963e-17,1.761710886824e-17,-0.0012305600906412,0.0012305600906412,1.3764285392882e-17,-2.2705188725011e-17,-0.001259884868413,0.001259884868413,-0.001259884868413,0.001259884868413,-0.001259884868413,0.001259884868413,-0.001259884868413,0.001259884868413,-0.0012103159837863,0.0012103159837864,-0.0012103159837864,0.0012103159837864,0.75687411648508,0.84175143413605,1270536,32768,0.0051141983951553,0.0051141983951553,0.0051141983951553,23.016133372025,23.023665965166,9.9329066976197e-05,9.9329066976197e-05,9.9329066976197e-05,307600.9381419,0.015461073318058
28080000,0.99996517600617,0.01504623162334,0.0050154105411134,0.0050154105411133,0.0050154105411133,-0.0012308062532347,0.0012308062532347,2.3771332625635e-17,-1.3683405510766e-17,-8.3475391060574e-17,9.3585376325111e-17,-0.001260117637544,0.001260117637544,-0.001260117637544,0.0012601176375439,-0.001260117637544,0.001260117637544,-0.001260117637544,0.001260117637544,-0.0012105693315325,0.0012105693315326,-0.0012105693315325,0.0012105693315325,9.7430847083913e-17,-7.8960823095173e-17,-9.7349967201796e-18,3.444012434843e-17,-0.0012308062532346,0.0012308062532347,-0.0012601176375439,0.001260117637544,-0.0012601176375439,0.001260117637544,-0.001260117637544,0.0012601176375439,-0.001260117637544,0.0012601176375439,-0.0012105693315326,0.0012105693315325,-0.0012105693315325,0.0012105693315325,-0.0012105693315324,0.0012105693315326,-0.0012105693315326,0.0012105693315325,-2.3988237764038e-17,1.4793665710726e-17,-0.0012308062532347,0.0012308062532347,1.0529090108231e-17,-2.5660980780534e-17,-0.001260117637544,0.0012601176375439,-0.0012601176375439,0.0012601176375439,-0.0012601176375439,0.0012601176375439,-0.0012601176375439,0.001260117637544,-0.0012105693315325,0.0012105693315325,-0.0012105693315325,0.0012105693315325,0.76650710999347,0.86290739933395,1270536,32768,0.0051152188049464,0.0051152188049463,0.0051152188049463,23.11678098814,23.123413281259,0.00010013424790512,0.00010013424790512,0.00010013424790512,305258.922062,0.015464182038296
28166400,0.99996606948595,0.015046246845501,0.0050154156151671,0.005015415615167,0.005015415615167,-0.0012310176509606,0.0012310176509606,2.3120617210427e-17,-1.4514262481597e-17,-8.4218015432732e-17,9.3070686166189e-17,-0.0012603174245237,0.0012603174245237,-0.0012603174245238,0.0012603174245237,-0.0012603174245237,0.0012603174245238,-0.0012603174245237,0.0012603174245237,-0.0012107869055149,0.001210786905515,-0.0012107869055149,0.001210786905515,1.0049692988778e-16,-7.6519721198572e-17,-6.543917734864e-18,3.7454738136401e-17,-0.0012310176509606,0.0012310176509606,-0.0012603174245236,0.0012603174245237,-0.0012603174245236,0.0012603174245237,-0.0012603174245237,0.0012603174245237,-0.0012603174245237,0.0012603174245237,-0.001210786905515,0.0012107869055149,-0.0012107869055149,0.0012107869055149,-0.0012107869055148,0.001210786905515,-0.001210786905515,0.0012107869055149,-1.6573023117285e-17,2.2087560534305e-17,-0.0012310176509606,0.0012310176509606,1.7984744696042e-17,-1.8381791390067e-17,-0.0012603174245237,0.0012603174245237,-0.0012603174245237,0.0012603174245237,-0.0012603174245237,0.0012603174245237,-0.0012603174245237,0.0012603174245237,-0.0012107869055149,0.0012107869055149,-0.0012107869055149,0.0012107869055149,0.77666534004838,0.88406336453186,1270536,32768,0.0051160950973452,0.0051160950973452,0.0051160950973451,23.200146283492,23.205654890634,0.00010080117026794,0.00010080117026794,0.00010080117026794,302890.06331992,0.015466851734162
28252800,0.99996694434604,0.01504626195499,0.0050154206516634,0.0050154206516634,0.0050154206516634,-0.0012312255632227,0.0012312255632227,2.1069209291295e-17,-1.6168623706703e-17,-8.6548826580993e-17,8.9938428913321e-17,-0.0012605148237925,0.0012605148237925,-0.0012605148237926,0.0012605148237925,-0.0012605148237925,0.0012605148237926,-0.0012605148237925,0.0012605148237925,-0.0012110004428413,0.0012110004428415,-0.0012110004428414,0.0012110004428414,9.4607403926398e-17,-8.148280487389e-17,-1.2264331215453e-17,3.1087285598882e-17,-0.0012312255632227,0.0012312255632227,-0.0012605148237924,0.0012605148237925,-0.0012605148237924,0.0012605148237925,-0.0012605148237925,0.0012605148237925,-0.0012605148237925,0.0012605148237925,-0.0012110004428414,0.0012110004428414,-0.0012110004428414,0.0012110004428414,-0.0012110004428413,0.0012110004428415,-0.0012110004428415,0.0012110004428414,-2.5282315877899e-17,1.3573114762426e-17,-0.0012312255632227,0.0012312255632227,9.293833726818e-18,-2.6484485034809e-17,-0.0012605148237925,0.0012605148237925,-0.0012605148237925,0.0012605148237925,-0.0012605148237925,0.0012605148237925,-0.0012605148237925,0.0012605148237925,-0.0012110004428414,0.0012110004428414,-0.0012110004428414,0.0012110004428414,0.78730858008422,0.90521932972976,1270536,32768,0.0051169569404983,0.0051169569404982,0.0051169569404982,23.282488860173,23.287896500009,0.00010145991088138,0.00010145991088138,0.00010145991088138,300483.36802832,0.015469477414572
28339200,0.99996780085526,0.015046276956268,0.0050154256520895,0.0050154256520894,0.0050154256520894,-0.0012314317384565,0.0012314317384565,2.3962503256092e-17,-1.3352533265745e-17,-8.2703355822191e-17,9.3688314356895e-17,-0.0012607117933048,0.0012607117933047,-0.0012607117933048,0.0012607117933047,-0.0012607117933047,0.0012607117933048,-0.0012607117933047,0.0012607117933048,-0.0012112115379313,0.0012112115379315,-0.0012112115379314,0.0012112115379314,9.7239676453456e-17,-7.8497601952143e-17,-8.8012017175642e-18,3.3572503794819e-17,-0.0012314317384565,0.0012314317384565,-0.0012607117933047,0.0012607117933048,-0.0012607117933047,0.0012607117933048,-0.0012607117933047,0.0012607117933047,-0.0012607117933047,0.0012607117933047,-0.0012112115379314,0.0012112115379314,-0.0012112115379314,0.0012112115379314,-0.0012112115379313,0.0012112115379314,-0.0012112115379314,0.0012112115379314,-2.679697548844e-17,1.2205509483005e-17,-0.0012314317384565,0.0012314317384565,6.6762666328724e-18,-2.7881501180454e-17,-0.0012607117933047,0.0012607117933047,-0.0012607117933047,0.0012607117933047,-0.0012607117933047,0.0012607117933047,-0.0012607117933047,0.0012607117933047,-0.0012112115379313,0.0012112115379314,-0.0012112115379314,0.0012112115379313,0.79840143256192,0.92637529492767,1270536,32768,0.0051178115816558,0.0051178115816558,0.0051178115816558,23.364738993789,23.370138109384,0.00010211791195031,0.00010211791195031,0.00010211791195031,298055.9488543,0.015472081161945
28425600,0.99996863928571,0.015046291852927,0.0050154306176422,0.0050154306176422,0.0050154306176422,-0.0012316363032105,0.0012316363032105,2.4366902666673e-17,-1.2786374090931e-17,-8.1556332039451e-17,9.39383067198e-17,-0.001260908353994,0.0012609083539939,-0.001260908353994,0.0012609083539939,-0.0012609083539939,0.001260908353994,-0.0012609083539939,0.001260908353994,-0.0012114203775258,0.0012114203775259,-0.0012114203775258,0.0012114203775258,9.8754336063998e-17,-7.6313845135003e-17,-7.4556545878113e-18,3.5263628602705e-17,-0.0012316363032105,0.0012316363032105,-0.0012609083539939,0.0012609083539939,-0.0012609083539939,0.001260908353994,-0.0012609083539939,0.0012609083539939,-0.0012609083539939,0.0012609083539939,-0.0012114203775258,0.0012114203775258,-0.0012114203775258,0.0012114203775258,-0.0012114203775257,0.0012114203775259,-0.0012114203775259,0.0012114203775258,-2.0591282715153e-17,1.8087682727826e-17,-0.0012316363032105,0.0012316363032105,1.352899846309e-17,-2.1558164942271e-17,-0.0012609083539939,0.0012609083539939,-0.0012609083539939,0.0012609083539939,-0.0012609083539939,0.0012609083539939,-0.0012609083539939,0.0012609083539939,-0.0012114203775258,0.0012114203775258,-0.0012114203775258,0.0012114203775258,0.80991261824697,0.94753126012558,1270536,32768,0.0051186595456465,0.0051186595456465,0.0051186595456465,23.446980173642,23.452379718758,0.00010277584138913,0.00010277584138913,0.00010277584138913,295613.53126456,0.01547466457454
28512000,0.99996945990852,0.015046306647746,0.0050154355492486,0.0050154355492485,0.0050154355492485,-0.0012318392547203,0.0012318392547203,2.3124293568705e-17,-1.4161332086908e-17,-8.3468038344018e-17,9.1967778682785e-17,-0.001261104375772,0.001261104375772,-0.0012611043757721,0.001261104375772,-0.001261104375772,0.0012611043757721,-0.001261104375772,0.0012611043757721,-0.0012116270312854,0.0012116270312855,-0.0012116270312854,0.0012116270312854,9.5997067355487e-17,-7.918875730841e-17,-9.6100005387272e-18,3.221960394851e-17,-0.0012318392547203,0.0012318392547203,-0.001261104375772,0.001261104375772,-0.0012611043757719,0.0012611043757721,-0.001261104375772,0.001261104375772,-0.001261104375772,0.001261104375772,-0.0012116270312854,0.0012116270312854,-0.0012116270312854,0.0012116270312854,-0.0012116270312853,0.0012116270312855,-0.0012116270312855,0.0012116270312854,-1.9988359957559e-17,1.8778838084093e-17,-0.0012318392547203,0.0012318392547203,1.3470176730641e-17,-2.0440552025755e-17,-0.001261104375772,0.001261104375772,-0.001261104375772,0.001261104375772,-0.001261104375772,0.001261104375772,-0.001261104375772,0.001261104375772,-0.0012116270312854,0.0012116270312854,-0.0012116270312854,0.0012116270312854,0.82181435803012,0.96868722532349,1270536,32768,0.0051195008212995,0.0051195008212994,0.0051195008212994,23.529220471288,23.534621328133,0.0001034337637703,0.0001034337637703,0.0001034337637703,293160.0930886,0.015477227617348
28598400,0.99997026299334,0.015046321243619,0.0050154404145397,0.0050154404145396,0.0050154404145396,-0.0012320405821632,0.0012320405821633,2.2219909432313e-17,-1.482307657695e-17,-8.4519476811529e-17,9.1585437421871e-17,-0.0012612997323719,0.0012612997323719,-0.0012612997323719,0.0012612997323718,-0.0012612997323719,0.0012612997323719,-0.0012612997323719,0.0012612997323719,-0.0012118315511895,0.0012118315511897,-0.0012118315511896,0.0012118315511896,9.4658872942291e-17,-8.1218107077873e-17,-1.0940842235368e-17,3.0866704102201e-17,-0.0012320405821632,0.0012320405821633,-0.0012612997323718,0.0012612997323719,-0.0012612997323718,0.0012612997323719,-0.0012612997323719,0.0012612997323719,-0.0012612997323719,0.0012612997323719,-0.0012118315511896,0.0012118315511896,-0.0012118315511896,0.0012118315511896,-0.0012118315511895,0.0012118315511896,-0.0012118315511896,0.0012118315511896,-2.3083853627647e-17,1.574951886301e-17,-0.0012320405821632,0.0012320405821632,1.0661439006239e-17,-2.3469871246838e-17,-0.0012612997323719,0.0012612997323719,-0.0012612997323719,0.0012612997323718,-0.0012612997323719,0.0012612997323719,-0.0012612997323719,0.0012612997323719,-0.0012118315511895,0.0012118315511896,-0.0012118315511896,0.0012118315511896,0.828447819659,0.95878231187051,1270536,32768,0.005120335363993,0.0051203353639929,0.0051203353639929,23.611460681515,23.616862937508,0.00010409168545212,0.00010409168545212,0.00010409168545212,290699.09979763,0.015479770153583
28684800,0.99997104880834,0.015046335495137,0.0050154451650458,0.0050154451650458,0.0050154451650457,-0.0012321926993947,0.0012321926993947,2.3819125283249e-17,-1.3580467478982e-17,-8.3357747595677e-17,9.3305973095982e-17,-0.001261463382164,0.001261463382164,-0.0012614633821641,0.001261463382164,-0.001261463382164,0.0012614633821641,-0.001261463382164,0.001261463382164,-0.0012119716566879,0.001211971656688,-0.0012119716566879,0.001211971656688,9.4879454438971e-17,-8.1218107077873e-17,-1.1448179677734e-17,3.0984347567097e-17,-0.0012321926993947,0.0012321926993947,-0.0012614633821639,0.001261463382164,-0.0012614633821639,0.001261463382164,-0.001261463382164,0.001261463382164,-0.001261463382164,0.001261463382164,-0.001211971656688,0.0012119716566879,-0.001211971656688,0.0012119716566879,-0.0012119716566878,0.001211971656688,-0.001211971656688,0.0012119716566879,-2.0701573463494e-17,1.8190620759611e-17,-0.0012321926993947,0.0012321926993947,1.3279006100185e-17,-2.1455226910487e-17,-0.001261463382164,0.001261463382164,-0.001261463382164,0.001261463382164,-0.001261463382164,0.001261463382164,-0.001261463382164,0.001261463382164,-0.0012119716566879,0.0012119716566879,-0.001211971656688,0.0012119716566879,0.82665183095307,0.91361234623909,1270536,32768,0.0051209659160058,0.0051209659160058,0.0051209659160058,23.693700882988,23.699104546883,0.0001047496070639,0.0001047496070639,0.0001047496070639,289668.92875828,0.015481691157249
28771200,0.9999718176201,0.0150463493391,0.0050154497797001,0.0050154497797001,0.0050154497797001,-0.0012322782568229,0.0012322782568229,2.5333784893791e-17,-1.199228070288e-17,-8.187249885136e-17,9.5114741368764e-17,-0.0012615832815832,0.0012615832815831,-0.0012615832815832,0.0012615832815831,-0.0012615832815831,0.0012615832815832,-0.0012615832815831,0.0012615832815832,-0.0012120275846142,0.0012120275846144,-0.0012120275846143,0.0012120275846143,9.6335292317065e-17,-8.0129905027581e-17,-1.0087927114869e-17,3.264606150876e-17,-0.0012322782568229,0.0012322782568229,-0.0012615832815831,0.0012615832815831,-0.001261583281583,0.0012615832815832,-0.0012615832815831,0.0012615832815831,-0.0012615832815831,0.0012615832815831,-0.0012120275846143,0.0012120275846143,-0.0012120275846143,0.0012120275846143,-0.0012120275846142,0.0012120275846144,-0.0012120275846144,0.0012120275846143,-2.2686806933621e-17,1.6293619888156e-17,-0.0012322782568229,0.0012322782568229,1.1558470426074e-17,-2.3513987546174e-17,-0.0012615832815831,0.0012615832815831,-0.0012615832815831,0.0012615832815831,-0.0012615832815831,0.0012615832815831,-0.0012615832815831,0.0012615832815831,-0.0012120275846142,0.0012120275846143,-0.0012120275846143,0.0012120275846143,0.82075299422913,0.86844238060768,1270536,32768,0.0051213205704273,0.0051213205704273,0.0051213205704272,23.775941083504,23.781346156258,0.00010540752866803,0.00010540752866803,0.00010540752866803,290660.44573088,0.015482771511015
28857600,0.9999725708294,0.015046362984937,0.0050154543283125,0.0050154543283124,0.0050154543283124,-0.0012323933194418,0.0012323933194418,2.1642721182665e-17,-1.5845104178238e-17,-8.5931198390287e-17,9.1100158129174e-17,-0.0012617367074477,0.0012617367074476,-0.0012617367074477,0.0012617367074476,-0.0012617367074476,0.0012617367074477,-0.0012617367074476,0.0012617367074477,-0.0012121136838383,0.0012121136838385,-0.0012121136838384,0.0012121136838384,9.5872071174035e-17,-8.0681358769283e-17,-1.0926136802256e-17,3.1528448592243e-17,-0.0012323933194418,0.0012323933194418,-0.0012617367074476,0.0012617367074476,-0.0012617367074475,0.0012617367074477,-0.0012617367074476,0.0012617367074476,-0.0012617367074476,0.0012617367074476,-0.0012121136838384,0.0012121136838384,-0.0012121136838384,0.0012121136838384,-0.0012121136838383,0.0012121136838385,-0.0012121136838385,0.0012121136838384,-2.1289790787976e-17,1.7528876269568e-17,-0.0012323933194418,0.0012323933194418,1.2999602871056e-17,-2.1734630139616e-17,-0.0012617367074476,0.0012617367074476,-0.0012617367074476,0.0012617367074476,-0.0012617367074476,0.0012617367074476,-0.0012617367074476,0.0012617367074476,-0.0012121136838383,0.0012121136838384,-0.0012121136838384,0.0012121136838384,0.82577134823507,0.90021254758509,1270536,32768,0.0051217975619906,0.0051217975619906,0.0051217975619905,23.883516753829,23.890533426894,0.00010626813403063,0.00010626813403063,0.00010626813403063,292332.52924238,0.015484224471793
28944000,0.99997330986329,0.015046376011572,0.0050154586705239,0.0050154586705239,0.0050154586705238,-0.0012326782862728,0.0012326782862728,2.5815387828211e-17,-1.1654055741303e-17,-8.2350425427501e-17,9.5526493495902e-17,-0.0012620163036997,0.0012620163036997,-0.0012620163036997,0.0012620163036996,-0.0012620163036997,0.0012620163036997,-0.0012620163036997,0.0012620163036997,-0.0012124110586402,0.0012124110586403,-0.0012124110586403,0.0012124110586403,9.5783838575363e-17,-8.1718091803683e-17,-1.0771729754579e-17,3.1513743159131e-17,-0.0012326782862728,0.0012326782862728,-0.0012620163036996,0.0012620163036996,-0.0012620163036996,0.0012620163036997,-0.0012620163036996,0.0012620163036996,-0.0012620163036996,0.0012620163036996,-0.0012124110586402,0.0012124110586402,-0.0012124110586402,0.0012124110586402,-0.0012124110586401,0.0012124110586403,-0.0012124110586403,0.0012124110586402,-2.1793451872064e-17,1.7087713276207e-17,-0.0012326782862728,0.0012326782862728,1.2484912712134e-17,-2.2014033368745e-17,-0.0012620163036996,0.0012620163036996,-0.0012620163036996,0.0012620163036996,-0.0012620163036996,0.0012620163036996,-0.0012620163036996,0.0012620163036996,-0.0012124110586402,0.0012124110586402,-0.0012124110586403,0.0012124110586402,0.80341117293193,0.76205462782228,1270536,32768,0.0051229788779953,0.0051229788779953,0.0051229788779952,24.019407071191,24.028279575084,0.00010735525656953,0.00010735525656953,0.00010735525656953,290676.99799242,0.015487823308802
29030400,0.99997403489282,0.01504638832042,0.0050154627734734,0.0050154627734734,0.0050154627734733,-0.0012327049347536,0.0012327049347536,2.3278700616381e-17,-1.4220153819356e-17,-8.4416538779745e-17,9.3600081758223e-17,-0.0012621286037607,0.0012621286037606,-0.0012621286037607,0.0012621286037606,-0.0012621286037606,0.0012621286037607,-0.0012621286037606,0.0012621286037607,-0.0012123645101853,0.0012123645101855,-0.0012123645101854,0.0012123645101854,9.4908865305195e-17,-8.2497479758622e-17,-1.1668761174415e-17,3.0763766070417e-17,-0.0012327049347535,0.0012327049347536,-0.0012621286037606,0.0012621286037606,-0.0012621286037606,0.0012621286037607,-0.0012621286037606,0.0012621286037606,-0.0012621286037606,0.0012621286037606,-0.0012123645101854,0.0012123645101854,-0.0012123645101854,0.0012123645101853,-0.0012123645101853,0.0012123645101855,-0.0012123645101854,0.0012123645101854,-2.1749335572728e-17,1.7205356741103e-17,-0.0012327049347535,0.0012327049347535,1.2823137673711e-17,-2.2043444234969e-17,-0.0012621286037606,0.0012621286037606,-0.0012621286037606,0.0012621286037606,-0.0012621286037606,0.0012621286037606,-0.0012621286037606,0.0012621286037606,-0.0012123645101853,0.0012123645101854,-0.0012123645101854,0.0012123645101854,0.77377140108902,0.64315694384157,1270536,32768,0.0051230893724895,0.0051230893724895,0.0051230893724895,24.156980298751,24.166025723274,0.00010845584239,0.00010845584239,0.00010845584239,296878.74919725,0.015488159476352
29116800,0.99997474602132,0.015046399987031,0.0050154666623438,0.0050154666623438,0.0050154666623438,-0.001232696331915,0.001232696331915,2.4403666249453e-17,-1.3264300667073e-17,-8.366656169103e-17,9.451181861117e-17,-0.0012622137476517,0.0012622137476517,-0.0012622137476517,0.0012622137476517,-0.0012622137476517,0.0012622137476517,-0.0012622137476517,0.0012622137476517,-0.0012122860623232,0.0012122860623233,-0.0012122860623232,0.0012122860623232,9.9239615356695e-17,-7.8254962305794e-17,-8.0659300619615e-18,3.4675411278223e-17,-0.001232696331915,0.001232696331915,-0.0012622137476516,0.0012622137476517,-0.0012622137476516,0.0012622137476517,-0.0012622137476517,0.0012622137476517,-0.0012622137476517,0.0012622137476517,-0.0012122860623232,0.0012122860623232,-0.0012122860623232,0.0012122860623232,-0.0012122860623231,0.0012122860623233,-0.0012122860623233,0.0012122860623232,-1.9157502986728e-17,1.9587636905256e-17,-0.001232696331915,0.001232696331915,1.482307657695e-17,-2.0175854229738e-17,-0.0012622137476517,0.0012622137476517,-0.0012622137476517,0.0012622137476517,-0.0012622137476517,0.0012622137476517,-0.0012622137476517,0.0012622137476517,-0.0012122860623232,0.0012122860623232,-0.0012122860623232,0.0012122860623232,0.74777132550941,0.57925683324607,1270536,32768,0.005123053795851,0.005123053795851,0.0051230537958509,24.294706057436,24.303771871464,0.00010955764845949,0.00010955764845949,0.00010955764845949,304602.95922769,0.015488050479477
29203200,0.99997544334933,0.015046411272194,0.0050154704240647,0.0050154704240646,0.0050154704240646,-0.0012327606188567,0.0012327606188567,2.5190406920948e-17,-1.2323152947901e-17,-8.2541596057958e-17,9.5335322865445e-17,-0.0012623388663603,0.0012623388663602,-0.0012623388663603,0.0012623388663602,-0.0012623388663602,0.0012623388663603,-0.0012623388663602,0.0012623388663603,-0.0012123153258168,0.0012123153258169,-0.0012123153258168,0.0012123153258168,9.4225062665485e-17,-8.3085697083104e-17,-1.2381974680349e-17,2.9293222759211e-17,-0.0012327606188567,0.0012327606188567,-0.0012623388663602,0.0012623388663603,-0.0012623388663602,0.0012623388663603,-0.0012623388663603,0.0012623388663603,-0.0012623388663603,0.0012623388663602,-0.0012123153258168,0.0012123153258168,-0.0012123153258168,0.0012123153258168,-0.0012123153258167,0.0012123153258169,-0.0012123153258169,0.0012123153258168,-2.5469810150077e-17,1.3573114762426e-17,-0.0012327606188567,0.0012327606188567,8.8820815996805e-18,-2.5043352589828e-17,-0.0012623388663603,0.0012623388663602,-0.0012623388663602,0.0012623388663602,-0.0012623388663602,0.0012623388663602,-0.0012623388663602,0.0012623388663603,-0.0012123153258168,0.0012123153258168,-0.0012123153258168,0.0012123153258168,0.73770404463224,0.60854115325235,1270536,32768,0.0051233204081498,0.0051233204081498,0.0051233204081498,24.432446626899,24.441518019654,0.00011065957301519,0.00011065957301519,0.00011065957301519,310599.65729569,0.015488862144619
29289600,0.99997612698025,0.015046421927791,0.0050154739759302,0.0050154739759302,0.0050154739759302,-0.0012330192377287,0.0012330192377287,2.7546952577155e-17,-9.8746983347442e-18,-8.0806354950736e-17,9.8320525787192e-17,-0.0012625845216689,0.0012625845216689,-0.001262584521669,0.0012625845216689,-0.0012625845216689,0.001262584521669,-0.0012625845216689,0.001262584521669,-0.0012126022834224,0.0012126022834226,-0.0012126022834225,0.0012126022834225,9.7004389523663e-17,-8.1548979322895e-17,-9.7423494367357e-18,3.1778440955148e-17,-0.0012330192377287,0.0012330192377287,-0.0012625845216688,0.0012625845216689,-0.0012625845216688,0.0012625845216689,-0.0012625845216689,0.0012625845216689,-0.0012625845216689,0.0012625845216689,-0.0012126022834225,0.0012126022834225,-0.0012126022834225,0.0012126022834225,-0.0012126022834224,0.0012126022834226,-0.0012126022834226,0.0012126022834225,-2.2381669196546e-17,1.6558317684173e-17,-0.0012330192377287,0.0012330192377287,1.1249656330721e-17,-2.2499312661442e-17,-0.0012625845216689,0.0012625845216689,-0.0012625845216689,0.0012625845216689,-0.0012625845216689,0.0012625845216689,-0.0012625845216689,0.0012625845216689,-0.0012126022834225,0.0012126022834225,-0.0012126022834225,0.0012126022834225,0.7105451996479,0.51172604602813,1270536,32768,0.0051243925879225,0.0051243925879225,0.0051243925879225,24.570188658927,24.579264167844,0.00011176150927141,0.00011176150927141,0.00011176150927141,310963.11049019,0.015492128283656
29376000,0.99997679702078,0.015046432007397,0.005015477335799,0.0050154773357989,0.0050154773357989,-0.0012330622461969,0.0012330622461969,2.1161118248245e-17,-1.6389205203384e-17,-8.6504710281657e-17,9.2026600415233e-17,-0.0012626871389539,0.0012626871389539,-0.001262687138954,0.0012626871389539,-0.0012626871389539,0.0012626871389539,-0.0012626871389539,0.0012626871389539,-0.0012125991159403,0.0012125991159405,-0.0012125991159404,0.0012125991159404,9.7710250313042e-17,-8.0166668610361e-17,-8.7203218354479e-18,3.2601945209423e-17,-0.0012330622461968,0.0012330622461969,-0.0012626871389538,0.0012626871389539,-0.0012626871389538,0.0012626871389539,-0.0012626871389539,0.0012626871389539,-0.0012626871389539,0.0012626871389539,-0.0012125991159404,0.0012125991159404,-0.0012125991159404,0.0012125991159404,-0.0012125991159403,0.0012125991159405,-0.0012125991159405,0.0012125991159404,-2.3366933215054e-17,1.5514231933217e-17,-0.0012330622461968,0.0012330622461968,9.9996945161966e-18,-2.341104951439e-17,-0.0012626871389539,0.0012626871389539,-0.0012626871389539,0.0012626871389538,-0.0012626871389539,0.0012626871389539,-0.0012626871389539,0.0012626871389539,-0.0012125991159404,0.0012125991159404,-0.0012125991159404,0.0012125991159404,0.68576663291713,0.4603940011284,1270536,32768,0.005124570968587,0.0051245709685869,0.0051245709685869,24.707930835723,24.717010316034,0.00011286344668578,0.00011286344668578,0.00011286344668578,318027.6445232,0.015492671132275
29462400,0.99997745358092,0.015046441305724,0.0050154804352413,0.0050154804352412,0.0050154804352412,-0.0012331620693828,0.0012331620693828,2.0510402833037e-17,-1.6639197566289e-17,-8.8092897057758e-17,9.1350150492078e-17,-0.0012628240543271,0.0012628240543271,-0.0012628240543271,0.001262824054327,-0.0012628240543271,0.0012628240543271,-0.0012628240543271,0.0012628240543271,-0.0012126775096927,0.0012126775096928,-0.0012126775096927,0.0012126775096927,9.6217648852168e-17,-8.2423952593062e-17,-1.0404093926778e-17,3.0513773707512e-17,-0.0012331620693828,0.0012331620693828,-0.001262824054327,0.0012628240543271,-0.001262824054327,0.0012628240543271,-0.0012628240543271,0.0012628240543271,-0.0012628240543271,0.0012628240543271,-0.0012126775096927,0.0012126775096927,-0.0012126775096927,0.0012126775096927,-0.0012126775096926,0.0012126775096928,-0.0012126775096928,0.0012126775096927,-2.2003004293911e-17,1.6749488314629e-17,-0.0012331620693828,0.0012331620693828,1.1279067196945e-17,-2.1778746438952e-17,-0.0012628240543271,0.0012628240543271,-0.0012628240543271,0.001262824054327,-0.001262824054327,0.0012628240543271,-0.0012628240543271,0.0012628240543271,-0.0012126775096927,0.0012126775096927,-0.0012126775096928,0.0012126775096927,0.64564112903629,0.32867198137889,1270536,32768,0.0051249848918946,0.0051249848918945,0.0051249848918945,24.845673026501,24.854756464224,0.00011396538421201,0.00011396538421201,0.00011396538421201,323763.46732632,0.015493931607996
29548800,0.99997809677385,0.015046450038156,0.0050154833460519,0.0050154833460519,0.0050154833460519,-0.0012330687835744,0.0012330687835744,2.298459195414e-17,-1.4205448386244e-17,-8.5519446263149e-17,9.4144182783369e-17,-0.0012628300220605,0.0012628300220605,-0.0012628300220606,0.0012628300220604,-0.0012628300220605,0.0012628300220605,-0.0012628300220605,0.0012628300220605,-0.0012125067800559,0.0012125067800561,-0.001212506780056,0.001212506780056,9.5850013024367e-17,-8.3438627477793e-17,-1.149229597707e-17,3.007261071415e-17,-0.0012330687835743,0.0012330687835744,-0.0012628300220604,0.0012628300220605,-0.0012628300220604,0.0012628300220605,-0.0012628300220605,0.0012628300220605,-0.0012628300220605,0.0012628300220605,-0.001212506780056,0.001212506780056,-0.001212506780056,0.0012125067800559,-0.0012125067800559,0.0012125067800561,-0.001212506780056,0.001212506780056,-1.980086568538e-17,1.8955303281437e-17,-0.0012330687835744,0.0012330687835744,1.3896634290891e-17,-2.011703249729e-17,-0.0012628300220605,0.0012628300220605,-0.0012628300220605,0.0012628300220605,-0.0012628300220605,0.0012628300220605,-0.0012628300220605,0.0012628300220605,-0.0012125067800559,0.001212506780056,-0.001212506780056,0.001212506780056,0.61899081571073,0.31012996753392,1270536,32768,0.0051245983325139,0.0051245983325139,0.0051245983325138,24.983415218257,24.992502612414,0.00011506732174605,0.00011506732174605,0.00011506732174605,335974.5087548,0.015492753045769
29635200,0.99997872619599,0.015046458515974,0.0050154861719912,0.0050154861719912,0.0050154861719912,-0.0012331766724613,0.0012331766724613,2.2547105319057e-17,-1.467602224583e-17,-8.5534151696261e-17,9.3688314356895e-17,-0.001262954153763,0.0012629541537629,-0.001262954153763,0.0012629541537629,-0.001262954153763,0.001262954153763,-0.001262954153763,0.001262954153763,-0.0012126180378093,0.0012126180378095,-0.0012126180378094,0.0012126180378094,9.7467610666693e-17,-8.1247517944097e-17,-9.4261826248265e-18,3.1749030088924e-17,-0.0012331766724612,0.0012331766724613,-0.0012629541537629,0.001262954153763,-0.0012629541537629,0.001262954153763,-0.001262954153763,0.0012629541537629,-0.001262954153763,0.0012629541537629,-0.0012126180378094,0.0012126180378094,-0.0012126180378094,0.0012126180378093,-0.0012126180378093,0.0012126180378095,-0.0012126180378094,0.0012126180378094,-2.39110342402e-17,1.5028952640519e-17,-0.0012331766724612,0.0012331766724612,1.0029105382421e-17,-2.3719863609743e-17,-0.001262954153763,0.0012629541537629,-0.0012629541537629,0.0012629541537629,-0.0012629541537629,0.0012629541537629,-0.0012629541537629,0.001262954153763,-0.0012126180378093,0.0012126180378094,-0.0012126180378094,0.0012126180378094,0.61419131078074,0.39400691979345,1270536,32768,0.0051250457360127,0.0051250457360127,0.0051250457360127,25.107150056701,25.115347682611,0.0001160572004536,0.0001160572004536,0.0001160572004536,341616.91960289,0.015494115488081
29721600,0.99997934148191,0.015046466868421,0.0050154889561404,0.0050154889561404,0.0050154889561403,-0.0012335474265753,0.0012335474265753,2.6826386354664e-17,-1.0301155894994e-17,-8.1622506488455e-17,9.780583562827e-17,-0.0012632406703614,0.0012632406703614,-0.0012632406703614,0.0012632406703613,-0.0012632406703614,0.0012632406703614,-0.0012632406703614,0.0012632406703614,-0.0012130726661447,0.0012130726661449,-0.0012130726661448,0.0012130726661448,9.6423524915737e-17,-8.2468068892398e-17,-1.0337919477774e-17,3.0704944337968e-17,-0.0012335474265753,0.0012335474265753,-0.0012632406703613,0.0012632406703614,-0.0012632406703613,0.0012632406703614,-0.0012632406703614,0.0012632406703614,-0.0012632406703614,0.0012632406703613,-0.0012130726661448,0.0012130726661447,-0.0012130726661448,0.0012130726661447,-0.0012130726661447,0.0012130726661448,-0.0012130726661448,0.0012130726661448,-1.9940567299945e-17,1.8867070682765e-17,-0.0012335474265753,0.0012335474265753,1.310254090284e-17,-2.0425846592643e-17,-0.0012632406703614,0.0012632406703614,-0.0012632406703614,0.0012632406703613,-0.0012632406703613,0.0012632406703614,-0.0012632406703613,0.0012632406703614,-0.0012130726661447,0.0012130726661448,-0.0012130726661448,0.0012130726661448,0.61906311988498,0.47788387205299,1270536,32768,0.0051265827520756,0.0051265827520756,0.0051265827520756,25.21645850235,25.223709074396,0.0001169316680188,0.0001169316680188,0.0001169316680188,338050.87937379,0.015498798017996
29808000,0.99997994279988,0.015046475186363,0.0050154917287877,0.0050154917287876,0.0050154917287876,-0.0012339680294357,0.0012339680294357,2.3620601936236e-17,-1.3381944131969e-17,-8.4637120276426e-17,9.4247120815153e-17,-0.001263563581278,0.001263563581278,-0.001263563581278,0.001263563581278,-0.001263563581278,0.001263563581278,-0.001263563581278,0.001263563581278,-0.0012135729090557,0.0012135729090559,-0.0012135729090558,0.0012135729090558,9.7261734603124e-17,-8.0968114714968e-17,-9.1173685294734e-18,3.2499007177639e-17,-0.0012339680294357,0.0012339680294357,-0.0012635635812779,0.001263563581278,-0.0012635635812779,0.001263563581278,-0.001263563581278,0.001263563581278,-0.001263563581278,0.001263563581278,-0.0012135729090558,0.0012135729090558,-0.0012135729090558,0.0012135729090557,-0.0012135729090557,0.0012135729090559,-0.0012135729090558,0.0012135729090558,-2.233755289721e-17,1.6146565557035e-17,-0.0012339680294357,0.0012339680294357,1.1220245464497e-17,-2.3205173450821e-17,-0.001263563581278,0.001263563581278,-0.001263563581278,0.001263563581278,-0.001263563581278,0.001263563581278,-0.001263563581278,0.001263563581278,-0.0012135729090557,0.0012135729090558,-0.0012135729090558,0.0012135729090558,0.63081223847069,0.56176082431252,1270536,32768,0.0051283263278601,0.0051283263278601,0.0051283263278601,25.324904416029,25.332070466182,0.00011779923532823,0.00011779923532823,0.00011779923532823,332519.48212526,0.015504110074901
29894400,0.99998053034871,0.015046483534816,0.0050154945116054,0.0050154945116054,0.0050154945116054,-0.0012344057264183,0.0012344057264183,2.688888444539e-17,-1.0146748847317e-17,-8.1585742905675e-17,9.7644075864037e-17,-0.0012639053970497,0.0012639053970497,-0.0012639053970497,0.0012639053970496,-0.0012639053970497,0.0012639053970497,-0.0012639053970497,0.0012639053970497,-0.0012140796306129,0.0012140796306131,-0.001214079630613,0.001214079630613,9.9166088191135e-17,-7.9821090932228e-17,-7.9776974632892e-18,3.3851907023948e-17,-0.0012344057264182,0.0012344057264183,-0.0012639053970496,0.0012639053970497,-0.0012639053970496,0.0012639053970497,-0.0012639053970497,0.0012639053970497,-0.0012639053970497,0.0012639053970496,-0.001214079630613,0.0012140796306129,-0.001214079630613,0.0012140796306129,-0.0012140796306129,0.001214079630613,-0.001214079630613,0.001214079630613,-1.9841305626439e-17,1.8837659816541e-17,-0.0012344057264182,0.0012344057264182,1.3514293029977e-17,-2.0572900923763e-17,-0.0012639053970497,0.0012639053970497,-0.0012639053970497,0.0012639053970496,-0.0012639053970496,0.0012639053970497,-0.0012639053970496,0.0012639053970497,-0.0012140796306129,0.001214079630613,-0.001214079630613,0.001214079630613,0.64793409226779,0.64563777657206,1270536,32768,0.0051301407056213,0.0051301407056213,0.0051301407056213,25.433271847466,25.440431857967,0.00011866617477973,0.00011866617477973,0.00011866617477973,326099.75708351,0.015509637997264
29980800,0.99998110432999,0.015046492064194,0.0050154973547314,0.0050154973547313,0.0050154973547313,-0.0012348460535478,0.0012348460535478,2.3469871246838e-17,-1.3418707714749e-17,-8.4453302362525e-17,9.4247120815153e-17,-0.0012642572273575,0.0012642572273574,-0.0012642572273575,0.0012642572273574,-0.0012642572273574,0.0012642572273575,-0.0012642572273574,0.0012642572273575,-0.001214578206776,0.0012145782067761,-0.001214578206776,0.0012145782067761,9.9621956617609e-17,-7.8372605770691e-17,-8.0879882116296e-18,3.3837201590836e-17,-0.0012348460535477,0.0012348460535478,-0.0012642572273574,0.0012642572273574,-0.0012642572273574,0.0012642572273575,-0.0012642572273574,0.0012642572273574,-0.0012642572273574,0.0012642572273574,-0.001214578206776,0.001214578206776,-0.001214578206776,0.001214578206776,-0.0012145782067759,0.0012145782067761,-0.0012145782067761,0.001214578206776,-2.0973623976067e-17,1.7514170836456e-17,-0.0012348460535478,0.0012348460535478,1.3043719170392e-17,-2.0719955254884e-17,-0.0012642572273574,0.0012642572273574,-0.0012642572273574,0.0012642572273574,-0.0012642572273574,0.0012642572273574,-0.0012642572273574,0.0012642572273574,-0.001214578206776,0.001214578206776,-0.001214578206776,0.001214578206776,0.67759160301473,0.77423136867587,1270536,32768,0.0051319659434506,0.0051319659434506,0.0051319659434506,25.54163163137,25.548793249753,0.00011953305305096,0.00011953305305096,0.00011953305305096,319255.00480857,0.015515199125235
30067200,0.99998166494559,0.015046500396955,0.0050155001323183,0.0050155001323182,0.0050155001323182,-0.0012353615904142,0.0012353615904142,1.7944304754984e-17,-1.8867070682765e-17,-9.0092835960998e-17,8.9114924659046e-17,-0.0012646672761716,0.0012646672761715,-0.0012646672761716,0.0012646672761715,-0.0012646672761715,0.0012646672761716,-0.0012646672761715,0.0012646672761716,-0.0012151653066644,0.0012151653066645,-0.0012151653066645,0.0012151653066645,9.3923601286688e-17,-8.4534182244641e-17,-1.1720230190307e-17,2.8057966377799e-17,-0.0012353615904142,0.0012353615904142,-0.0012646672761715,0.0012646672761715,-0.0012646672761715,0.0012646672761716,-0.0012646672761715,0.0012646672761715,-0.0012646672761715,0.0012646672761715,-0.0012151653066645,0.0012151653066644,-0.0012151653066644,0.0012151653066644,-0.0012151653066644,0.0012151653066645,-0.0012151653066645,0.0012151653066644,-2.4896298258707e-17,1.3543703896202e-17,-0.0012353615904142,0.0012353615904142,7.8674067149488e-18,-2.4308080934225e-17,-0.0012646672761715,0.0012646672761715,-0.0012646672761715,0.0012646672761715,-0.0012646672761715,0.0012646672761715,-0.0012646672761715,0.0012646672761715,-0.0012151653066644,0.0012151653066644,-0.0012151653066645,0.0012151653066644,0.67769726714323,0.70027482735307,1270536,32768,0.0051341029067162,0.0051341029067161,0.0051341029067161,25.649990657165,25.657154641538,0.00012039992525732,0.00012039992525732,0.00012039992525732,309662.44697179,0.015521710195859
30153600,0.99998221239736,0.015046508223034,0.0050155027410113,0.0050155027410112,0.0050155027410112,-0.0012355276129169,0.0012355276129169,2.2940475654804e-17,-1.3948103306783e-17,-8.4990050671115e-17,9.4026539318472e-17,-0.0012648520426165,0.0012648520426165,-0.0012648520426166,0.0012648520426165,-0.0012648520426165,0.0012648520426166,-0.0012648520426165,0.0012648520426166,-0.0012152909672965,0.0012152909672967,-0.0012152909672966,0.0012152909672966,9.3850074121128e-17,-8.4445949645969e-17,-1.1948164403544e-17,2.8205020708919e-17,-0.0012355276129169,0.0012355276129169,-0.0012648520426165,0.0012648520426165,-0.0012648520426164,0.0012648520426166,-0.0012648520426165,0.0012648520426165,-0.0012648520426165,0.0012648520426165,-0.0012152909672966,0.0012152909672966,-0.0012152909672966,0.0012152909672966,-0.0012152909672965,0.0012152909672967,-0.0012152909672967,0.0012152909672966,-1.9639105921148e-17,1.8793543517205e-17,-0.0012355276129169,0.0012355276129169,1.3117246335952e-17,-1.9278822809903e-17,-0.0012648520426165,0.0012648520426165,-0.0012648520426165,0.0012648520426165,-0.0012648520426165,0.0012648520426165,-0.0012648520426165,0.0012648520426165,-0.0012152909672966,0.0012152909672966,-0.0012152909672966,0.0012152909672966,0.65169924294768,0.53603222639823,1270536,32768,0.0051347910295474,0.0051347910295474,0.0051347910295474,25.758349607265,25.765516033324,0.00012126679685812,0.00012126679685812,0.00012126679685812,310816.75899919,0.015523806684021
30240000,0.99998274688704,0.015046515660077,0.0050155052200257,0.0050155052200257,0.0050155052200256,-0.0012354426238617,0.0012354426238617,2.1554488583993e-17,-1.5308355869648e-17,-8.6217954335972e-17,9.2129538447017e-17,-0.0012648731031035,0.0012648731031034,-0.0012648731031035,0.0012648731031034,-0.0012648731031034,0.0012648731031035,-0.0012648731031034,0.0012648731031035,-0.0012151034499949,0.0012151034499951,-0.001215103449995,0.001215103449995,9.7261734603124e-17,-8.040930825671e-17,-8.4850349056551e-18,3.2072549617389e-17,-0.0012354426238616,0.0012354426238617,-0.0012648731031034,0.0012648731031034,-0.0012648731031034,0.0012648731031035,-0.0012648731031034,0.0012648731031034,-0.0012648731031034,0.0012648731031034,-0.001215103449995,0.001215103449995,-0.001215103449995,0.001215103449995,-0.0012151034499949,0.0012151034499951,-0.0012151034499951,0.001215103449995,-1.6120831049089e-17,2.2322847464098e-17,-0.0012354426238616,0.0012354426238616,1.6881837212638e-17,-1.6205387289483e-17,-0.0012648731031034,0.0012648731031034,-0.0012648731031034,0.0012648731031034,-0.0012648731031034,0.0012648731031034,-0.0012648731031034,0.0012648731031034,-0.001215103449995,0.001215103449995,-0.001215103449995,0.001215103449995,0.63431666745143,0.49251518427337,1270536,32768,0.0051344387130326,0.0051344387130326,0.0051344387130326,25.866708549614,25.873877425109,0.00012213366839691,0.00012213366839691,0.00012213366839691,320140.72747393,0.015522732836782
30326400,0.99998326861614,0.015046522714041,0.005015507571347,0.005015507571347,0.005015507571347,-0.0012355130156846,0.0012355130156846,2.285591941441e-17,-1.3823107125331e-17,-8.4578298543978e-17,9.3497143726438e-17,-0.0012649931555132,0.0012649931555132,-0.0012649931555133,0.0012649931555132,-0.0012649931555132,0.0012649931555133,-0.0012649931555132,0.0012649931555133,-0.0012151399996087,0.0012151399996088,-0.0012151399996087,0.0012151399996088,9.7136738421672e-17,-8.0144610460693e-17,-8.8012017175642e-18,3.2204898515398e-17,-0.0012355130156846,0.0012355130156846,-0.0012649931555131,0.0012649931555132,-0.0012649931555131,0.0012649931555133,-0.0012649931555132,0.0012649931555132,-0.0012649931555132,0.0012649931555132,-0.0012151399996088,0.0012151399996087,-0.0012151399996088,0.0012151399996087,-0.0012151399996086,0.0012151399996088,-0.0012151399996088,0.0012151399996087,-1.9517786097973e-17,1.9058241313222e-17,-0.0012355130156846,0.0012355130156846,1.3778990825994e-17,-1.9381760841687e-17,-0.0012649931555132,0.0012649931555132,-0.0012649931555132,0.0012649931555132,-0.0012649931555132,0.0012649931555132,-0.0012649931555132,0.0012649931555132,-0.0012151399996087,0.0012151399996087,-0.0012151399996088,0.0012151399996087,0.61641574405791,0.4489981421485,1270536,32768,0.0051347305638476,0.0051347305638476,0.0051347305638476,25.975067490987,25.982238816895,0.0001230005399279,0.0001230005399279,0.0001230005399279,324982.94147692,0.015523621658553
30412800,0.99998377871984,0.01504652934602,0.0050155097820068,0.0050155097820068,0.0050155097820068,-0.0012356530955761,0.0012356530955761,2.2455196362106e-17,-1.4403971733257e-17,-8.477682189099e-17,9.3188329631085e-17,-0.0012651733922534,0.0012651733922533,-0.0012651733922534,0.0012651733922533,-0.0012651733922533,0.0012651733922534,-0.0012651733922533,0.0012651733922534,-0.0012152549718213,0.0012152549718214,-0.0012152549718213,0.0012152549718213,9.7747013895822e-17,-7.9659331167996e-17,-8.4923876222111e-18,3.2543123476975e-17,-0.0012356530955761,0.0012356530955761,-0.0012651733922533,0.0012651733922533,-0.0012651733922533,0.0012651733922534,-0.0012651733922533,0.0012651733922533,-0.0012651733922533,0.0012651733922533,-0.0012152549718214,0.0012152549718213,-0.0012152549718213,0.0012152549718213,-0.0012152549718212,0.0012152549718214,-0.0012152549718214,0.0012152549718213,-1.9830276551605e-17,1.85435511543e-17,-0.0012356530955761,0.0012356530955761,1.3190773501512e-17,-2.0219970529074e-17,-0.0012651733922533,0.0012651733922533,-0.0012651733922533,0.0012651733922533,-0.0012651733922533,0.0012651733922533,-0.0012651733922533,0.0012651733922533,-0.0012152549718213,0.0012152549718213,-0.0012152549718213,0.0012152549718213,0.59277920883694,0.37972806822775,1270536,32768,0.0051353113068504,0.0051353113068504,0.0051353113068504,26.114776621016,26.123956640151,0.00012411821296813,0.00012411821296813,0.00012411821296813,329733.7334856,0.015525390586889
30499200,0.99998427819183,0.015046535933591,0.0050155119778637,0.0050155119778636,0.0050155119778636,-0.001235790964086,0.001235790964086,2.4164702961382e-17,-1.2793726807487e-17,-8.2850410153311e-17,9.4850043572747e-17,-0.0012653670947229,0.0012653670947229,-0.001265367094723,0.0012653670947229,-0.0012653670947229,0.001265367094723,-0.0012653670947229,0.0012653670947229,-0.0012153534309882,0.0012153534309884,-0.0012153534309883,0.0012153534309883,9.730585090246e-17,-7.9843149081896e-17,-8.6909109692238e-18,3.2587239776311e-17,-0.001235790964086,0.001235790964086,-0.0012653670947228,0.0012653670947229,-0.0012653670947228,0.0012653670947229,-0.0012653670947229,0.0012653670947229,-0.0012653670947229,0.0012653670947229,-0.0012153534309883,0.0012153534309883,-0.0012153534309883,0.0012153534309883,-0.0012153534309882,0.0012153534309884,-0.0012153534309883,0.0012153534309883,-1.8984714147662e-17,1.9220001077454e-17,-0.001235790964086,0.001235790964086,1.424956468558e-17,-1.9381760841687e-17,-0.0012653670947229,0.0012653670947229,-0.0012653670947229,0.0012653670947229,-0.0012653670947229,0.0012653670947229,-0.0012653670947229,0.0012653670947229,-0.0012153534309882,0.0012153534309883,-0.0012153534309883,0.0012153534309883,0.60139741391562,0.50541939280744,1270536,32768,0.0051358828991922,0.0051358828991922,0.0051358828991921,26.284248662455,26.295405041993,0.00012547398929964,0.00012547398929964,0.00012547398929964,336706.55470585,0.015527131497496
30585600,0.99998476714482,0.01504654243489,0.0050155141449634,0.0050155141449634,0.0050155141449633,-0.0012363601458909,0.001236360145891,2.7105789583793e-17,-9.6835277042874e-18,-8.0666653336171e-17,9.7188207437564e-17,-0.0012658466326639,0.0012658466326639,-0.001265846632664,0.0012658466326639,-0.0012658466326639,0.001265846632664,-0.0012658466326639,0.001265846632664,-0.0012160136050989,0.0012160136050991,-0.001216013605099,0.001216013605099,9.8592576299765e-17,-7.8446132936251e-17,-7.6688833679361e-18,3.3601914661043e-17,-0.0012363601458909,0.001236360145891,-0.0012658466326639,0.0012658466326639,-0.0012658466326638,0.001265846632664,-0.0012658466326639,0.0012658466326639,-0.0012658466326639,0.0012658466326639,-0.001216013605099,0.001216013605099,-0.001216013605099,0.001216013605099,-0.0012160136050989,0.0012160136050991,-0.001216013605099,0.001216013605099,-1.7286236623219e-17,2.1014063917125e-17,-0.0012363601458909,0.0012363601458909,1.5925984060354e-17,-1.7646519734465e-17,-0.0012658466326639,0.0012658466326639,-0.0012658466326639,0.0012658466326639,-0.0012658466326639,0.0012658466326639,-0.0012658466326639,0.0012658466326639,-0.0012160136050989,0.001216013605099,-0.001216013605099,0.001216013605099,0.60634647760198,0.54258644128895,1270536,32768,0.0051382423812037,0.0051382423812037,0.0051382423812037,26.455509833655,26.466853443834,0.00012684407866924,0.00012684407866924,0.00012684407866924,329868.40725923,0.015534320198389
30672000,0.99998524564524,0.015046548863711,0.0050155162879039,0.0050155162879038,0.0050155162879038,-0.0012368070683894,0.0012368070683894,2.2705188725011e-17,-1.4087804921348e-17,-8.4497418661861e-17,9.2761872070836e-17,-0.0012662468910616,0.0012662468910616,-0.0012662468910616,0.0012662468910615,-0.0012662468910616,0.0012662468910616,-0.0012662468910616,0.0012662468910616,-0.0012164955552035,0.0012164955552037,-0.0012164955552036,0.0012164955552036,9.9394022404372e-17,-7.7174112972059e-17,-6.8012628143249e-18,3.5101868838473e-17,-0.0012368070683894,0.0012368070683894,-0.0012662468910615,0.0012662468910616,-0.0012662468910615,0.0012662468910616,-0.0012662468910616,0.0012662468910616,-0.0012662468910616,0.0012662468910615,-0.0012164955552036,0.0012164955552036,-0.0012164955552036,0.0012164955552036,-0.0012164955552035,0.0012164955552037,-0.0012164955552036,0.0012164955552036,-1.7462701820564e-17,2.0852304152892e-17,-0.0012368070683894,0.0012368070683894,1.5808340595458e-17,-1.8837659816541e-17,-0.0012662468910616,0.0012662468910616,-0.0012662468910615,0.0012662468910615,-0.0012662468910615,0.0012662468910616,-0.0012662468910615,0.0012662468910616,-0.0012164955552035,0.0012164955552036,-0.0012164955552036,0.0012164955552036,0.61264046277886,0.5766538423242,1270536,32768,0.0051400949927596,0.0051400949927596,0.0051400949927596,26.62693436394,26.638301845676,0.00012821547491152,0.00012821547491152,0.00012821547491152,326685.98170918,0.015539964595607
30758400,0.99998571375928,0.015046555274502,0.005015518424834,0.005015518424834,0.005015518424834,-0.0012372443481562,0.0012372443481562,2.2653719709119e-17,-1.4484851615373e-17,-8.4188604566508e-17,9.2732461204612e-17,-0.0012666451425522,0.0012666451425521,-0.0012666451425522,0.0012666451425521,-0.0012666451425522,0.0012666451425522,-0.0012666451425522,0.0012666451425522,-0.0012169587225639,0.001216958722564,-0.0012169587225639,0.0012169587225639,9.8555812716985e-17,-7.7799093879321e-17,-7.4335964381432e-18,3.5278334035817e-17,-0.0012372443481561,0.0012372443481562,-0.0012666451425521,0.0012666451425522,-0.0012666451425521,0.0012666451425522,-0.0012666451425522,0.0012666451425522,-0.0012666451425522,0.0012666451425521,-0.0012169587225639,0.0012169587225639,-0.0012169587225639,0.0012169587225639,-0.0012169587225638,0.001216958722564,-0.001216958722564,0.0012169587225639,-2.0844951436336e-17,1.7587698002016e-17,-0.0012372443481561,0.0012372443481561,1.3014308304168e-17,-2.1955211636296e-17,-0.0012666451425522,0.0012666451425521,-0.0012666451425521,0.0012666451425521,-0.0012666451425521,0.0012666451425521,-0.0012666451425521,0.0012666451425522,-0.0012169587225639,0.0012169587225639,-0.0012169587225639,0.0012169587225639,0.6244603007101,0.6323730657908,1270536,32768,0.005141907612849,0.005141907612849,0.005141907612849,26.79837486322,26.809750247518,0.00012958699890576,0.00012958699890576,0.00012958699890576,323655.40316874,0.015545487203778
30844800,0.99998617155689,0.0150465617943,0.0050155205981,0.0050155205981,0.0050155205981,-0.0012377210425801,0.0012377210425801,2.3451489455448e-17,-1.3433413147861e-17,-8.290923188576e-17,9.4364764280049e-17,-0.0012670734194607,0.0012670734194606,-0.0012670734194607,0.0012670734194606,-0.0012670734194606,0.0012670734194607,-0.0012670734194606,0.0012670734194607,-0.0012174690051182,0.0012174690051184,-0.0012174690051183,0.0012174690051183,9.8739630630886e-17,-7.7990264509778e-17,-7.9703447467332e-18,3.5160690570921e-17,-0.00123772104258,0.0012377210425801,-0.0012670734194606,0.0012670734194606,-0.0012670734194606,0.0012670734194607,-0.0012670734194606,0.0012670734194607,-0.0012670734194606,0.0012670734194606,-0.0012174690051183,0.0012174690051183,-0.0012174690051183,0.0012174690051183,-0.0012174690051182,0.0012174690051184,-0.0012174690051184,0.0012174690051183,-2.1094943799241e-17,1.7190651307991e-17,-0.00123772104258,0.00123772104258,1.2764315941263e-17,-2.2719894158123e-17,-0.0012670734194606,0.0012670734194606,-0.0012670734194606,0.0012670734194606,-0.0012670734194606,0.0012670734194606,-0.0012670734194606,0.0012670734194606,-0.0012174690051182,0.0012174690051183,-0.0012174690051183,0.0012174690051183,0.64937996091711,0.74307751585792,1270536,32768,0.0051438835975665,0.0051438835975665,0.0051438835975664,26.969816949615,26.98119864936,0.00013095853559692,0.00013095853559692,0.00013095853559692,319159.68013815,0.015551507665066
30931200,0.99998661911208,0.015046568330273,0.0050155227767577,0.0050155227767576,0.0050155227767576,-0.0012382995843487,0.0012382995843487,3.0219665045271e-17,-6.838026397105e-18,-7.6710891829029e-17,9.995282886263e-17,-0.0012675734853063,0.0012675734853063,-0.0012675734853063,0.0012675734853063,-0.0012675734853063,0.0012675734853063,-0.0012675734853063,0.0012675734853063,-0.0012181057483593,0.0012181057483594,-0.0012181057483593,0.0012181057483593,9.6857335192543e-17,-7.9291695340194e-17,-9.4188299082705e-18,3.336662773125e-17,-0.0012382995843487,0.0012382995843487,-0.0012675734853062,0.0012675734853063,-0.0012675734853062,0.0012675734853063,-0.0012675734853063,0.0012675734853063,-0.0012675734853063,0.0012675734853063,-0.0012181057483594,0.0012181057483593,-0.0012181057483593,0.0012181057483593,-0.0012181057483592,0.0012181057483594,-0.0012181057483594,0.0012181057483593,-1.8411202256291e-17,2.019055966285e-17,-0.0012382995843487,0.0012382995843487,1.5646580831225e-17,-1.9278822809903e-17,-0.0012675734853063,0.0012675734853063,-0.0012675734853063,0.0012675734853063,-0.0012675734853063,0.0012675734853063,-0.0012675734853063,0.0012675734853063,-0.0012181057483593,0.0012181057483593,-0.0012181057483593,0.0012181057483593,0.66586107957466,0.77014088914354,1270536,32768,0.005146281730664,0.005146281730664,0.005146281730664,27.141259193818,27.152647051201,0.00013233007355054,0.00013233007355054,0.00013233007355054,311100.7620418,0.015558814555593
31017600,0.99998705650288,0.015046574848522,0.0050155249495075,0.0050155249495074,0.0050155249495074,-0.0012387455060856,0.0012387455060856,2.5028647156716e-17,-1.2073160584996e-17,-8.1791618969243e-17,9.5173563101212e-17,-0.0012679901400655,0.0012679901400655,-0.0012679901400655,0.0012679901400654,-0.0012679901400655,0.0012679901400655,-0.0012679901400655,0.0012679901400655,-0.0012185617137067,0.0012185617137068,-0.0012185617137067,0.0012185617137067,1.0160719008774e-16,-7.4887418123134e-17,-4.5292733985126e-18,3.8469413021133e-17,-0.0012387455060855,0.0012387455060856,-0.0012679901400654,0.0012679901400655,-0.0012679901400654,0.0012679901400655,-0.0012679901400655,0.0012679901400655,-0.0012679901400655,0.0012679901400655,-0.0012185617137067,0.0012185617137067,-0.0012185617137067,0.0012185617137067,-0.0012185617137066,0.0012185617137068,-0.0012185617137068,0.0012185617137067,-1.7852395798033e-17,2.0793482420444e-17,-0.0012387455060855,0.0012387455060855,1.6499495951724e-17,-1.8881776115877e-17,-0.0012679901400655,0.0012679901400655,-0.0012679901400655,0.0012679901400655,-0.0012679901400655,0.0012679901400655,-0.0012679901400655,0.0012679901400655,-0.0012185617137067,0.0012185617137067,-0.0012185617137067,0.0012185617137067,0.67943120198614,0.78770223647543,1270536,32768,0.0051481300960926,0.0051481300960925,0.0051481300960925,27.312701453019,27.324095453043,0.00013370161162415,0.00013370161162415,0.00013370161162415,307008.29107183,0.015564446328553
31104000,0.99998748514599,0.015046581452978,0.0050155271509927,0.0050155271509927,0.0050155271509927,-0.0012392572815436,0.0012392572815436,2.2657396067397e-17,-1.4558378780933e-17,-8.4144488267172e-17,9.2541290574155e-17,-0.0012684880062725,0.0012684880062725,-0.0012684880062726,0.0012684880062725,-0.0012684880062725,0.0012684880062726,-0.0012684880062725,0.0012684880062725,-0.001219074299318,0.0012190742993181,-0.001219074299318,0.001219074299318,1.0273215572081e-16,-7.3328642213256e-17,-4.5292733985126e-18,3.888116514827e-17,-0.0012392572815436,0.0012392572815436,-0.0012684880062724,0.0012684880062725,-0.0012684880062724,0.0012684880062725,-0.0012684880062725,0.0012684880062725,-0.0012684880062725,0.0012684880062725,-0.001219074299318,0.001219074299318,-0.001219074299318,0.001219074299318,-0.0012190742993179,0.0012190742993181,-0.0012190742993181,0.001219074299318,-2.0179530588016e-17,1.8602372886748e-17,-0.0012392572815436,0.0012392572815436,1.4367208150477e-17,-2.1278761713142e-17,-0.0012684880062725,0.0012684880062725,-0.0012684880062725,0.0012684880062724,-0.0012684880062724,0.0012684880062725,-0.0012684880062724,0.0012684880062725,-0.001219074299318,0.001219074299318,-0.001219074299318,0.001219074299318,0.70243979068786,0.86308056669197,1270536,32768,0.0051502514570497,0.0051502514570496,0.0051502514570496,27.538148337956,27.553020126672,0.00013550518670365,0.00013550518670365,0.00013550518670365,303952.84559424,0.01557090977186
31190400,0.99998790547616,0.01504658815933,0.0050155293864434,0.0050155293864434,0.0050155293864433,-0.0012398849515519,0.0012398849515519,2.4263964634889e-17,-1.2845195823379e-17,-8.2306309128165e-17,9.4291237114489e-17,-0.0012690775684809,0.0012690775684809,-0.001269077568481,0.0012690775684809,-0.0012690775684809,0.001269077568481,-0.0012690775684809,0.001269077568481,-0.0012197285114835,0.0012197285114837,-0.0012197285114836,0.0012197285114836,9.7761719328934e-17,-7.8387311203803e-17,-6.7277356487646e-18,3.3881317890172e-17,-0.0012398849515519,0.0012398849515519,-0.0012690775684809,0.0012690775684809,-0.0012690775684808,0.001269077568481,-0.0012690775684809,0.0012690775684809,-0.0012690775684809,0.0012690775684809,-0.0012197285114836,0.0012197285114836,-0.0012197285114836,0.0012197285114835,-0.0012197285114835,0.0012197285114837,-0.0012197285114836,0.0012197285114836,-1.582304602857e-17,2.2940475654804e-17,-0.0012398849515519,0.0012398849515519,1.6852426346414e-17,-1.6102449257699e-17,-0.0012690775684809,0.0012690775684809,-0.0012690775684809,0.0012690775684809,-0.0012690775684809,0.0012690775684809,-0.0012690775684809,0.0012690775684809,-0.0012197285114835,0.0012197285114836,-0.0012197285114836,0.0012197285114836,0.72736563057626,0.92744920702684,1270536,32768,0.0051528532224478,0.0051528532224478,0.0051528532224477,27.782449767658,27.798660744504,0.00013745959814127,0.00013745959814127,0.00013745959814127,298253.56422181,0.015578837082726
31276800,0.99998831747056,0.015046594769128,0.0050155315897095,0.0050155315897095,0.0050155315897094,-0.0012405035575953,0.0012405035575953,1.8161209893386e-17,-1.9014125013886e-17,-8.9320800722615e-17,8.7791435678961e-17,-0.0012696642562335,0.0012696642562334,-0.0012696642562335,0.0012696642562334,-0.0012696642562334,0.0012696642562335,-0.0012696642562334,0.0012696642562335,-0.0012203665912633,0.0012203665912634,-0.0012203665912633,0.0012203665912633,9.397507030258e-17,-8.2725413971859e-17,-9.8820510513002e-18,2.9822618351245e-17,-0.0012405035575953,0.0012405035575953,-0.0012696642562334,0.0012696642562334,-0.0012696642562334,0.0012696642562335,-0.0012696642562334,0.0012696642562334,-0.0012696642562334,0.0012696642562334,-0.0012203665912633,0.0012203665912633,-0.0012203665912633,0.0012203665912633,-0.0012203665912632,0.0012203665912634,-0.0012203665912634,0.0012203665912633,-1.9455288007247e-17,1.8970008714549e-17,-0.0012405035575953,0.0012405035575953,1.3131951769064e-17,-1.8911186982101e-17,-0.0012696642562334,0.0012696642562334,-0.0012696642562334,0.0012696642562334,-0.0012696642562334,0.0012696642562334,-0.0012696642562334,0.0012696642562335,-0.0012203665912633,0.0012203665912633,-0.0012203665912633,0.0012203665912633,0.73134946531797,0.86462826064949,1270536,32768,0.0051554173939781,0.0051554173939781,0.0051554173939781,28.027954081722,28.044301362336,0.00013942363265377,0.00013942363265377,0.00013942363265377,292716.06648037,0.015586649931154
31363200,0.99998872108521,0.015046601206099,0.0050155337353663,0.0050155337353663,0.0050155337353663,-0.0012409251159366,0.0012409251159366,2.457645508852e-17,-1.2477559995578e-17,-8.1931320583808e-17,9.5350028298557e-17,-0.0012701234112435,0.0012701234112435,-0.0012701234112435,0.0012701234112434,-0.0012701234112435,0.0012701234112435,-0.0012701234112435,0.0012701234112435,-0.0012207461426749,0.0012207461426751,-0.001220746142675,0.001220746142675,9.9849890830846e-17,-7.7056469507162e-17,-5.1689597388869e-18,3.50136362398e-17,-0.0012409251159366,0.0012409251159366,-0.0012701234112434,0.0012701234112435,-0.0012701234112434,0.0012701234112435,-0.0012701234112435,0.0012701234112435,-0.0012701234112435,0.0012701234112435,-0.001220746142675,0.001220746142675,-0.001220746142675,0.001220746142675,-0.0012207461426749,0.0012207461426751,-0.0012207461426751,0.001220746142675,-1.9532491531086e-17,1.9161179345006e-17,-0.0012409251159366,0.0012409251159366,1.4190742953132e-17,-1.8293558791395e-17,-0.0012701234112435,0.0012701234112435,-0.0012701234112435,0.0012701234112435,-0.0012701234112435,0.0012701234112435,-0.0012701234112435,0.0012701234112435,-0.001220746142675,0.001220746142675,-0.001220746142675,0.001220746142675,0.72696221333413,0.79905950129702,1270536,32768,0.005157164768808,0.0051571647688079,0.0051571647688079,28.273569887732,28.289941980168,0.00014138855910185,0.00014138855910185,0.00014138855910185,293238.98487631,0.015591973871383
31449600,0.99998911628077,0.015046607422054,0.0050155358073515,0.0050155358073514,0.0050155358073514,-0.0012412954464415,0.0012412954464415,2.2664748783953e-17,-1.4462793465705e-17,-8.4431244212857e-17,9.1688375453656e-17,-0.001270548191476,0.0012705481914759,-0.001270548191476,0.0012705481914759,-0.0012705481914759,0.001270548191476,-0.0012705481914759,0.001270548191476,-0.00122106955158,0.0012210695515801,-0.00122106955158,0.0012210695515801,1.000410614613e-16,-7.5674158794629e-17,-5.6101227322485e-18,3.5484210099386e-17,-0.0012412954464415,0.0012412954464415,-0.0012705481914759,0.0012705481914759,-0.0012705481914758,0.001270548191476,-0.0012705481914759,0.0012705481914759,-0.0012705481914759,0.0012705481914759,-0.0012210695515801,0.00122106955158,-0.0012210695515801,0.00122106955158,-0.0012210695515799,0.0012210695515801,-0.0012210695515801,0.00122106955158,-1.6720077448405e-17,2.1881684470736e-17,-0.0012412954464415,0.0012412954464415,1.574951886301e-17,-1.7484759970232e-17,-0.0012705481914759,0.0012705481914759,-0.0012705481914759,0.0012705481914759,-0.0012705481914759,0.0012705481914759,-0.0012705481914759,0.0012705481914759,-0.00122106955158,0.00122106955158,-0.0012210695515801,0.00122106955158,0.71694599293636,0.73349074194455,1270536,32768,0.0051586998386276,0.0051586998386276,0.0051586998386276,28.5191966683,28.535582598,0.0001433535733464,0.0001433535733464,0.0001433535733464,295480.51109279,0.015596650823533
31536000,0.99998950302491,0.015046613383536,0.0050155377945119,0.0050155377945119,0.0050155377945119,-0.0012416382583154,0.0012416382583154,2.2054473309803e-17,-1.4962778191515e-17,-8.4585651260534e-17,9.1703080886768e-17,-0.0012709510753922,0.0012709510753922,-0.0012709510753923,0.0012709510753922,-0.0012709510753922,0.0012709510753922,-0.0012709510753922,0.0012709510753922,-0.0012213671257192,0.0012213671257193,-0.0012213671257192,0.0012213671257192,9.7886715510386e-17,-7.7982911793221e-17,-7.4115382884751e-18,3.3528387495483e-17,-0.0012416382583153,0.0012416382583154,-0.0012709510753921,0.0012709510753922,-0.0012709510753921,0.0012709510753922,-0.0012709510753922,0.0012709510753922,-0.0012709510753922,0.0012709510753922,-0.0012213671257192,0.0012213671257192,-0.0012213671257192,0.0012213671257192,-0.0012213671257191,0.0012213671257193,-0.0012213671257193,0.0012213671257192,-2.3223555242211e-17,1.5308355869648e-17,-0.0012416382583154,0.0012416382583153,1.0367330343998e-17,-2.2734599591235e-17,-0.0012709510753922,0.0012709510753922,-0.0012709510753922,0.0012709510753921,-0.0012709510753922,0.0012709510753922,-0.0012709510753922,0.0012709510753922,-0.0012213671257192,0.0012213671257192,-0.0012213671257193,0.0012213671257192,0.70262204650901,0.66792198259208,1270536,32768,0.0051601208734895,0.0051601208734895,0.0051601208734894,28.764824543614,28.781223215832,0.00014531859634891,0.00014531859634891,0.00014531859634891,298761.14266602,0.015600980238456
31622400,0.99998988129253,0.015046619066338,0.0050155396887793,0.0050155396887792,0.0050155396887792,-0.0012419626803812,0.0012419626803812,2.7098436867237e-17,-9.830582035408e-18,-7.8549070968036e-17,9.6717633577978e-17,-0.0012713367704674,0.0012713367704674,-0.0012713367704675,0.0012713367704674,-0.0012713367704674,0.0012713367704675,-0.0012713367704674,0.0012713367704675,-0.0012216491290896,0.0012216491290898,-0.0012216491290897,0.0012216491290897,9.5430908180673e-17,-7.9600509435547e-17,-9.6100005387272e-18,3.2116665916726e-17,-0.0012419626803812,0.0012419626803812,-0.0012713367704674,0.0012713367704674,-0.0012713367704673,0.0012713367704675,-0.0012713367704674,0.0012713367704674,-0.0012713367704674,0.0012713367704674,-0.0012216491290897,0.0012216491290897,-0.0012216491290897,0.0012216491290897,-0.0012216491290896,0.0012216491290898,-0.0012216491290898,0.0012216491290897,-1.7767839557639e-17,2.0911125885341e-17,-0.0012419626803812,0.0012419626803812,1.5234828704088e-17,-1.8572962020524e-17,-0.0012713367704674,0.0012713367704674,-0.0012713367704674,0.0012713367704674,-0.0012713367704674,0.0012713367704674,-0.0012713367704674,0.0012713367704674,-0.0012216491290897,0.0012216491290897,-0.0012216491290897,0.0012216491290897,0.6847947525715,0.60235322323961,1270536,32768,0.005161465706609,0.005161465706609,0.005161465706609,29.010452526525,29.026863833663,0.0001472836202122,0.0001472836202122,0.0001472836202122,302848.01449722,0.015605077406936
31708800,0.99999025096721,0.015046624451355,0.005015541483785,0.0050155414837849,0.0050155414837849,-0.0012422641144996,0.0012422641144996,2.4528662430906e-17,-1.263931975981e-17,-8.1159285345425e-17,9.4394175146274e-17,-0.0012716988151582,0.0012716988151582,-0.0012716988151582,0.0012716988151582,-0.0012716988151582,0.0012716988151582,-0.0012716988151582,0.0012716988151582,-0.001221910810209,0.0012219108102092,-0.0012219108102091,0.0012219108102091,9.4651520225735e-17,-8.0321075658038e-17,-1.102907483404e-17,3.0851998669089e-17,-0.0012422641144996,0.0012422641144996,-0.0012716988151581,0.0012716988151582,-0.0012716988151581,0.0012716988151582,-0.0012716988151582,0.0012716988151582,-0.0012716988151582,0.0012716988151581,-0.0012219108102091,0.0012219108102091,-0.0012219108102091,0.0012219108102091,-0.001221910810209,0.0012219108102092,-0.0012219108102092,0.0012219108102091,-1.7731075974859e-17,2.0808187853556e-17,-0.0012422641144996,0.0012422641144996,1.5587759098777e-17,-1.8602372886748e-17,-0.0012716988151582,0.0012716988151582,-0.0012716988151581,0.0012716988151581,-0.0012716988151581,0.0012716988151582,-0.0012716988151581,0.0012716988151582,-0.0012219108102091,0.0012219108102091,-0.0012219108102091,0.0012219108102091,0.66400983097353,0.53678446388714,1270536,32768,0.0051627152719422,0.0051627152719422,0.0051627152719422,29.25139099925,29.267511833545,0.000149211127994,0.000149211127994,0.000149211127994,307650.78728424,0.015608884252023
31795200,0.99999060750769,0.015046629435652,0.0050155431452175,0.0050155431452175,0.0050155431452175,-0.0012421240312071,0.0012421240312071,2.2771363174015e-17,-1.4337797284252e-17,-8.3365100312233e-17,9.229129821125e-17,-0.0012716234796901,0.00127162347969,-0.0012716234796901,0.00127162347969,-0.00127162347969,0.0012716234796901,-0.00127162347969,0.0012716234796901,-0.0012217294167514,0.0012217294167516,-0.0012217294167515,0.0012217294167515,9.7864657360718e-17,-7.7269698287287e-17,-7.6835888010481e-18,3.4175426552413e-17,-0.0012421240312071,0.0012421240312071,-0.00127162347969,0.00127162347969,-0.0012716234796899,0.0012716234796901,-0.00127162347969,0.00127162347969,-0.00127162347969,0.00127162347969,-0.0012217294167515,0.0012217294167515,-0.0012217294167515,0.0012217294167515,-0.0012217294167514,0.0012217294167516,-0.0012217294167516,0.0012217294167515,-1.9076623104612e-17,1.9705280370152e-17,-0.0012421240312071,0.0012421240312071,1.4617200513382e-17,-1.954352060592e-17,-0.00127162347969,0.00127162347969,-0.00127162347969,0.00127162347969,-0.00127162347969,0.00127162347969,-0.00127162347969,0.00127162347969,-0.0012217294167515,0.0012217294167515,-0.0012217294167515,0.0012217294167515,0.63722659971684,0.45226358797313,1270536,32768,0.0051621346560638,0.0051621346560638,0.0051621346560637,29.269663699296,29.271394090334,0.00014935730959437,0.00014935730959437,0.00014935730959437,313332.38972734,0.015607114883667
31881600,0.99999095111077,0.015046634547766,0.0050155448492552,0.0050155448492552,0.0050155448492552,-0.0012419080569007,0.0012419080569007,2.2172116774699e-17,-1.4889251025955e-17,-8.412978283406e-17,9.136485592519e-17,-0.0012714787650459,0.0012714787650459,-0.001271478765046,0.0012714787650459,-0.0012714787650459,0.001271478765046,-0.0012714787650459,0.0012714787650459,-0.0012214654718657,0.0012214654718658,-0.0012214654718658,0.0012214654718658,9.6923509641547e-17,-7.7813799312433e-17,-8.3012169917544e-18,3.3616620094155e-17,-0.0012419080569007,0.0012419080569007,-0.0012714787650458,0.0012714787650459,-0.0012714787650458,0.0012714787650459,-0.0012714787650459,0.0012714787650459,-0.0012714787650459,0.0012714787650459,-0.0012214654718658,0.0012214654718658,-0.0012214654718658,0.0012214654718657,-0.0012214654718657,0.0012214654718659,-0.0012214654718658,0.0012214654718657,-1.8547227512578e-17,2.0175854229738e-17,-0.0012419080569007,0.0012419080569007,1.4926014608735e-17,-1.9264117376791e-17,-0.0012714787650459,0.0012714787650459,-0.0012714787650459,0.0012714787650459,-0.0012714787650459,0.0012714787650459,-0.0012714787650459,0.0012714787650459,-0.0012214654718657,0.0012214654718658,-0.0012214654718658,0.0012214654718658,0.67829687296573,0.76226457269967,1270536,32768,0.005161239493052,0.005161239493052,0.005161239493052,29.274871522588,29.275276347123,0.0001493989721807,0.0001493989721807,0.0001493989721807,320824.73139165,0.015604386931374
31968000,0.99999128221958,0.01504663958815,0.0050155465293835,0.0050155465293834,0.0050155465293834,-0.0012424522050417,0.0012424522050417,2.2403727346214e-17,-1.4727491261722e-17,-8.4041550235388e-17,9.1276623326518e-17,-0.0012718284678939,0.0012718284678938,-0.0012718284678939,0.0012718284678938,-0.0012718284678938,0.0012718284678939,-0.0012718284678938,0.0012718284678939,-0.0012221966546206,0.0012221966546207,-0.0012221966546206,0.0012221966546206,9.7783777478602e-17,-7.7475574350856e-17,-7.7056469507162e-18,3.4278364584197e-17,-0.0012424522050416,0.0012424522050417,-0.0012718284678938,0.0012718284678938,-0.0012718284678937,0.0012718284678939,-0.0012718284678938,0.0012718284678938,-0.0012718284678938,0.0012718284678938,-0.0012221966546206,0.0012221966546206,-0.0012221966546206,0.0012221966546206,-0.0012221966546205,0.0012221966546207,-0.0012221966546207,0.0012221966546206,-1.8084006369548e-17,2.0411141159531e-17,-0.0012424522050416,0.0012424522050416,1.5146596105415e-17,-1.904353588011e-17,-0.0012718284678938,0.0012718284678938,-0.0012718284678938,0.0012718284678938,-0.0012718284678938,0.0012718284678938,-0.0012718284678938,0.0012718284678938,-0.0012221966546206,0.0012221966546206,-0.0012221966546206,0.0012221966546206,0.69409425744673,0.78347041116359,1270536,32768,0.005163495131273,0.005163495131273,0.005163495131273,29.27888442807,29.279158603911,0.00014943107542456,0.00014943107542456,0.00014943107542456,303943.11437953,0.015611260324317
32054400,0.99999160128351,0.015046644537562,0.0050155481791872,0.0050155481791872,0.0050155481791872,-0.0012425812970038,0.0012425812970038,2.2311818389264e-17,-1.485984015973e-17,-8.3843026888375e-17,9.1673670020544e-17,-0.0012719107887585,0.0012719107887585,-0.0012719107887585,0.0012719107887584,-0.0012719107887585,0.0012719107887585,-0.0012719107887585,0.0012719107887585,-0.0012223493227183,0.0012223493227184,-0.0012223493227183,0.0012223493227183,9.6401466766069e-17,-7.8629950850152e-17,-9.1247212460294e-18,3.2851937572328e-17,-0.0012425812970038,0.0012425812970038,-0.0012719107887584,0.0012719107887585,-0.0012719107887584,0.0012719107887585,-0.0012719107887585,0.0012719107887585,-0.0012719107887585,0.0012719107887584,-0.0012223493227184,0.0012223493227183,-0.0012223493227184,0.0012223493227183,-0.0012223493227182,0.0012223493227184,-0.0012223493227184,0.0012223493227183,-1.7925922963594e-17,2.0631722656212e-17,-0.0012425812970038,0.0012425812970038,1.5440704767657e-17,-1.8808248950317e-17,-0.0012719107887585,0.0012719107887585,-0.0012719107887584,0.0012719107887584,-0.0012719107887584,0.0012719107887585,-0.0012719107887584,0.0012719107887585,-0.0012223493227183,0.0012223493227183,-0.0012223493227184,0.0012223493227183,0.70718520661315,0.80523991285448,1270536,32768,0.0051640301683496,0.0051640301683496,0.0051640301683496,29.282779773581,29.2830408607,0.00014946223818864,0.00014946223818864,0.00014946223818864,299642.09886665,0.015612890810443
32140800,0.99999190873792,0.01504664939706,0.0050155497990201,0.00501554979902,0.00501554979902,-0.0012426707691979,0.0012426707691979,2.2161087699865e-17,-1.474954941139e-17,-8.4048902951944e-17,9.1482499390087e-17,-0.0012719743522102,0.0012719743522101,-0.0012719743522102,0.0012719743522101,-0.0012719743522102,0.0012719743522102,-0.0012719743522102,0.0012719743522102,-0.001222448278583,0.0012224482785831,-0.001222448278583,0.001222448278583,9.6445583065405e-17,-7.8277020455463e-17,-8.8673761665685e-18,3.3101929935233e-17,-0.0012426707691978,0.0012426707691979,-0.0012719743522101,0.0012719743522102,-0.0012719743522101,0.0012719743522102,-0.0012719743522102,0.0012719743522102,-0.0012719743522102,0.0012719743522101,-0.001222448278583,0.001222448278583,-0.001222448278583,0.001222448278583,-0.0012224482785829,0.0012224482785831,-0.0012224482785831,0.001222448278583,-1.8447965839072e-17,1.9969978166169e-17,-0.0012426707691978,0.0012426707691978,1.4970130908071e-17,-1.9396466274799e-17,-0.0012719743522102,0.0012719743522101,-0.0012719743522101,0.0012719743522101,-0.0012719743522101,0.0012719743522101,-0.0012719743522101,0.0012719743522102,-0.001222448278583,0.001222448278583,-0.001222448278583,0.001222448278583,0.72053665926244,0.83311157431456,1270536,32768,0.0051644009839604,0.0051644009839604,0.0051644009839603,29.286663344976,29.286923117489,0.00014949330675981,0.00014949330675981,0.00014949330675981,296479.24805806,0.01561402087421
32227200,0.99999220500274,0.015046654168315,0.0050155513894384,0.0050155513894383,0.0050155513894383,-0.0012427541265649,0.0012427541265649,2.2517694452832e-17,-1.4778960277614e-17,-8.3747441573147e-17,9.1629553721207e-17,-0.0012720374930751,0.0012720374930751,-0.0012720374930752,0.0012720374930751,-0.0012720374930751,0.0012720374930752,-0.0012720374930751,0.0012720374930752,-0.0012225399015066,0.0012225399015068,-0.0012225399015067,0.0012225399015067,9.604853637138e-17,-7.8835826913721e-17,-9.5070625069428e-18,3.2690177808096e-17,-0.0012427541265649,0.0012427541265649,-0.001272037493075,0.0012720374930751,-0.001272037493075,0.0012720374930751,-0.0012720374930751,0.0012720374930751,-0.0012720374930751,0.0012720374930751,-0.0012225399015067,0.0012225399015067,-0.0012225399015067,0.0012225399015067,-0.0012225399015066,0.0012225399015068,-0.0012225399015068,0.0012225399015067,-1.898839050594e-17,1.9705280370152e-17,-0.0012427541265649,0.0012427541265649,1.4543673347821e-17,-1.9778807535712e-17,-0.0012720374930751,0.0012720374930751,-0.0012720374930751,0.0012720374930751,-0.0012720374930751,0.0012720374930751,-0.0012720374930751,0.0012720374930751,-0.0012225399015067,0.0012225399015067,-0.0012225399015067,0.0012225399015067,0.7341598074204,0.86098323577464,1270536,32768,0.0051647464578448,0.0051647464578448,0.0051647464578448,29.290545731419,29.290805374277,0.00014952436585135,0.00014952436585135,0.00014952436585135,293395.99361037,0.01561507371904
32313600,0.99999249048278,0.015046658853841,0.0050155529512804,0.0050155529512803,0.0050155529512803,-0.0012428310009666,0.0012428310009666,2.2635337917729e-17,-1.4558378780933e-17,-8.370332527381e-17,9.1673670020544e-17,-0.0012720985834371,0.0012720985834371,-0.0012720985834372,0.0012720985834371,-0.0012720985834371,0.0012720985834372,-0.0012720985834371,0.0012720985834372,-0.0012226233912093,0.0012226233912095,-0.0012226233912094,0.0012226233912094,9.6408819482625e-17,-7.8747594315048e-17,-9.2350119943698e-18,3.2925464737889e-17,-0.0012428310009665,0.0012428310009666,-0.001272098583437,0.0012720985834371,-0.001272098583437,0.0012720985834372,-0.0012720985834371,0.0012720985834371,-0.0012720985834371,0.0012720985834371,-0.0012226233912094,0.0012226233912094,-0.0012226233912094,0.0012226233912094,-0.0012226233912093,0.0012226233912095,-0.0012226233912095,0.0012226233912094,-1.8900157907267e-17,1.9852334701273e-17,-0.0012428310009666,0.0012428310009666,1.4955425474959e-17,-1.9675869503928e-17,-0.0012720985834371,0.0012720985834371,-0.0012720985834371,0.0012720985834371,-0.0012720985834371,0.0012720985834371,-0.0012720985834371,0.0012720985834371,-0.0012226233912094,0.0012226233912094,-0.0012226233912094,0.0012226233912094,0.74819270215563,0.88885489723472,1270536,32768,0.0051650650603044,0.0051650650603043,0.0051650650603043,29.294427998442,29.294687631066,0.00014955542398754,0.00014955542398754,0.00014955542398754,290405.39884515,0.015616044684986
32400000,0.99999276556833,0.015046663456299,0.0050155544854329,0.0050155544854328,0.0050155544854328,-0.0012429033486278,0.0012429033486278,2.2719894158123e-17,-1.4315739134584e-17,-8.366656169103e-17,9.1967778682785e-17,-0.0012721582382769,0.0012721582382769,-0.0012721582382769,0.0012721582382768,-0.0012721582382769,0.0012721582382769,-0.0012721582382769,0.0012721582382769,-0.0012227012568826,0.0012227012568827,-0.0012227012568826,0.0012227012568826,9.769554487993e-17,-7.7482927067412e-17,-8.1321045109658e-18,3.4146015686189e-17,-0.0012429033486278,0.0012429033486278,-0.0012721582382768,0.0012721582382769,-0.0012721582382768,0.0012721582382769,-0.0012721582382769,0.0012721582382769,-0.0012721582382769,0.0012721582382768,-0.0012227012568827,0.0012227012568826,-0.0012227012568827,0.0012227012568826,-0.0012227012568825,0.0012227012568827,-0.0012227012568827,0.0012227012568826,-1.850678757152e-17,2.0146443363514e-17,-0.0012429033486278,0.0012429033486278,1.539658846832e-17,-1.8955303281437e-17,-0.0012721582382769,0.0012721582382769,-0.0012721582382769,0.0012721582382768,-0.0012721582382768,0.0012721582382769,-0.0012721582382768,0.0012721582382769,-0.0012227012568826,0.0012227012568826,-0.0012227012568827,0.0012227012568826,0.76268619770224,0.9167265586948,1270536,32768,0.005165364899726,0.005165364899726,0.005165364899726,29.298310253425,29.298569887855,0.0001495864820274,0.0001495864820274,0.0001495864820274,287456.31510344,0.015616958478861
32486400,0.99999303061804,0.015046667841271,0.0050155559470905,0.0050155559470905,0.0050155559470905,-0.0012429697976805,0.0012429697976805,2.226402573165e-17,-1.4815723860394e-17,-8.4218015432732e-17,9.1497204823199e-17,-0.001272214355598,0.001272214355598,-0.0012722143555981,0.001272214355598,-0.001272214355598,0.001272214355598,-0.001272214355598,0.001272214355598,-0.0012227723582983,0.0012227723582985,-0.0012227723582984,0.0012227723582984,9.7180854721008e-17,-7.804173352567e-17,-8.8379653003444e-18,3.3646030960379e-17,-0.0012429697976805,0.0012429697976806,-0.0012722143555979,0.001272214355598,-0.0012722143555979,0.001272214355598,-0.001272214355598,0.001272214355598,-0.001272214355598,0.001272214355598,-0.0012227723582984,0.0012227723582984,-0.0012227723582984,0.0012227723582984,-0.0012227723582983,0.0012227723582985,-0.0012227723582984,0.0012227723582984,-1.8731045426479e-17,1.9822923835049e-17,-0.0012429697976805,0.0012429697976805,1.482307657695e-17,-1.9602342338368e-17,-0.001272214355598,0.001272214355598,-0.001272214355598,0.0012722143555979,-0.001272214355598,0.001272214355598,-0.001272214355598,0.001272214355598,-0.0012227723582983,0.0012227723582984,-0.0012227723582984,0.0012227723582984,0.75411028018061,0.81481010692511,1270536,32768,0.0051656402891705,0.0051656402891704,0.0051656402891704,29.301025341978,29.301209584371,0.00014960820273583,0.00014960820273583,0.00014960820273583,284528.64286964,0.015617797774177
32572800,0.99999328561197,0.015046671956922,0.0050155573189742,0.0050155573189742,0.0050155573189741,-0.0012427827543139,0.0012427827543139,2.4054412213042e-17,-1.3146657202176e-17,-8.2357778144057e-17,9.3614787191335e-17,-0.00127208858126,0.00127208858126,-0.00127208858126,0.0012720885812599,-0.00127208858126,0.00127208858126,-0.00127208858126,0.00127208858126,-0.0012225273930061,0.0012225273930063,-0.0012225273930062,0.0012225273930062,9.5945598339595e-17,-7.9438749671315e-17,-1.0117337981093e-17,3.2822526706104e-17,-0.0012427827543139,0.0012427827543139,-0.0012720885812599,0.00127208858126,-0.0012720885812599,0.00127208858126,-0.00127208858126,0.00127208858126,-0.00127208858126,0.0012720885812599,-0.0012225273930062,0.0012225273930062,-0.0012225273930062,0.0012225273930062,-0.0012225273930061,0.0012225273930063,-0.0012225273930063,0.0012225273930062,-1.9032506805276e-17,1.9646458637704e-17,-0.0012427827543139,0.0012427827543139,1.4984836341183e-17,-1.9984683599281e-17,-0.00127208858126,0.00127208858126,-0.0012720885812599,0.0012720885812599,-0.0012720885812599,0.00127208858126,-0.0012720885812599,0.00127208858126,-0.0012225273930062,0.0012225273930062,-0.0012225273930062,0.0012225273930062,0.73564650932555,0.71055228244282,1270536,32768,0.0051648649218971,0.005164864921897,0.005164864921897,29.277237256484,29.275707084755,0.00014941789805187,0.00014941789805187,0.00014941789805187,287844.87074961,0.01561543519664
32659200,0.99999353092235,0.015046675779629,0.0050155585932096,0.0050155585932096,0.0050155585932096,-0.0012425334967658,0.0012425334967658,2.3767656267357e-17,-1.3404002281637e-17,-8.3298925863229e-17,9.2997159000628e-17,-0.0012719180487245,0.0012719180487245,-0.0012719180487245,0.0012719180487244,-0.0012719180487245,0.0012719180487245,-0.0012719180487245,0.0012719180487245,-0.0012222150215118,0.0012222150215119,-0.0012222150215118,0.0012222150215118,9.5930892906483e-17,-7.987255994812e-17,-1.0484973808894e-17,3.2087255050501e-17,-0.0012425334967658,0.0012425334967658,-0.0012719180487244,0.0012719180487245,-0.0012719180487244,0.0012719180487245,-0.0012719180487245,0.0012719180487245,-0.0012719180487245,0.0012719180487244,-0.0012222150215119,0.0012222150215118,-0.0012222150215118,0.0012222150215118,-0.0012222150215117,0.0012222150215119,-0.0012222150215119,0.0012222150215118,-1.861707831986e-17,2.0014094465505e-17,-0.0012425334967658,0.0012425334967658,1.5293650436536e-17,-1.9381760841687e-17,-0.0012719180487245,0.0012719180487245,-0.0012719180487245,0.0012719180487244,-0.0012719180487244,0.0012719180487245,-0.0012719180487244,0.0012719180487245,-0.0012222150215118,0.0012222150215118,-0.0012222150215118,0.0012222150215118,0.71023405312821,0.60629445796053,1270536,32768,0.0051638317205017,0.0051638317205016,0.0051638317205016,29.251892588441,29.250204585139,0.00014921514070753,0.00014921514070753,0.00014921514070753,293241.15785971,0.015612286841232
32745600,0.99999376692785,0.015046679297472,0.0050155597658241,0.0050155597658241,0.005015559765824,-0.0012422461378792,0.0012422461378792,2.5013941723604e-17,-1.2161393183669e-17,-8.1776913536131e-17,9.3820663254903e-17,-0.0012717167045587,0.0012717167045586,-0.0012717167045587,0.0012717167045586,-0.0012717167045586,0.0012717167045587,-0.0012717167045586,0.0012717167045587,-0.0012218650735028,0.0012218650735029,-0.0012218650735028,0.0012218650735028,9.5997067355487e-17,-7.9313753489862e-17,-1.0249686879102e-17,3.2734294107432e-17,-0.0012422461378792,0.0012422461378792,-0.0012717167045586,0.0012717167045586,-0.0012717167045585,0.0012717167045587,-0.0012717167045586,0.0012717167045586,-0.0012717167045586,0.0012717167045586,-0.0012218650735029,0.0012218650735028,-0.0012218650735028,0.0012218650735028,-0.0012218650735027,0.0012218650735029,-0.0012218650735029,0.0012218650735028,-1.8606049245026e-17,2.0014094465505e-17,-0.0012422461378792,0.0012422461378792,1.5220123270976e-17,-2.0028799898617e-17,-0.0012717167045586,0.0012717167045586,-0.0012717167045586,0.0012717167045586,-0.0012717167045586,0.0012717167045586,-0.0012717167045586,0.0012717167045586,-0.0012218650735028,0.0012218650735028,-0.0012218650735028,0.0012218650735028,0.67935208578106,0.50203663347825,1270536,32768,0.0051626406252335,0.0051626406252335,0.0051626406252334,29.226405522437,29.224702085523,0.0001490112441795,0.0001490112441795,0.0001490112441795,300181.8069845,0.015608657269029
32832000,0.99999399399363,0.015046682511716,0.0050155608372388,0.0050155608372388,0.0050155608372387,-0.0012419280706128,0.0012419280706128,2.4745567569309e-17,-1.2301094798233e-17,-8.2225429246049e-17,9.3879484987352e-17,-0.0012714879976091,0.0012714879976091,-0.0012714879976091,0.0012714879976091,-0.0012714879976091,0.0012714879976091,-0.0012714879976091,0.0012714879976091,-0.0012214856899458,0.001221485689946,-0.0012214856899459,0.0012214856899459,1.0016605764275e-16,-7.5512399030396e-17,-6.286572655403e-18,3.6645939315238e-17,-0.0012419280706128,0.0012419280706128,-0.001271487997609,0.0012714879976091,-0.001271487997609,0.0012714879976091,-0.0012714879976091,0.0012714879976091,-0.0012714879976091,0.0012714879976091,-0.0012214856899459,0.0012214856899459,-0.0012214856899459,0.0012214856899459,-0.0012214856899458,0.001221485689946,-0.001221485689946,0.0012214856899459,-2.181918638001e-17,1.6705372015293e-17,-0.0012419280706128,0.0012419280706128,1.2087866018108e-17,-2.3249289750157e-17,-0.0012714879976091,0.0012714879976091,-0.0012714879976091,0.001271487997609,-0.0012714879976091,0.0012714879976091,-0.0012714879976091,0.0012714879976091,-0.0012214856899458,0.0012214856899459,-0.0012214856899459,0.0012214856899459,0.64516451987775,0.40460927212687,1270536,32768,0.0051613222733697,0.0051613222733696,0.0051613222733696,29.200904446679,29.199199585907,0.00014880723557343,0.00014880723557343,0.00014880723557343,308550.38177945,0.015604639851432
32918400,0.99999421247022,0.015046685670859,0.0050155618902863,0.0050155618902863,0.0050155618902863,-0.001241596333414,0.001241596333414,1.9775131177434e-17,-1.7242120323883e-17,-8.7659086780953e-17,8.9467855053736e-17,-0.0012712423566279,0.0012712423566278,-0.0012712423566279,0.0012712423566278,-0.0012712423566278,0.0012712423566279,-0.0012712423566278,0.0012712423566279,-0.0012210980666654,0.0012210980666655,-0.0012210980666654,0.0012210980666654,9.8813157796446e-17,-7.7534396083304e-17,-7.9850501798452e-18,3.5131279704697e-17,-0.001241596333414,0.001241596333414,-0.0012712423566278,0.0012712423566278,-0.0012712423566277,0.0012712423566279,-0.0012712423566278,0.0012712423566278,-0.0012712423566278,0.0012712423566278,-0.0012210980666654,0.0012210980666654,-0.0012210980666654,0.0012210980666654,-0.0012210980666653,0.0012210980666655,-0.0012210980666655,0.0012210980666654,-1.9242059227122e-17,1.9455288007247e-17,-0.001241596333414,0.001241596333414,1.4999541774295e-17,-2.076407155422e-17,-0.0012712423566278,0.0012712423566278,-0.0012712423566278,0.0012712423566278,-0.0012712423566278,0.0012712423566278,-0.0012712423566278,0.0012712423566278,-0.0012210980666654,0.0012210980666654,-0.0012210980666654,0.0012210980666654,0.65914409165887,0.59136693301626,1270536,32768,0.0051599472865123,0.0051599472865123,0.0051599472865123,29.175401967934,29.173697086291,0.00014860321574347,0.00014860321574347,0.00014860321574347,317901.71470652,0.015600449799638
33004800,0.99999442269398,0.015046688732875,0.0050155629109583,0.0050155629109582,0.0050155629109582,-0.0012418527151331,0.0012418527151331,2.4499251564682e-17,-1.2389327396905e-17,-8.2754824838083e-17,9.4335353413825e-17,-0.0012713759433748,0.0012713759433748,-0.0012713759433748,0.0012713759433747,-0.0012713759433748,0.0012713759433748,-0.0012713759433748,0.0012713759433748,-0.0012214833576978,0.001221483357698,-0.0012214833576979,0.0012214833576979,9.4945628887976e-17,-8.1879851567916e-17,-1.2793726807487e-17,3.0837293235977e-17,-0.0012418527151331,0.0012418527151331,-0.0012713759433747,0.0012713759433748,-0.0012713759433747,0.0012713759433748,-0.0012713759433748,0.0012713759433748,-0.0012713759433748,0.0012713759433747,-0.0012214833576979,0.0012214833576979,-0.0012214833576979,0.0012214833576979,-0.0012214833576978,0.001221483357698,-0.001221483357698,0.0012214833576979,-1.7289912981497e-17,2.1322878012478e-17,-0.0012418527151331,0.0012418527151331,1.761710886824e-17,-1.8249442492059e-17,-0.0012713759433748,0.0012713759433748,-0.0012713759433748,0.0012713759433747,-0.0012713759433747,0.0012713759433748,-0.0012713759433747,0.0012713759433748,-0.0012214833576979,0.0012214833576979,-0.0012214833576979,0.0012214833576979,0.66404952067882,0.62503185655508,1270536,32768,0.0051610101398442,0.0051610101398442,0.0051610101398441,29.149899348022,29.148194586675,0.00014839919478418,0.00014839919478418,0.00014839919478418,308750.9692003,0.015603688440647
33091200,0.99999462498767,0.015046691820726,0.0050155639402422,0.0050155639402421,0.0050155639402421,-0.0012419006510861,0.0012419006510861,2.355810384551e-17,-1.3426060431305e-17,-8.3688619840698e-17,9.351184915955e-17,-0.0012713753817218,0.0012713753817218,-0.0012713753817219,0.0012713753817218,-0.0012713753817218,0.0012713753817219,-0.0012713753817218,0.0012713753817219,-0.0012215681732762,0.0012215681732764,-0.0012215681732763,0.0012215681732763,9.7982300825615e-17,-7.8585834550816e-17,-9.3232445930421e-18,3.4190131985525e-17,-0.001241900651086,0.0012419006510861,-0.0012713753817217,0.0012713753817218,-0.0012713753817217,0.0012713753817219,-0.0012713753817218,0.0012713753817218,-0.0012713753817218,0.0012713753817218,-0.0012215681732763,0.0012215681732763,-0.0012215681732763,0.0012215681732762,-0.0012215681732762,0.0012215681732764,-0.0012215681732763,0.0012215681732763,-1.9065594029778e-17,1.9528815172807e-17,-0.0012419006510861,0.0012419006510861,1.5558348232553e-17,-2.0411141159531e-17,-0.0012713753817218,0.0012713753817218,-0.0012713753817218,0.0012713753817218,-0.0012713753817218,0.0012713753817218,-0.0012713753817218,0.0012713753817218,-0.0012215681732762,0.0012215681732763,-0.0012215681732763,0.0012215681732763,0.69589221763415,0.79978099776202,1270536,32768,0.0051612088487723,0.0051612088487722,0.0051612088487722,29.12439671389,29.122692087059,0.00014819517371112,0.00014819517371112,0.00014819517371112,305828.06616651,0.01560429398859
33177600,0.99999481966102,0.015046694862548,0.0050155649541826,0.0050155649541825,0.0050155649541825,-0.001242183964005,0.001242183964005,2.0844951436336e-17,-1.6220092722595e-17,-8.5872376657838e-17,9.136485592519e-17,-0.0012715357245,0.0012715357244999,-0.0012715357245,0.0012715357244999,-0.0012715357245,0.0012715357245,-0.0012715357245,0.0012715357245,-0.0012219507943889,0.0012219507943891,-0.001221950794389,0.001221950794389,9.776907204549e-17,-7.8857885063389e-17,-1.0065868965201e-17,3.3748968992164e-17,-0.001242183964005,0.001242183964005,-0.0012715357244999,0.0012715357245,-0.0012715357244999,0.0012715357245,-0.0012715357245,0.0012715357245,-0.0012715357245,0.0012715357244999,-0.001221950794389,0.001221950794389,-0.001221950794389,0.0012219507943889,-0.0012219507943888,0.0012219507943891,-0.001221950794389,0.001221950794389,-2.4565426013686e-17,1.4043688622011e-17,-0.001242183964005,0.001242183964005,1.0470268375782e-17,-2.5602159048086e-17,-0.0012715357245,0.0012715357244999,-0.0012715357245,0.0012715357244999,-0.0012715357245,0.0012715357244999,-0.0012715357245,0.0012715357245,-0.0012219507943889,0.001221950794389,-0.001221950794389,0.001221950794389,0.71235241880322,0.82129808892253,1270536,32768,0.0051623831961055,0.0051623831961054,0.0051623831961054,29.098894078326,29.097189587443,0.00014799115262661,0.00014799115262661,0.00014799115262661,295240.61643422,0.015607872634163
33264000,0.9999950071117,0.015046697849819,0.0050155659499397,0.0050155659499397,0.0050155659499397,-0.0012422622088988,0.0012422622088988,2.3414725872668e-17,-1.3573114762426e-17,-8.3820968738707e-17,9.3350089395318e-17,-0.0012715742758235,0.0012715742758235,-0.0012715742758235,0.0012715742758234,-0.0012715742758235,0.0012715742758235,-0.0012715742758235,0.0012715742758235,-0.0012220438393962,0.0012220438393964,-0.0012220438393963,0.0012220438393963,9.7607312281257e-17,-7.9512276836875e-17,-1.0168806996985e-17,3.3763674425276e-17,-0.0012422622088988,0.0012422622088988,-0.0012715742758234,0.0012715742758235,-0.0012715742758234,0.0012715742758235,-0.0012715742758235,0.0012715742758235,-0.0012715742758235,0.0012715742758235,-0.0012220438393963,0.0012220438393963,-0.0012220438393963,0.0012220438393962,-0.0012220438393962,0.0012220438393964,-0.0012220438393963,0.0012220438393963,-2.0778776987332e-17,1.7734752333137e-17,-0.0012422622088988,0.0012422622088988,1.3690758227322e-17,-2.2219909432313e-17,-0.0012715742758235,0.0012715742758235,-0.0012715742758235,0.0012715742758234,-0.0012715742758234,0.0012715742758235,-0.0012715742758235,0.0012715742758235,-0.0012220438393962,0.0012220438393963,-0.0012220438393963,0.0012220438393963,0.72646653675094,0.84281518008304,1270536,32768,0.0051627074536115,0.0051627074536114,0.0051627074536114,29.082801569487,29.081704623438,0.0001478624125559,0.0001478624125559,0.0001478624125559,291291.87569775,0.015608860900171
33350400,0.99999518904149,0.015046700802101,0.0050155669340336,0.0050155669340336,0.0050155669340336,-0.0012425755981165,0.0012425755981165,3.2035786034609e-17,-5.1321961561068e-18,-7.6732949978697e-17,1.0226158186122e-16,-0.0012718615275843,0.0012718615275843,-0.0012718615275843,0.0012718615275843,-0.0012718615275843,0.0012718615275844,-0.0012718615275843,0.0012718615275843,-0.0012223652894331,0.0012223652894333,-0.0012223652894332,0.0012223652894332,9.9474902286488e-17,-7.8754947031604e-17,-8.477682189099e-18,3.5822435060963e-17,-0.0012425755981165,0.0012425755981165,-0.0012718615275842,0.0012718615275843,-0.0012718615275842,0.0012718615275843,-0.0012718615275843,0.0012718615275842,-0.0012718615275843,0.0012718615275842,-0.0012223652894332,0.0012223652894332,-0.0012223652894332,0.0012223652894332,-0.0012223652894331,0.0012223652894333,-0.0012223652894332,0.0012223652894332,-2.7749152282446e-17,1.0896725936032e-17,-0.0012425755981165,0.0012425755981165,6.9115535626653e-18,-2.9543215122116e-17,-0.0012718615275843,0.0012718615275842,-0.0012718615275843,0.0012718615275842,-0.0012718615275842,0.0012718615275842,-0.0012718615275842,0.0012718615275842,-0.0012223652894331,0.0012223652894332,-0.0012223652894332,0.0012223652894332,0.73970936362517,0.86433227124355,1270536,32768,0.0051640064569939,0.0051640064569938,0.0051640064569938,29.205063382163,29.21292082576,0.0001488405070573,0.0001488405070573,0.0001488405070573,288097.6497219,0.015612818942979
33436800,0.9999953656472,0.015046703718198,0.0050155679060661,0.0050155679060661,0.0050155679060661,-0.0012428905299177,0.0012428905299177,2.9638800437345e-17,-7.2497785242425e-18,-7.9409338805091e-17,1.0152631020562e-16,-0.0012721616257021,0.0012721616257021,-0.0012721616257021,0.001272161625702,-0.0012721616257021,0.0012721616257021,-0.001272161625702,0.0012721616257021,-0.0012226834192517,0.0012226834192518,-0.0012226834192517,0.0012226834192518,1.0042340272222e-16,-7.9968145263349e-17,-8.1321045109658e-18,3.6145954589428e-17,-0.0012428905299177,0.0012428905299177,-0.001272161625702,0.0012721616257021,-0.001272161625702,0.0012721616257021,-0.0012721616257021,0.0012721616257021,-0.0012721616257021,0.001272161625702,-0.0012226834192518,0.0012226834192517,-0.0012226834192517,0.0012226834192517,-0.0012226834192516,0.0012226834192519,-0.0012226834192518,0.0012226834192517,-2.2344905613766e-17,1.6440674219276e-17,-0.0012428905299177,0.0012428905299177,1.2146687750556e-17,-2.448454613157e-17,-0.0012721616257021,0.0012721616257021,-0.0012721616257021,0.001272161625702,-0.001272161625702,0.0012721616257021,-0.001272161625702,0.0012721616257021,-0.0012226834192517,0.0012226834192517,-0.0012226834192518,0.0012226834192517,0.75265121792539,0.88584936240406,1270536,32768,0.0051653118516406,0.0051653118516405,0.0051653118516405,29.335451448215,29.344137028083,0.00014988361158572,0.00014988361158572,0.00014988361158572,285347.2801642,0.015616796497994
33523200,0.99999553704217,0.015046706596819,0.0050155688656063,0.0050155688656063,0.0050155688656062,-0.0012431989405886,0.0012431989405886,2.4105881228934e-17,-1.2852548539935e-17,-8.4945934371779e-17,9.5835307591255e-17,-0.0012724600619587,0.0012724600619587,-0.0012724600619587,0.0012724600619586,-0.0012724600619587,0.0012724600619587,-0.0012724600619587,0.0012724600619587,-0.0012229938675174,0.0012229938675176,-0.0012229938675175,0.0012229938675175,9.9776363665285e-17,-8.0203432193142e-17,-1.0154101563873e-17,3.4984225373576e-17,-0.0012431989405886,0.0012431989405886,-0.0012724600619586,0.0012724600619587,-0.0012724600619586,0.0012724600619587,-0.0012724600619587,0.0012724600619587,-0.0012724600619587,0.0012724600619586,-0.0012229938675175,0.0012229938675175,-0.0012229938675175,0.0012229938675175,-0.0012229938675174,0.0012229938675176,-0.0012229938675176,0.0012229938675175,-2.1991975219077e-17,1.6631844849733e-17,-0.0012431989405886,0.0012431989405886,1.3014308304168e-17,-2.4249259201777e-17,-0.0012724600619587,0.0012724600619587,-0.0012724600619586,0.0012724600619586,-0.0012724600619586,0.0012724600619586,-0.0012724600619586,0.0012724600619587,-0.0012229938675175,0.0012229938675175,-0.0012229938675175,0.0012229938675175,0.76555207298246,0.90736645356456,1270536,32768,0.0051665902181097,0.0051665902181097,0.0051665902181097,29.466582766148,29.475353230405,0.00015093266212918,0.00015093266212918,0.00015093266212918,282762.96514745,0.015620691706124
33609600,0.999995703332,0.015046709390378,0.0050155697967927,0.0050155697967926,0.0050155697967926,-0.0012435022889018,0.0012435022889018,2.4877916467317e-17,-1.2389327396905e-17,-8.4909170788999e-17,9.6599990113082e-17,-0.001272756282326,0.001272756282326,-0.0012727562823261,0.001272756282326,-0.001272756282326,0.0012727562823261,-0.001272756282326,0.0012727562823261,-0.0012232988092722,0.0012232988092724,-0.0012232988092723,0.0012232988092723,9.558531522835e-17,-8.5438566381033e-17,-1.4756902127946e-17,3.1087285598882e-17,-0.0012435022889018,0.0012435022889018,-0.001272756282326,0.001272756282326,-0.0012727562823259,0.0012727562823261,-0.001272756282326,0.001272756282326,-0.001272756282326,0.001272756282326,-0.0012232988092723,0.0012232988092723,-0.0012232988092723,0.0012232988092723,-0.0012232988092722,0.0012232988092724,-0.0012232988092724,0.0012232988092723,-1.6683313865625e-17,2.2161087699865e-17,-0.0012435022889018,0.0012435022889018,1.9072946746334e-17,-1.9087652179446e-17,-0.001272756282326,0.001272756282326,-0.001272756282326,0.001272756282326,-0.001272756282326,0.001272756282326,-0.001272756282326,0.001272756282326,-0.0012232988092723,0.0012232988092723,-0.0012232988092723,0.0012232988092723,0.76570876870888,0.85812931190057,1270536,32768,0.0051678476027331,0.0051678476027331,0.0051678476027331,29.597787216045,29.606569432728,0.00015198229772836,0.00015198229772836,0.00015198229772836,280259.87904884,0.015624522988649
33696000,0.99999586462113,0.015046712166969,0.0050155707223231,0.005015570722323,0.005015570722323,-0.00124369546849,0.00124369546849,2.2032415160135e-17,-1.5043658073631e-17,-8.8239951388879e-17,9.3688314356895e-17,-0.0012729810608162,0.0012729810608162,-0.0012729810608163,0.0012729810608162,-0.0012729810608162,0.0012729810608163,-0.0012729810608162,0.0012729810608163,-0.0012234606332337,0.0012234606332339,-0.0012234606332338,0.0012234606332338,9.9438138703708e-17,-8.2203371096381e-17,-1.1881989954539e-17,3.4160721119301e-17,-0.00124369546849,0.0012436954684901,-0.0012729810608161,0.0012729810608162,-0.0012729810608161,0.0012729810608163,-0.0012729810608162,0.0012729810608162,-0.0012729810608162,0.0012729810608162,-0.0012234606332338,0.0012234606332338,-0.0012234606332338,0.0012234606332338,-0.0012234606332337,0.0012234606332339,-0.0012234606332339,0.0012234606332338,-1.5584082740499e-17,2.3293406049493e-17,-0.00124369546849,0.00124369546849,1.9925861866833e-17,-1.8499434854964e-17,-0.0012729810608162,0.0012729810608162,-0.0012729810608162,0.0012729810608162,-0.0012729810608162,0.0012729810608162,-0.0012729810608162,0.0012729810608162,-0.0012234606332337,0.0012234606332338,-0.0012234606332338,0.0012234606332338,0.78465290720277,0.94143566578773,1270536,32768,0.0051686483308805,0.0051686483308804,0.0051686483308804,29.728998993067,29.73778563505,0.00015303199194453,0.00015303199194453,0.00015303199194453,281105.40566065,0.015626962693446
33782400,0.99999602101339,0.01504671487627,0.0050155716254232,0.0050155716254232,0.0050155716254232,-0.0012440632396804,0.0012440632396804,2.2161087699865e-17,-1.5021599923963e-17,-8.8313478554439e-17,9.3497143726438e-17,-0.0012733185113471,0.001273318511347,-0.0012733185113471,0.001273318511347,-0.0012733185113471,0.0012733185113471,-0.0012733185113471,0.0012733185113471,-0.0012238581768546,0.0012238581768548,-0.0012238581768547,0.0012238581768547,1.0198953134865e-16,-7.8946117662061e-17,-6.4998014355278e-18,3.6454768684781e-17,-0.0012440632396804,0.0012440632396804,-0.001273318511347,0.0012733185113471,-0.001273318511347,0.0012733185113471,-0.001273318511347,0.001273318511347,-0.0012733185113471,0.001273318511347,-0.0012238581768547,0.0012238581768547,-0.0012238581768547,0.0012238581768547,-0.0012238581768546,0.0012238581768548,-0.0012238581768547,0.0012238581768547,-1.4738520336556e-17,2.3999266838872e-17,-0.0012440632396804,0.0012440632396804,1.954352060592e-17,-1.574951886301e-17,-0.001273318511347,0.001273318511347,-0.001273318511347,0.001273318511347,-0.001273318511347,0.001273318511347,-0.001273318511347,0.001273318511347,-0.0012238581768546,0.0012238581768547,-0.0012238581768547,0.0012238581768547,0.78961215248247,0.9123616557077,1270536,32768,0.0051701727819727,0.0051701727819726,0.0051701727819726,29.860211507689,29.869001837372,0.00015408169206151,0.00015408169206151,0.00015408169206151,276640.73068043,0.015631607795535
33868800,0.99999617261206,0.015046717454639,0.0050155724848798,0.0050155724848798,0.0050155724848797,-0.0012442927387122,0.0012442927387122,2.7477101769873e-17,-9.7791130195158e-18,-8.1784266252687e-17,9.895285941101e-17,-0.0012735659024107,0.0012735659024106,-0.0012735659024107,0.0012735659024106,-0.0012735659024106,0.0012735659024107,-0.0012735659024106,0.0012735659024107,-0.0012240686423214,0.0012240686423216,-0.0012240686423215,0.0012240686423215,1.0088662386525e-16,-7.9549040419655e-17,-7.9850501798452e-18,3.4822465609343e-17,-0.0012442927387122,0.0012442927387122,-0.0012735659024106,0.0012735659024106,-0.0012735659024106,0.0012735659024107,-0.0012735659024106,0.0012735659024106,-0.0012735659024106,0.0012735659024106,-0.0012240686423215,0.0012240686423215,-0.0012240686423215,0.0012240686423215,-0.0012240686423214,0.0012240686423216,-0.0012240686423216,0.0012240686423215,-1.9775131177434e-17,1.8764132650981e-17,-0.0012442927387122,0.0012442927387122,1.3940750590227e-17,-2.1043474783349e-17,-0.0012735659024106,0.0012735659024106,-0.0012735659024106,0.0012735659024106,-0.0012735659024106,0.0012735659024106,-0.0012735659024106,0.0012735659024106,-0.0012240686423215,0.0012240686423215,-0.0012240686423215,0.0012240686423215,0.77515061088173,0.79912606441466,1270536,32768,0.0051711240561244,0.0051711240561244,0.0051711240561243,29.99142409637,30.000218039695,0.00015513139277096,0.00015513139277096,0.00015513139277096,276260.122022,0.015634506281857
33955200,0.99999631951976,0.015046719928671,0.0050155733095572,0.0050155733095571,0.0050155733095571,-0.0012443690358709,0.0012443690358709,2.3866917940863e-17,-1.3161362635288e-17,-8.477682189099e-17,9.4305942547601e-17,-0.0012737132765665,0.0012737132765665,-0.0012737132765665,0.0012737132765664,-0.0012737132765665,0.0012737132765665,-0.0012737132765665,0.0012737132765665,-0.0012240829683012,0.0012240829683014,-0.0012240829683013,0.0012240829683013,9.8783746930222e-17,-7.9821090932228e-17,-8.9261978990167e-18,3.3910728756396e-17,-0.0012443690358709,0.0012443690358709,-0.0012737132765664,0.0012737132765665,-0.0012737132765664,0.0012737132765665,-0.0012737132765665,0.0012737132765665,-0.0012737132765665,0.0012737132765664,-0.0012240829683013,0.0012240829683013,-0.0012240829683013,0.0012240829683013,-0.0012240829683012,0.0012240829683014,-0.0012240829683014,0.0012240829683013,-1.8992066864218e-17,1.9661164070816e-17,-0.0012443690358709,0.0012443690358709,1.5073068939855e-17,-1.9955272733057e-17,-0.0012737132765665,0.0012737132765665,-0.0012737132765665,0.0012737132765664,-0.0012737132765664,0.0012737132765665,-0.0012737132765664,0.0012737132765665,-0.0012240829683013,0.0012240829683013,-0.0012240829683013,0.0012240829683013,0.76751444513965,0.77434335722282,1270536,32768,0.0051714403162761,0.005171440316276,0.005171440316276,30.122636692169,30.131434242017,0.00015618109353735,0.00015618109353735,0.00015618109353735,280644.68795256,0.015635469624474
34041600,0.99999646193349,0.015046722303825,0.005015574101275,0.005015574101275,0.005015574101275,-0.0012445638415458,0.0012445638415458,2.4374255383229e-17,-1.2749610508151e-17,-8.4063608385056e-17,9.4747105540963e-17,-0.0012739414783239,0.0012739414783239,-0.001273941478324,0.0012739414783239,-0.0012739414783239,0.001273941478324,-0.0012739414783239,0.001273941478324,-0.0012242586915932,0.0012242586915934,-0.0012242586915933,0.0012242586915933,9.8055827991175e-17,-8.0203432193142e-17,-9.551178806279e-18,3.3719558125939e-17,-0.0012445638415457,0.0012445638415458,-0.0012739414783239,0.0012739414783239,-0.0012739414783238,0.001273941478324,-0.0012739414783239,0.0012739414783239,-0.0012739414783239,0.0012739414783239,-0.0012242586915933,0.0012242586915933,-0.0012242586915933,0.0012242586915933,-0.0012242586915932,0.0012242586915934,-0.0012242586915934,0.0012242586915933,-1.7168593158323e-17,2.1572870375383e-17,-0.0012445638415457,0.0012445638415458,1.7220062174215e-17,-1.8352380523843e-17,-0.0012739414783239,0.0012739414783239,-0.0012739414783239,0.0012739414783239,-0.0012739414783239,0.0012739414783239,-0.0012739414783239,0.0012739414783239,-0.0012242586915932,0.0012242586915933,-0.0012242586915933,0.0012242586915933,0.76011153648683,0.75098643361818,1270536,32768,0.0051722478547227,0.0051722478547227,0.0051722478547227,30.265685518823,30.275253776393,0.00015732548415058,0.00015732548415058,0.00015732548415058,282368.31998374,0.015637929939108
34128000,0.99999660093607,0.015046724598225,0.0050155748660752,0.0050155748660751,0.0050155748660751,-0.0012450155662936,0.0012450155662936,2.2554458035613e-17,-1.4646611379606e-17,-8.3901848620823e-17,9.2570701440379e-17,-0.0012744153832947,0.0012744153832946,-0.0012744153832947,0.0012744153832946,-0.0012744153832947,0.0012744153832947,-0.0012744153832947,0.0012744153832947,-0.0012246994317634,0.0012246994317636,-0.0012246994317635,0.0012246994317635,9.3276562229757e-17,-8.2460716175842e-17,-1.3940750590227e-17,3.0704944337968e-17,-0.0012450155662936,0.0012450155662936,-0.0012744153832946,0.0012744153832947,-0.0012744153832946,0.0012744153832947,-0.0012744153832947,0.0012744153832946,-0.0012744153832947,0.0012744153832946,-0.0012246994317635,0.0012246994317635,-0.0012246994317635,0.0012246994317635,-0.0012246994317634,0.0012246994317636,-0.0012246994317636,0.0012246994317635,-2.0859656869448e-17,1.8146504460274e-17,-0.0012450155662936,0.0012450155662936,1.3131951769064e-17,-2.3719863609743e-17,-0.0012744153832947,0.0012744153832947,-0.0012744153832946,0.0012744153832946,-0.0012744153832946,0.0012744153832946,-0.0012744153832946,0.0012744153832947,-0.0012246994317635,0.0012246994317635,-0.0012246994317635,0.0012246994317635,0.75228474423239,0.72762951001354,1270536,32768,0.005174120377492,0.005174120377492,0.005174120377492,30.535933519722,30.553782449215,0.00015948746815777,0.00015948746815777,0.00015948746815777,283759.05233407,0.01564363514317
34214400,0.99999673657775,0.015046726795971,0.005015575598657,0.0050155755986569,0.0050155755986569,-0.0012454855132888,0.0012454855132888,2.4179408394495e-17,-1.3087835469728e-17,-8.3820968738707e-17,9.3320678529094e-17,-0.0012749063546307,0.0012749063546307,-0.0012749063546307,0.0012749063546307,-0.0012749063546307,0.0012749063546307,-0.0012749063546307,0.0012749063546307,-0.001225158606799,0.0012251586067991,-0.0012251586067991,0.0012251586067991,9.7217618303788e-17,-7.9218168174634e-17,-1.1021722117484e-17,3.3572503794819e-17,-0.0012454855132888,0.0012454855132888,-0.0012749063546306,0.0012749063546306,-0.0012749063546306,0.0012749063546307,-0.0012749063546306,0.0012749063546306,-0.0012749063546307,0.0012749063546306,-0.0012251586067991,0.001225158606799,-0.0012251586067991,0.001225158606799,-0.001225158606799,0.0012251586067992,-0.0012251586067991,0.0012251586067991,-1.6944335303364e-17,2.1881684470736e-17,-0.0012454855132888,0.0012454855132888,1.8793543517205e-17,-1.8278853358283e-17,-0.0012749063546306,0.0012749063546306,-0.0012749063546306,0.0012749063546306,-0.0012749063546306,0.0012749063546306,-0.0012749063546306,0.0012749063546307,-0.001225158606799,0.0012251586067991,-0.0012251586067991,0.0012251586067991,0.73844655541518,0.67431668349713,1270536,32768,0.0051760684237178,0.0051760684237178,0.0051760684237177,30.8136817624,30.832311122036,0.0001617094540992,0.0001617094540992,0.0001617094540992,285251.6388975,0.015649570537157
34300800,0.99999686885468,0.015046728885419,0.0050155762951398,0.0050155762951397,0.0050155762951397,-0.0012459065517759,0.0012459065517759,2.2778715890571e-17,-1.4234859252468e-17,-8.4343011614185e-17,9.3335383962206e-17,-0.0012753639681679,0.0012753639681679,-0.0012753639681679,0.0012753639681679,-0.0012753639681679,0.0012753639681679,-0.0012753639681679,0.0012753639681679,-0.0012255540064705,0.0012255540064707,-0.0012255540064706,0.0012255540064706,9.3908895853576e-17,-8.3173929681777e-17,-1.2933428422051e-17,3.0425541108839e-17,-0.0012459065517759,0.0012459065517759,-0.0012753639681678,0.0012753639681679,-0.0012753639681678,0.0012753639681679,-0.0012753639681678,0.0012753639681678,-0.0012753639681679,0.0012753639681678,-0.0012255540064706,0.0012255540064706,-0.0012255540064706,0.0012255540064706,-0.0012255540064705,0.0012255540064707,-0.0012255540064707,0.0012255540064706,-1.9756749386044e-17,1.8867070682765e-17,-0.0012459065517759,0.0012459065517759,1.3852517991555e-17,-2.1455226910487e-17,-0.0012753639681679,0.0012753639681678,-0.0012753639681679,0.0012753639681678,-0.0012753639681678,0.0012753639681678,-0.0012753639681678,0.0012753639681679,-0.0012255540064706,0.0012255540064706,-0.0012255540064706,0.0012255540064706,0.71991240237977,0.61110028707412,1270536,32768,0.0051778137395571,0.005177813739557,0.005177813739557,31.092118540687,31.110839794858,0.0001639369483255,0.0001639369483255,0.0001639369483255,288431.86281969,0.015654888153154
34387200,0.99999699776149,0.015046730921636,0.0050155769738787,0.0050155769738786,0.0050155769738786,-0.0012462968397554,0.0012462968397554,2.4341168158727e-17,-1.2889312122715e-17,-8.3115107949328e-17,9.4614756642954e-17,-0.0012757988511913,0.0012757988511913,-0.0012757988511913,0.0012757988511913,-0.0012757988511913,0.0012757988511913,-0.0012757988511913,0.0012757988511913,-0.0012259130939875,0.0012259130939877,-0.0012259130939876,0.0012259130939876,1.0180571343475e-16,-7.5093294186703e-17,-5.0807271402146e-18,3.8057660893995e-17,-0.0012462968397554,0.0012462968397554,-0.0012757988511912,0.0012757988511913,-0.0012757988511912,0.0012757988511913,-0.0012757988511913,0.0012757988511913,-0.0012757988511913,0.0012757988511913,-0.0012259130939876,0.0012259130939876,-0.0012259130939876,0.0012259130939876,-0.0012259130939875,0.0012259130939877,-0.0012259130939876,0.0012259130939876,-2.0613340864821e-17,1.7881806664257e-17,-0.0012462968397554,0.0012462968397554,1.4411324449813e-17,-2.0911125885341e-17,-0.0012757988511913,0.0012757988511913,-0.0012757988511913,0.0012757988511913,-0.0012757988511913,0.0012757988511913,-0.0012757988511913,0.0012757988511913,-0.0012259130939875,0.0012259130939876,-0.0012259130939876,0.0012259130939876,0.7199460920701,0.66690379671628,1270536,32768,0.0051794316046268,0.0051794316046268,0.0051794316046268,31.370623336428,31.389368467679,0.00016616498669142,0.00016616498669142,0.00016616498669142,292789.51722676,0.015659817368797
34473600,0.99999712329595,0.015046732922863,0.0050155776409544,0.0050155776409544,0.0050155776409543,-0.0012468930689184,0.0012468930689184,2.126405628003e-17,-1.6087743824587e-17,-8.6681175479001e-17,9.1482499390087e-17,-0.001276365166542,0.0012763651665419,-0.001276365166542,0.0012763651665419,-0.0012763651665419,0.001276365166542,-0.0012763651665419,0.001276365166542,-0.0012265456318749,0.0012265456318751,-0.001226545631875,0.001226545631875,9.5555904362126e-17,-8.2151902080489e-17,-1.2940781138607e-17,3.0440246541951e-17,-0.0012468930689184,0.0012468930689184,-0.0012763651665419,0.001276365166542,-0.0012763651665419,0.001276365166542,-0.001276365166542,0.001276365166542,-0.001276365166542,0.0012763651665419,-0.001226545631875,0.001226545631875,-0.001226545631875,0.001226545631875,-0.0012265456318749,0.0012265456318751,-0.0012265456318751,0.001226545631875,-2.074568976283e-17,1.8087682727826e-17,-0.0012468930689184,0.0012468930689184,1.4028983188899e-17,-2.1896389903848e-17,-0.001276365166542,0.001276365166542,-0.001276365166542,0.0012763651665419,-0.001276365166542,0.001276365166542,-0.001276365166542,0.001276365166542,-0.001226545631875,0.001226545631875,-0.001226545631875,0.001226545631875,0.72663150875782,0.72270730635844,1270536,32768,0.0051819031152039,0.0051819031152039,0.0051819031152039,31.649134973848,31.667897140501,0.00016839307979079,0.00016839307979079,0.00016839307979079,290952.60831164,0.015667348020472
34560000,0.99999724545937,0.01504673490038,0.0050155783001269,0.0050155783001268,0.0050155783001268,-0.0012475251359601,0.0012475251359601,2.142949240254e-17,-1.6109801974255e-17,-8.6159132603523e-17,9.1467793956975e-17,-0.0012769550295415,0.0012769550295415,-0.0012769550295415,0.0012769550295415,-0.0012769550295415,0.0012769550295415,-0.0012769550295415,0.0012769550295415,-0.001227215477376,0.0012272154773761,-0.0012272154773761,0.0012272154773761,9.1335445058966e-17,-8.5960609256511e-17,-1.6080391108031e-17,2.7646214250661e-17,-0.0012475251359601,0.0012475251359601,-0.0012769550295414,0.0012769550295414,-0.0012769550295414,0.0012769550295415,-0.0012769550295415,0.0012769550295414,-0.0012769550295415,0.0012769550295414,-0.0012272154773761,0.0012272154773761,-0.0012272154773761,0.0012272154773761,-0.001227215477376,0.0012272154773762,-0.0012272154773762,0.0012272154773761,-1.9378084483409e-17,1.9602342338368e-17,-0.0012475251359601,0.0012475251359601,1.6749488314629e-17,-1.9514109739695e-17,-0.0012769550295414,0.0012769550295414,-0.0012769550295414,0.0012769550295414,-0.0012769550295414,0.0012769550295414,-0.0012769550295414,0.0012769550295415,-0.0012272154773761,0.0012272154773761,-0.0012272154773761,0.0012272154773761,0.73783818121123,0.7785108160006,1270536,32768,0.0051845231301845,0.0051845231301845,0.0051845231301845,31.927647300223,31.946425813322,0.00017062117840178,0.00017062117840178,0.00017062117840178,287893.33371249,0.015675331351874
34646400,0.99999736425668,0.015046736861606,0.0050155789538687,0.0050155789538686,0.0050155789538686,-0.0012481717323554,0.0012481717323554,1.5668638980893e-17,-2.1491990493267e-17,-9.3026569866853e-17,8.6379714100204e-17,-0.0012775571959732,0.0012775571959731,-0.0012775571959732,0.0012775571959731,-0.0012775571959731,0.0012775571959732,-0.0012775571959731,0.0012775571959732,-0.0012278960701516,0.0012278960701517,-0.0012278960701516,0.0012278960701516,9.7247029170012e-17,-8.1600448338787e-17,-1.1933458970432e-17,3.2101960483614e-17,-0.0012481717323554,0.0012481717323554,-0.0012775571959731,0.0012775571959731,-0.001277557195973,0.0012775571959732,-0.0012775571959731,0.0012775571959731,-0.0012775571959731,0.0012775571959731,-0.0012278960701517,0.0012278960701516,-0.0012278960701516,0.0012278960701516,-0.0012278960701515,0.0012278960701517,-0.0012278960701517,0.0012278960701516,-2.4774978435533e-17,1.3837812558443e-17,-0.0012481717323554,0.0012481717323554,9.4702989241627e-18,-2.7072702359291e-17,-0.0012775571959731,0.0012775571959731,-0.0012775571959731,0.0012775571959731,-0.0012775571959731,0.0012775571959731,-0.0012775571959731,0.0012775571959731,-0.0012278960701516,0.0012278960701516,-0.0012278960701516,0.0012278960701516,0.75248764287996,0.83431432564276,1270536,32768,0.0051872033338749,0.0051872033338749,0.0051872033338749,32.206159693032,32.224954486144,0.00017284927754425,0.00017284927754425,0.00017284927754425,284244.95151582,0.01568349822322
34732800,0.99999748044452,0.015046738824267,0.0050155796080891,0.0050155796080891,0.0050155796080891,-0.0012490494328859,0.0012490494328859,2.6620510291095e-17,-1.0830551487028e-17,-8.0203432193142e-17,9.6555873813745e-17,-0.0012783891265646,0.0012783891265645,-0.0012783891265646,0.0012783891265645,-0.0012783891265645,0.0012783891265646,-0.0012783891265646,0.0012783891265646,-0.0012288052541368,0.0012288052541369,-0.0012288052541368,0.0012288052541368,9.1467793956975e-17,-8.4710647441986e-17,-1.5962747643134e-17,2.9352044491659e-17,-0.0012490494328859,0.0012490494328859,-0.0012783891265645,0.0012783891265645,-0.0012783891265645,0.0012783891265646,-0.0012783891265645,0.0012783891265645,-0.0012783891265645,0.0012783891265645,-0.0012288052541369,0.0012288052541368,-0.0012288052541369,0.0012288052541368,-0.0012288052541368,0.0012288052541369,-0.0012288052541369,0.0012288052541368,-2.2907388430302e-17,1.6352441620604e-17,-0.0012490494328859,0.0012490494328859,1.3308416966409e-17,-2.4455135265346e-17,-0.0012783891265645,0.0012783891265645,-0.0012783891265645,0.0012783891265645,-0.0012783891265645,0.0012783891265645,-0.0012783891265645,0.0012783891265645,-0.0012288052541368,0.0012288052541368,-0.0012288052541369,0.0012288052541368,0.7699283145139,0.89011783528492,1270536,32768,0.0051908414672417,0.0051908414672417,0.0051908414672417,32.601629587374,32.628077333204,0.00017601303669899,0.00017601303669899,0.00017601303669899,280172.75977015,0.0156945840519
34819200,0.99999759425872,0.015046740747292,0.0050155802490973,0.0050155802490973,0.0050155802490972,-0.0012500207757582,0.0012500207757582,1.7087713276207e-17,-2.1161118248245e-17,-9.2019247698677e-17,8.4835643623439e-17,-0.0012793198225522,0.0012793198225522,-0.0012793198225523,0.0012793198225522,-0.0012793198225522,0.0012793198225523,-0.0012793198225522,0.0012793198225523,-0.0012298025799685,0.0012298025799687,-0.0012298025799686,0.0012298025799686,9.7291145469348e-17,-7.8718183448824e-17,-1.1227598181053e-17,3.4469535214654e-17,-0.0012500207757582,0.0012500207757582,-0.0012793198225522,0.0012793198225522,-0.0012793198225521,0.0012793198225523,-0.0012793198225522,0.0012793198225522,-0.0012793198225522,0.0012793198225522,-0.0012298025799686,0.0012298025799686,-0.0012298025799686,0.0012298025799686,-0.0012298025799685,0.0012298025799687,-0.0012298025799687,0.0012298025799686,-1.9488375231749e-17,2.0161148796626e-17,-0.0012500207757582,0.0012500207757582,1.7058302409982e-17,-2.0793482420444e-17,-0.0012793198225522,0.0012793198225522,-0.0012793198225522,0.0012793198225522,-0.0012793198225522,0.0012793198225522,-0.0012793198225522,0.0012793198225522,-0.0012298025799686,0.0012298025799686,-0.0012298025799686,0.0012298025799686,0.77007097022586,0.83758763975058,1270536,32768,0.0051948677214637,0.0051948677214637,0.0051948677214637,33.045180413504,33.075063064154,0.00017956144330803,0.00017956144330803,0.00017956144330803,275971.40656572,0.015706852714792
34905600,0.99999770562836,0.015046742623517,0.0050155808745056,0.0050155808745056,0.0050155808745055,-0.0012508344278286,0.0012508344278286,2.4480869773292e-17,-1.3396649565081e-17,-8.3409216611569e-17,9.4541229477394e-17,-0.0012801540098823,0.0012801540098822,-0.0012801540098823,0.0012801540098822,-0.0012801540098822,0.0012801540098823,-0.0012801540098822,0.0012801540098823,-0.0012305882800564,0.0012305882800565,-0.0012305882800564,0.0012305882800564,9.8357289369972e-17,-7.8850532346833e-17,-1.0132043414205e-17,3.5998900258308e-17,-0.0012508344278286,0.0012508344278286,-0.0012801540098821,0.0012801540098822,-0.0012801540098821,0.0012801540098823,-0.0012801540098822,0.0012801540098822,-0.0012801540098822,0.0012801540098822,-0.0012305882800564,0.0012305882800564,-0.0012305882800564,0.0012305882800564,-0.0012305882800563,0.0012305882800565,-0.0012305882800565,0.0012305882800564,-2.2444167287272e-17,1.7175945874879e-17,-0.0012508344278286,0.0012508344278286,1.3367238698857e-17,-2.5322755818957e-17,-0.0012801540098822,0.0012801540098822,-0.0012801540098822,0.0012801540098822,-0.0012801540098822,0.0012801540098822,-0.0012801540098822,0.0012801540098822,-0.0012305882800564,0.0012305882800564,-0.0012305882800564,0.0012305882800564,0.76778386198326,0.80613688129707,1270536,32768,0.0051982403250407,0.0051982403250407,0.0051982403250407,33.491803882047,33.522048795105,0.00018313443105638,0.00018313443105638,0.00018313443105638,276690.87372039,0.015717129484105
34992000,0.99999781446881,0.015046744432416,0.0050155814774719,0.0050155814774719,0.0050155814774719,-0.0012516458242675,0.0012516458242675,1.8539874796022e-17,-1.9528815172807e-17,-8.8989928477594e-17,8.7688497647177e-17,-0.0012809877961667,0.0012809877961666,-0.0012809877961667,0.0012809877961666,-0.0012809877961666,0.0012809877961667,-0.0012809877961666,0.0012809877961667,-0.0012313782509871,0.0012313782509872,-0.0012313782509871,0.0012313782509872,9.2122185730461e-17,-8.4173899133396e-17,-1.7389174655004e-17,3.0190254179047e-17,-0.0012516458242675,0.0012516458242675,-0.0012809877961666,0.0012809877961666,-0.0012809877961665,0.0012809877961667,-0.0012809877961666,0.0012809877961666,-0.0012809877961666,0.0012809877961666,-0.0012313782509872,0.0012313782509871,-0.0012313782509872,0.0012313782509871,-0.0012313782509871,0.0012313782509872,-0.0012313782509872,0.0012313782509871,-1.5264239570312e-17,2.39110342402e-17,-0.0012516458242675,0.0012516458242675,2.2528723527666e-17,-1.7587698002016e-17,-0.0012809877961666,0.0012809877961666,-0.0012809877961666,0.0012809877961666,-0.0012809877961666,0.0012809877961666,-0.0012809877961666,0.0012809877961666,-0.0012313782509871,0.0012313782509872,-0.0012313782509872,0.0012313782509872,0.75742715833161,0.74465079368024,1270536,32768,0.0052016035982394,0.0052016035982393,0.0052016035982393,33.938715602012,33.969034526055,0.0001867097248161,0.0001867097248161,0.0001867097248161,277586.64378744,0.01572737787772
35078400,0.9999979206993,0.015046746173441,0.0050155820578137,0.0050155820578136,0.0050155820578136,-0.0012523979220366,0.0012523979220366,2.1322878012478e-17,-1.6131860123923e-17,-8.6820877093566e-17,9.0350181040459e-17,-0.0012817814639131,0.001281781463913,-0.0012817814639131,0.001281781463913,-0.0012817814639131,0.0012817814639131,-0.0012817814639131,0.0012817814639131,-0.0012320955847348,0.001232095584735,-0.0012320955847349,0.0012320955847349,9.6923509641547e-17,-8.0137257744137e-17,-1.0161454280429e-17,3.7028280576152e-17,-0.0012523979220366,0.0012523979220366,-0.001281781463913,0.001281781463913,-0.001281781463913,0.0012817814639131,-0.001281781463913,0.001281781463913,-0.0012817814639131,0.001281781463913,-0.0012320955847349,0.0012320955847349,-0.0012320955847349,0.0012320955847349,-0.0012320955847348,0.001232095584735,-0.001232095584735,0.0012320955847349,-1.9168532061562e-17,1.9822923835049e-17,-0.0012523979220366,0.0012523979220366,1.7146535008655e-17,-2.2396374629658e-17,-0.0012817814639131,0.0012817814639131,-0.001281781463913,0.001281781463913,-0.001281781463913,0.001281781463913,-0.001281781463913,0.0012817814639131,-0.0012320955847349,0.0012320955847349,-0.0012320955847349,0.0012320955847349,0.74691349119805,0.70622966914048,1270536,32768,0.0052047210873625,0.0052047210873624,0.0052047210873624,34.385656100666,34.416020257006,0.00019028524880532,0.00019028524880532,0.00019028524880532,280390.03694467,0.015736877277982
35164800,0.99999802424487,0.015046747842978,0.0050155826143261,0.0050155826143261,0.0050155826143261,-0.0012531691954286,0.0012531691954286,2.7024909701677e-17,-1.0558500974455e-17,-7.800496994289e-17,9.6261765151504e-17,-0.0012825849625602,0.0012825849625602,-0.0012825849625602,0.0012825849625602,-0.0012825849625602,0.0012825849625603,-0.0012825849625602,0.0012825849625602,-0.0012328448386878,0.001232844838688,-0.0012328448386879,0.0012328448386879,9.5327970148889e-17,-7.8196140573346e-17,-1.1257009047277e-17,3.5351861201377e-17,-0.0012531691954286,0.0012531691954286,-0.0012825849625601,0.0012825849625602,-0.0012825849625601,0.0012825849625602,-0.0012825849625602,0.0012825849625602,-0.0012825849625602,0.0012825849625602,-0.0012328448386879,0.0012328448386879,-0.0012328448386879,0.0012328448386879,-0.0012328448386878,0.001232844838688,-0.001232844838688,0.0012328448386879,-2.1289790787976e-17,1.7705341466913e-17,-0.0012531691954286,0.0012531691954286,1.4058394055123e-17,-2.5116879755388e-17,-0.0012825849625602,0.0012825849625602,-0.0012825849625602,0.0012825849625601,-0.0012825849625601,0.0012825849625602,-0.0012825849625602,0.0012825849625602,-0.0012328448386879,0.0012328448386879,-0.0012328448386879,0.0012328448386879,0.73482725107624,0.66780854460072,1270536,32768,0.0052079180723169,0.0052079180723168,0.0052079180723168,34.832599506838,34.863005987957,0.0001938607960547,0.0001938607960547,0.0001938607960547,282784.09722902,0.015746619001707
35251200,0.99999812503675,0.015046749438148,0.0050155831460495,0.0050155831460494,0.0050155831460494,-0.0012539381159175,0.0012539381159175,2.735210558842e-17,-1.0448210226114e-17,-7.9585804002435e-17,9.4952981604532e-17,-0.0012833839018381,0.0012833839018381,-0.0012833839018381,0.001283383901838,-0.0012833839018381,0.0012833839018381,-0.0012833839018381,0.0012833839018381,-0.0012335944581605,0.0012335944581607,-0.0012335944581606,0.0012335944581606,9.9894007130182e-17,-7.374774705695e-17,-7.110076909678e-18,3.9116452078063e-17,-0.0012539381159175,0.0012539381159175,-0.001283383901838,0.001283383901838,-0.0012833839018379,0.0012833839018381,-0.001283383901838,0.001283383901838,-0.001283383901838,0.001283383901838,-0.0012335944581606,0.0012335944581606,-0.0012335944581606,0.0012335944581606,-0.0012335944581605,0.0012335944581607,-0.0012335944581607,0.0012335944581606,-1.5867162327906e-17,2.348457667995e-17,-0.0012539381159175,0.0012539381159175,2.0234675962186e-17,-1.8352380523843e-17,-0.001283383901838,0.001283383901838,-0.001283383901838,0.001283383901838,-0.001283383901838,0.001283383901838,-0.001283383901838,0.001283383901838,-0.0012335944581605,0.0012335944581606,-0.0012335944581606,0.0012335944581606,0.7212832895477,0.62938742006096,1270536,32768,0.0052111053046792,0.0052111053046791,0.0052111053046791,35.279543195524,35.309991718907,0.00019743634556419,0.00019743634556419,0.00019743634556419,285402.08500528,0.015756331071524
35337600,0.99999822268232,0.01504675095169,0.0050155836505635,0.0050155836505634,0.0050155836505634,-0.001254582751403,0.0012545827514031,2.794399927118e-17,-9.6100005387272e-18,-7.8872590496501e-17,9.5629431527686e-17,-0.0012840584460386,0.0012840584460385,-0.0012840584460386,0.0012840584460385,-0.0012840584460385,0.0012840584460386,-0.0012840584460385,0.0012840584460386,-0.0012342204204447,0.0012342204204449,-0.0012342204204447,0.0012342204204448,8.466653114265e-17,-8.9217862690831e-17,-2.4116910303768e-17,2.341104951439e-17,-0.001254582751403,0.001254582751403,-0.0012840584460385,0.0012840584460385,-0.0012840584460385,0.0012840584460386,-0.0012840584460386,0.0012840584460385,-0.0012840584460385,0.0012840584460385,-0.0012342204204448,0.0012342204204447,-0.0012342204204448,0.0012342204204447,-0.0012342204204446,0.0012342204204448,-0.0012342204204448,0.0012342204204447,-1.6767870106019e-17,2.2175793132977e-17,-0.001254582751403,0.001254582751403,2.0499373758203e-17,-1.9587636905256e-17,-0.0012840584460385,0.0012840584460385,-0.0012840584460385,0.0012840584460385,-0.0012840584460385,0.0012840584460385,-0.0012840584460385,0.0012840584460385,-0.0012342204204447,0.0012342204204447,-0.0012342204204447,0.0012342204204447,0.70642722079513,0.5909662955212,1270536,32768,0.0052137773690521,0.0052137773690521,0.0052137773690521,35.663523323824,35.689862813927,0.00020050818659059,0.00020050818659059,0.00020050818659059,288325.00136209,0.015764473365685
35424000,0.99999831665891,0.015046752375304,0.0050155841251015,0.0050155841251014,0.0050155841251014,-0.0012550304236982,0.0012550304236982,2.1058180216461e-17,-1.6124507407367e-17,-8.470329472543e-17,8.9585498518632e-17,-0.0012845354584771,0.001284535458477,-0.0012845354584771,0.001284535458477,-0.001284535458477,0.0012845354584771,-0.001284535458477,0.0012845354584771,-0.0012346500483002,0.0012346500483004,-0.0012346500483003,0.0012346500483003,9.3798605105235e-17,-7.9990203413017e-17,-1.4631905946494e-17,3.3337216865026e-17,-0.0012550304236981,0.0012550304236982,-0.001284535458477,0.001284535458477,-0.0012845354584769,0.0012845354584771,-0.001284535458477,0.001284535458477,-0.001284535458477,0.001284535458477,-0.0012346500483003,0.0012346500483003,-0.0012346500483003,0.0012346500483003,-0.0012346500483002,0.0012346500483004,-0.0012346500483004,0.0012346500483003,-1.9087652179446e-17,1.9734691236376e-17,-0.0012550304236981,0.0012550304236982,1.7499465403344e-17,-2.2616956126339e-17,-0.001284535458477,0.001284535458477,-0.001284535458477,0.001284535458477,-0.001284535458477,0.001284535458477,-0.001284535458477,0.001284535458477,-0.0012346500483003,0.0012346500483003,-0.0012346500483003,0.0012346500483003,0.69039016511731,0.55254517098144,1270536,32768,0.0052156330196051,0.005215633019605,0.005215633019605,35.946785404403,35.966370312919,0.00020277428323522,0.00020277428323522,0.00020277428323522,291537.78628259,0.01577012785021
35510400,0.99999840699498,0.015046753757544,0.005015584585848,0.0050155845858479,0.0050155845858479,-0.0012554640370494,0.0012554640370494,2.2120647758807e-17,-1.5278945003424e-17,-8.3497449210242e-17,9.0453119072243e-17,-0.0012849943286153,0.0012849943286152,-0.0012849943286153,0.0012849943286152,-0.0012849943286152,0.0012849943286153,-0.0012849943286152,0.0012849943286153,-0.0012350684477325,0.0012350684477326,-0.0012350684477325,0.0012350684477325,9.0908987498717e-17,-8.2615123223518e-17,-1.6381852486828e-17,3.121963449689e-17,-0.0012554640370493,0.0012554640370494,-0.0012849943286152,0.0012849943286152,-0.0012849943286152,0.0012849943286153,-0.0012849943286152,0.0012849943286152,-0.0012849943286152,0.0012849943286152,-0.0012350684477326,0.0012350684477325,-0.0012350684477325,0.0012350684477325,-0.0012350684477324,0.0012350684477326,-0.0012350684477326,0.0012350684477325,-2.5646275347422e-17,1.3249595233961e-17,-0.0012554640370494,0.0012554640370493,1.0499679242006e-17,-2.9381455357884e-17,-0.0012849943286152,0.0012849943286152,-0.0012849943286152,0.0012849943286152,-0.0012849943286152,0.0012849943286152,-0.0012849943286152,0.0012849943286152,-0.0012350684477325,0.0012350684477325,-0.0012350684477326,0.0012350684477325,0.69738847687768,0.64701585131699,1270536,32768,0.0052174304063585,0.0052174304063585,0.0052174304063585,36.223914491982,36.242877811911,0.00020499131593586,0.00020499131593586,0.00020499131593586,294920.01081178,0.015775604758103
35596800,0.99999849375317,0.015046755007082,0.0050155850023608,0.0050155850023608,0.0050155850023608,-0.0012561431828701,0.0012561431828701,1.7462701820564e-17,-2.015379608007e-17,-8.785025741141e-17,8.6791466227342e-17,-0.0012856123824591,0.0012856123824591,-0.0012856123824592,0.001285612382459,-0.0012856123824591,0.0012856123824591,-0.0012856123824591,0.0012856123824591,-0.0012358079199649,0.001235807919965,-0.0012358079199649,0.0012358079199649,9.282804651984e-17,-8.1122521762645e-17,-1.4801018427282e-17,3.214607678295e-17,-0.0012561431828701,0.0012561431828701,-0.001285612382459,0.0012856123824591,-0.001285612382459,0.0012856123824591,-0.0012856123824591,0.0012856123824591,-0.0012856123824591,0.0012856123824591,-0.001235807919965,0.0012358079199649,-0.0012358079199649,0.0012358079199649,-0.0012358079199648,0.001235807919965,-0.001235807919965,0.0012358079199649,-2.0973623976067e-17,1.8322969657619e-17,-0.0012561431828701,0.0012561431828701,1.5925984060354e-17,-2.3278700616381e-17,-0.0012856123824591,0.0012856123824591,-0.0012856123824591,0.001285612382459,-0.0012856123824591,0.0012856123824591,-0.0012856123824591,0.0012856123824591,-0.0012358079199649,0.0012358079199649,-0.0012358079199649,0.0012358079199649,0.65638911794675,0.42619644272479,1270536,32768,0.0052202454918917,0.0052202454918917,0.0052202454918916,36.500470023211,36.519385310903,0.00020720376018569,0.00020720376018569,0.00020720376018569,290668.0683471,0.015784183435877
35683200,0.99999857700151,0.015046756202817,0.0050155854009391,0.0050155854009391,0.005015585400939,-0.0012562726441297,0.0012562726441296,1.9370731766853e-17,-1.8322969657619e-17,-8.7225276504147e-17,8.7041458590247e-17,-0.0012858695553035,0.0012858695553034,-0.0012858695553035,0.0012858695553034,-0.0012858695553034,0.0012858695553035,-0.0012858695553034,0.0012858695553035,-0.0012358194806644,0.0012358194806645,-0.0012358194806645,0.0012358194806645,9.7452905233581e-17,-7.604179462243e-17,-9.9996945161966e-18,3.7307683805281e-17,-0.0012562726441296,0.0012562726441297,-0.0012858695553034,0.0012858695553035,-0.0012858695553034,0.0012858695553035,-0.0012858695553034,0.0012858695553034,-0.0012858695553035,0.0012858695553034,-0.0012358194806645,0.0012358194806645,-0.0012358194806645,0.0012358194806644,-0.0012358194806644,0.0012358194806646,-0.0012358194806645,0.0012358194806645,-1.6628168491455e-17,2.2308142030986e-17,-0.0012562726441296,0.0012562726441296,1.9793512968824e-17,-1.9867040134385e-17,-0.0012858695553035,0.0012858695553034,-0.0012858695553034,0.0012858695553034,-0.0012858695553034,0.0012858695553034,-0.0012858695553034,0.0012858695553035,-0.0012358194806644,0.0012358194806645,-0.0012358194806645,0.0012358194806645,0.65458809454008,0.51863330302199,1270536,32768,0.0052207821582313,0.0052207821582313,0.0052207821582313,36.776967980052,36.795892809896,0.00020941574384041,0.00020941574384041,0.00020941574384041,303628.31048507,0.015785818031372
35769600,0.99999865681071,0.015046757363782,0.0050155857879275,0.0050155857879274,0.0050155857879274,-0.0012569190435491,0.0012569190435492,2.3664718235573e-17,-1.3845165274999e-17,-8.3203340548001e-17,9.1570731988759e-17,-0.0012864643750237,0.0012864643750236,-0.0012864643750237,0.0012864643750236,-0.0012864643750236,0.0012864643750237,-0.0012864643750236,0.0012864643750237,-0.0012365263969753,0.0012365263969755,-0.0012365263969754,0.0012365263969754,9.2467763408595e-17,-8.1806324402355e-17,-1.5727460713342e-17,3.3278395132578e-17,-0.0012569190435491,0.0012569190435491,-0.0012864643750236,0.0012864643750236,-0.0012864643750235,0.0012864643750237,-0.0012864643750236,0.0012864643750236,-0.0012864643750236,0.0012864643750236,-0.0012365263969754,0.0012365263969754,-0.0012365263969754,0.0012365263969754,-0.0012365263969753,0.0012365263969755,-0.0012365263969755,0.0012365263969754,-2.7021233343399e-17,1.2176098616781e-17,-0.0012569190435491,0.0012569190435491,9.7497021532917e-18,-3.1454921426683e-17,-0.0012864643750236,0.0012864643750236,-0.0012864643750236,0.0012864643750236,-0.0012864643750236,0.0012864643750236,-0.0012864643750236,0.0012864643750236,-0.0012365263969754,0.0012365263969754,-0.0012365263969754,0.0012365263969754,0.66307094995028,0.60432253861507,1270536,32768,0.0052234615486623,0.0052234615486623,0.0052234615486623,37.053460050194,37.072400308888,0.00021162768040155,0.00021162768040155,0.00021162768040155,300805.77694186,0.015793983143836
35856000,0.99999873325374,0.015046758501874,0.0050155861672913,0.0050155861672913,0.0050155861672913,-0.0012576189311971,0.0012576189311971,2.3311787840883e-17,-1.4227506535912e-17,-8.2901879169203e-17,9.1394266791415e-17,-0.0012870941051729,0.0012870941051729,-0.0012870941051729,0.0012870941051728,-0.0012870941051729,0.0012870941051729,-0.0012870941051729,0.0012870941051729,-0.0012372876482284,0.0012372876482285,-0.0012372876482284,0.0012372876482284,9.3725077939675e-17,-8.0100494161357e-17,-1.5330414019316e-17,3.3646030960379e-17,-0.0012576189311971,0.0012576189311971,-0.0012870941051728,0.0012870941051729,-0.0012870941051728,0.0012870941051729,-0.0012870941051729,0.0012870941051729,-0.0012870941051729,0.0012870941051728,-0.0012372876482284,0.0012372876482284,-0.0012372876482284,0.0012372876482284,-0.0012372876482283,0.0012372876482285,-0.0012372876482285,0.0012372876482284,-2.2639014276007e-17,1.6278914455044e-17,-0.0012576189311971,0.0012576189311971,1.5117185239191e-17,-2.5969794875887e-17,-0.0012870941051729,0.0012870941051729,-0.0012870941051729,0.0012870941051728,-0.0012870941051728,0.0012870941051729,-0.0012870941051728,0.0012870941051729,-0.0012372876482284,0.0012372876482284,-0.0012372876482285,0.0012372876482284,0.67864737708106,0.69001177420815,1270536,32768,0.0052263625659167,0.0052263625659167,0.0052263625659167,37.329951512151,37.34890780788,0.00021383961209721,0.00021383961209721,0.00021383961209721,296043.61518017,0.015802823914756
35942400,0.99999880640564,0.015046759624556,0.0050155865415187,0.0050155865415187,0.0050155865415187,-0.0012583394304259,0.0012583394304259,2.2576516185281e-17,-1.4801018427282e-17,-8.459300397709e-17,9.1526615689423e-17,-0.0012877419891516,0.0012877419891516,-0.0012877419891517,0.0012877419891516,-0.0012877419891516,0.0012877419891516,-0.0012877419891516,0.0012877419891516,-0.0012380627635334,0.0012380627635335,-0.0012380627635334,0.0012380627635334,1.0372477245587e-16,-7.2240440162964e-17,-6.3306889547392e-18,4.2086949566698e-17,-0.0012583394304259,0.0012583394304259,-0.0012877419891515,0.0012877419891516,-0.0012877419891515,0.0012877419891516,-0.0012877419891516,0.0012877419891516,-0.0012877419891516,0.0012877419891516,-0.0012380627635334,0.0012380627635334,-0.0012380627635334,0.0012380627635334,-0.0012380627635333,0.0012380627635335,-0.0012380627635335,0.0012380627635334,-2.1113325590631e-17,1.7822984931809e-17,-0.0012583394304259,0.0012583394304259,1.5161301538528e-17,-2.5499221016301e-17,-0.0012877419891516,0.0012877419891516,-0.0012877419891516,0.0012877419891516,-0.0012877419891516,0.0012877419891516,-0.0012877419891516,0.0012877419891516,-0.0012380627635334,0.0012380627635334,-0.0012380627635334,0.0012380627635334,0.69958523470943,0.77570100980123,1270536,32768,0.0052293489601241,0.0052293489601241,0.005229348960124,37.606442908111,37.625415306872,0.00021605154326489,0.00021605154326489,0.00021605154326489,290372.50281128,0.015811925066291
36028800,0.9999988763433,0.015046760728188,0.0050155869093961,0.0050155869093961,0.0050155869093961,-0.0012590645949029,0.0012590645949029,1.9194266569508e-17,-1.8572962020524e-17,-8.635030323398e-17,8.7909079143858e-17,-0.0012883987453965,0.0012883987453965,-0.0012883987453966,0.0012883987453965,-0.0012883987453965,0.0012883987453965,-0.0012883987453965,0.0012883987453965,-0.0012388343015137,0.0012388343015138,-0.0012388343015137,0.0012388343015137,9.1239859743738e-17,-8.2416599876506e-17,-1.6749488314629e-17,3.0984347567097e-17,-0.0012590645949029,0.0012590645949029,-0.0012883987453964,0.0012883987453965,-0.0012883987453964,0.0012883987453965,-0.0012883987453965,0.0012883987453965,-0.0012883987453965,0.0012883987453965,-0.0012388343015138,0.0012388343015137,-0.0012388343015138,0.0012388343015137,-0.0012388343015136,0.0012388343015138,-0.0012388343015138,0.0012388343015137,-1.8473700347018e-17,2.0719955254884e-17,-0.0012590645949029,0.0012590645949029,1.7220062174215e-17,-2.2940475654804e-17,-0.0012883987453965,0.0012883987453965,-0.0012883987453965,0.0012883987453964,-0.0012883987453964,0.0012883987453965,-0.0012883987453965,0.0012883987453965,-0.0012388343015137,0.0012388343015137,-0.0012388343015137,0.0012388343015137,0.71931304966427,0.83080222133202,1270536,32768,0.0052323546490704,0.0052323546490704,0.0052323546490704,37.882934293887,37.901922805864,0.00021826347435109,0.00021826347435109,0.00021826347435109,284288.39943968,0.015821085176085
36115200,0.99999894257096,0.015046761769056,0.0050155872563521,0.005015587256352,0.005015587256352,-0.0012594223506654,0.0012594223506654,2.181918638001e-17,-1.5925984060354e-17,-8.4931228938667e-17,8.9703141983528e-17,-0.0012887150146075,0.0012887150146075,-0.0012887150146076,0.0012887150146075,-0.0012887150146075,0.0012887150146076,-0.0012887150146075,0.0012887150146076,-0.0012392139624572,0.0012392139624574,-0.0012392139624573,0.0012392139624573,9.3210387780753e-17,-8.0843118533516e-17,-1.4462793465705e-17,3.3513682062371e-17,-0.0012594223506654,0.0012594223506654,-0.0012887150146074,0.0012887150146075,-0.0012887150146074,0.0012887150146075,-0.0012887150146075,0.0012887150146075,-0.0012887150146075,0.0012887150146075,-0.0012392139624573,0.0012392139624573,-0.0012392139624573,0.0012392139624573,-0.0012392139624572,0.0012392139624574,-0.0012392139624574,0.0012392139624573,-1.7782544990751e-17,2.1293467146254e-17,-0.0012594223506654,0.0012594223506654,1.8881776115877e-17,-2.1514048642935e-17,-0.0012887150146075,0.0012887150146075,-0.0012887150146075,0.0012887150146075,-0.0012887150146075,0.0012887150146075,-0.0012887150146075,0.0012887150146075,-0.0012392139624573,0.0012392139624573,-0.0012392139624573,0.0012392139624573,0.71635030005917,0.75354661301225,1270536,32768,0.0052338374218142,0.0052338374218142,0.0052338374218142,37.994749770353,38.0028275768,0.00021915799816282,0.00021915799816282,0.00021915799816282,279656.67395249,0.01582560433143
36201600,0.9999990044716,0.015046762739535,0.0050155875798451,0.005015587579845,0.005015587579845,-0.0012590973321679,0.0012590973321679,2.7326371080474e-17,-1.0529090108231e-17,-7.8681419866044e-17,9.5129446801876e-17,-0.0012884286500452,0.0012884286500452,-0.0012884286500453,0.0012884286500452,-0.0012884286500452,0.0012884286500453,-0.0012884286500452,0.0012884286500452,-0.0012388427329477,0.0012388427329479,-0.0012388427329478,0.0012388427329478,9.4041244751584e-17,-7.8968175811729e-17,-1.3506940313421e-17,3.4234248284861e-17,-0.0012590973321679,0.0012590973321679,-0.0012884286500451,0.0012884286500452,-0.0012884286500451,0.0012884286500452,-0.0012884286500452,0.0012884286500452,-0.0012884286500452,0.0012884286500452,-0.0012388427329478,0.0012388427329478,-0.0012388427329478,0.0012388427329478,-0.0012388427329477,0.0012388427329479,-0.0012388427329479,0.0012388427329478,-2.3866917940863e-17,1.5234828704088e-17,-0.0012590973321679,0.0012590973321679,1.2661377909478e-17,-2.7484454486429e-17,-0.0012884286500452,0.0012884286500452,-0.0012884286500452,0.0012884286500451,-0.0012884286500452,0.0012884286500452,-0.0012884286500452,0.0012884286500452,-0.0012388427329478,0.0012388427329478,-0.0012388427329478,0.0012388427329478,0.71455152743429,0.73045191308876,1270536,32768,0.0052324901662853,0.0052324901662853,0.0052324901662852,37.864840609844,37.856521077519,0.00021811872487875,0.00021811872487875,0.00021811872487875,281713.50037663,0.015821498693524
36288000,0.99999906230668,0.015046763642679,0.0050155878808931,0.005015587880893,0.005015587880893,-0.0012587805255115,0.0012587805255115,1.5459086559047e-17,-2.2381669196546e-17,-8.9975192496101e-17,8.3394511178457e-17,-0.0012881326541878,0.0012881326541878,-0.0012881326541879,0.0012881326541878,-0.0012881326541878,0.0012881326541878,-0.0012881326541878,0.0012881326541878,-0.001238505874643,0.0012385058746432,-0.0012385058746431,0.0012385058746431,9.1776608052328e-17,-8.0968114714968e-17,-1.5234828704088e-17,3.2175487649174e-17,-0.0012587805255115,0.0012587805255115,-0.0012881326541877,0.0012881326541878,-0.0012881326541877,0.0012881326541878,-0.0012881326541878,0.0012881326541878,-0.0012881326541878,0.0012881326541878,-0.0012385058746431,0.0012385058746431,-0.0012385058746431,0.0012385058746431,-0.001238505874643,0.0012385058746432,-0.0012385058746432,0.0012385058746431,-1.9095004896002e-17,2.0146443363514e-17,-0.0012587805255115,0.0012587805255115,1.7499465403344e-17,-2.2146382266753e-17,-0.0012881326541878,0.0012881326541878,-0.0012881326541878,0.0012881326541877,-0.0012881326541878,0.0012881326541878,-0.0012881326541878,0.0012881326541878,-0.0012385058746431,0.0012385058746431,-0.0012385058746431,0.0012385058746431,0.71171913332489,0.7114984176409,1270536,32768,0.0052311770049556,0.0052311770049556,0.0052311770049555,37.720083640261,37.710214578237,0.00021696066912209,0.00021696066912209,0.00021696066912209,282533.81843491,0.015817496884307
36374400,0.99999911636412,0.015046764482063,0.0050155881606878,0.0050155881606878,0.0050155881606878,-0.0012584622503133,0.0012584622503133,2.1697866556835e-17,-1.5830398745126e-17,-8.4137135550616e-17,8.9673731117304e-17,-0.0012878325177362,0.0012878325177362,-0.0012878325177363,0.0012878325177362,-0.0012878325177362,0.0012878325177363,-0.0012878325177362,0.0012878325177363,-0.0012381730482085,0.0012381730482087,-0.0012381730482086,0.0012381730482086,9.5908834756815e-17,-7.7107938523054e-17,-1.1889342671096e-17,3.5719497029179e-17,-0.0012584622503133,0.0012584622503133,-0.0012878325177362,0.0012878325177362,-0.0012878325177361,0.0012878325177363,-0.0012878325177362,0.0012878325177362,-0.0012878325177362,0.0012878325177362,-0.0012381730482086,0.0012381730482086,-0.0012381730482086,0.0012381730482086,-0.0012381730482085,0.0012381730482087,-0.0012381730482087,0.0012381730482086,-2.2260349373371e-17,1.6852426346414e-17,-0.0012584622503133,0.0012584622503133,1.4514262481597e-17,-2.5116879755388e-17,-0.0012878325177362,0.0012878325177362,-0.0012878325177362,0.0012878325177362,-0.0012878325177362,0.0012878325177362,-0.0012878325177362,0.0012878325177362,-0.0012381730482086,0.0012381730482086,-0.0012381730482086,0.0012381730482086,0.70768953661049,0.69254492219304,1270536,32768,0.0052298577708736,0.0052298577708735,0.0052298577708735,37.573929620238,37.563908078955,0.0002157914369619,0.0002157914369619,0.0002157914369619,283339.17209432,0.015813476551582
36460800,0.99999916691363,0.015046765261369,0.0050155884204564,0.0050155884204564,0.0050155884204563,-0.0012581407655946,0.0012581407655946,2.1179500039636e-17,-1.632303075438e-17,-8.5365039215473e-17,8.8556118200788e-17,-0.0012875284320372,0.0012875284320372,-0.0012875284320373,0.0012875284320372,-0.0012875284320372,0.0012875284320373,-0.0012875284320372,0.0012875284320372,-0.0012378390973339,0.0012378390973341,-0.001237839097334,0.001237839097334,9.8371994803084e-17,-7.5240348517823e-17,-9.3967717586024e-18,3.8175304358892e-17,-0.0012581407655946,0.0012581407655946,-0.0012875284320371,0.0012875284320372,-0.0012875284320371,0.0012875284320373,-0.0012875284320372,0.0012875284320372,-0.0012875284320372,0.0012875284320372,-0.001237839097334,0.001237839097334,-0.001237839097334,0.001237839097334,-0.0012378390973339,0.0012378390973341,-0.0012378390973341,0.001237839097334,-2.3297082407771e-17,1.5925984060354e-17,-0.0012581407655946,0.0012581407655946,1.3249595233961e-17,-2.6455074168585e-17,-0.0012875284320372,0.0012875284320372,-0.0012875284320372,0.0012875284320372,-0.0012875284320372,0.0012875284320372,-0.0012875284320372,0.0012875284320372,-0.001237839097334,0.001237839097334,-0.001237839097334,0.001237839097334,0.70262273173905,0.67359142674518,1270536,32768,0.0052285252413275,0.0052285252413274,0.0052285252413274,37.427634714025,37.417601579673,0.0002146210777122,0.0002146210777122,0.0002146210777122,284288.63549516,0.015809415692774
36547200,0.99999921420453,0.015046765958511,0.0050155886528371,0.0050155886528371,0.0050155886528371,-0.0012578168766591,0.0012578168766591,2.7274902064582e-17,-1.0315861328106e-17,-7.8982881244841e-17,9.5232384833661e-17,-0.0012872210915736,0.0012872210915735,-0.0012872210915736,0.0012872210915735,-0.0012872210915735,0.0012872210915736,-0.0012872210915735,0.0012872210915736,-0.0012375042075857,0.0012375042075859,-0.0012375042075858,0.0012375042075858,9.787936279383e-17,-7.5777096826413e-17,-9.4261826248265e-18,3.7542970735073e-17,-0.0012578168766591,0.0012578168766591,-0.0012872210915735,0.0012872210915736,-0.0012872210915735,0.0012872210915736,-0.0012872210915735,0.0012872210915735,-0.0012872210915735,0.0012872210915735,-0.0012375042075858,0.0012375042075858,-0.0012375042075858,0.0012375042075858,-0.0012375042075857,0.0012375042075859,-0.0012375042075859,0.0012375042075858,-2.0293497694634e-17,1.8881776115877e-17,-0.0012578168766591,0.0012578168766591,1.5852456894794e-17,-2.3705158176631e-17,-0.0012872210915735,0.0012872210915735,-0.0012872210915735,0.0012872210915735,-0.0012872210915735,0.0012872210915735,-0.0012872210915735,0.0012872210915735,-0.0012375042075857,0.0012375042075858,-0.0012375042075858,0.0012375042075858,0.67176094992296,0.51734844106458,1270536,32768,0.0052271827519561,0.005227182751956,0.005227182751956,37.281325361955,37.271295080391,0.00021345060289564,0.00021345060289564,0.00021345060289564,285376.39308291,0.015805324478331
36633600,0.99999925846706,0.015046766591344,0.0050155888637812,0.0050155888637812,0.0050155888637812,-0.0012572418837219,0.0012572418837219,2.1157441889967e-17,-1.6609786700065e-17,-8.4644472992982e-17,8.8056133474978e-17,-0.0012867465534309,0.0012867465534308,-0.0012867465534309,0.0012867465534308,-0.0012867465534309,0.0012867465534309,-0.0012867465534309,0.0012867465534309,-0.0012368438550574,0.0012368438550575,-0.0012368438550574,0.0012368438550574,9.1592790138427e-17,-8.0637242469947e-17,-1.5484821066993e-17,3.1866673553821e-17,-0.0012572418837219,0.0012572418837219,-0.0012867465534308,0.0012867465534309,-0.0012867465534308,0.0012867465534309,-0.0012867465534309,0.0012867465534308,-0.0012867465534309,0.0012867465534308,-0.0012368438550575,0.0012368438550574,-0.0012368438550574,0.0012368438550574,-0.0012368438550573,0.0012368438550575,-0.0012368438550575,0.0012368438550574,-2.2933122938248e-17,1.6411263353052e-17,-0.0012572418837219,0.0012572418837219,1.3690758227322e-17,-2.6249198105016e-17,-0.0012867465534309,0.0012867465534308,-0.0012867465534309,0.0012867465534308,-0.0012867465534308,0.0012867465534308,-0.0012867465534308,0.0012867465534309,-0.0012368438550574,0.0012368438550574,-0.0012368438550574,0.0012368438550574,0.65146986607376,0.48156401590332,1270536,32768,0.0052247994805623,0.0052247994805623,0.0052247994805622,37.135014522842,37.124988581109,0.00021228011618274,0.00021228011618274,0.00021228011618274,294531.91369142,0.015798061106486
36720000,0.99999929991392,0.015046767186404,0.0050155890621347,0.0050155890621347,0.0050155890621346,-0.0012568271402841,0.0012568271402841,2.4197790185885e-17,-1.3433413147861e-17,-8.1247517944097e-17,9.1953073249673e-17,-0.0012863721942371,0.001286372194237,-0.0012863721942371,0.001286372194237,-0.001286372194237,0.0012863721942371,-0.001286372194237,0.0012863721942371,-0.0012364089176101,0.0012364089176102,-0.0012364089176101,0.0012364089176102,9.4379469713162e-17,-7.8402016636915e-17,-1.2815784957155e-17,3.4925403641128e-17,-0.001256827140284,0.0012568271402841,-0.001286372194237,0.0012863721942371,-0.001286372194237,0.0012863721942371,-0.0012863721942371,0.001286372194237,-0.0012863721942371,0.001286372194237,-0.0012364089176102,0.0012364089176101,-0.0012364089176102,0.0012364089176101,-0.0012364089176101,0.0012364089176102,-0.0012364089176102,0.0012364089176101,-2.1304496221088e-17,1.7911217530482e-17,-0.0012568271402841,0.0012568271402841,1.532306130276e-17,-2.4425724399121e-17,-0.001286372194237,0.001286372194237,-0.001286372194237,0.001286372194237,-0.001286372194237,0.001286372194237,-0.001286372194237,0.0012863721942371,-0.0012364089176101,0.0012364089176101,-0.0012364089176102,0.0012364089176102,0.65430541716043,0.56834652841547,1270536,32768,0.0052230804761392,0.0052230804761392,0.0052230804761392,36.988703530965,36.978682081827,0.00021110962824772,0.00021110962824772,0.00021110962824772,299120.45349589,0.015792822253375
36806400,0.99999933874168,0.015046767719802,0.0050155892399341,0.0050155892399341,0.0050155892399341,-0.0012566689391877,0.0012566689391877,2.3205173450821e-17,-1.4551026064377e-17,-8.2725413971859e-17,9.0820754900045e-17,-0.0012861624325352,0.0012861624325352,-0.0012861624325353,0.0012861624325352,-0.0012861624325352,0.0012861624325353,-0.0012861624325352,0.0012861624325353,-0.001236308573781,0.0012363085737812,-0.0012363085737811,0.0012363085737811,9.6283823301173e-17,-7.6630011946913e-17,-1.0705555305575e-17,3.673417191391e-17,-0.0012566689391877,0.0012566689391877,-0.0012861624325352,0.0012861624325352,-0.0012861624325351,0.0012861624325353,-0.0012861624325352,0.0012861624325352,-0.0012861624325352,0.0012861624325352,-0.0012363085737811,0.0012363085737811,-0.0012363085737811,0.0012363085737811,-0.001236308573781,0.0012363085737812,-0.0012363085737812,0.0012363085737811,-2.1565517658827e-17,1.7867101231145e-17,-0.0012566689391877,0.0012566689391877,1.5205417837864e-17,-2.4396313532897e-17,-0.0012861624325352,0.0012861624325352,-0.0012861624325352,0.0012861624325352,-0.0012861624325352,0.0012861624325352,-0.0012861624325352,0.0012861624325352,-0.0012363085737811,0.0012363085737811,-0.0012363085737811,0.0012363085737811,0.62602295148402,0.43194025391056,1270536,32768,0.0052224247958327,0.0052224247958326,0.0052224247958326,36.842392523844,36.832375582545,0.00020993914019075,0.00020993914019075,0.00020993914019075,295645.83640581,0.015790824251581
36892800,0.9999993753617,0.015046768224362,0.0050155894081207,0.0050155894081206,0.0050155894081206,-0.0012563610959232,0.0012563610959232,2.5580100898418e-17,-1.2220214916117e-17,-7.9843149081896e-17,9.3688314356895e-17,-0.0012859280830032,0.0012859280830031,-0.0012859280830032,0.0012859280830031,-0.0012859280830031,0.0012859280830032,-0.0012859280830031,0.0012859280830032,-0.001235934271701,0.0012359342717012,-0.0012359342717011,0.0012359342717011,9.7489668816361e-17,-7.5600631629069e-17,-9.823229318852e-18,3.7528265301961e-17,-0.0012563610959231,0.0012563610959232,-0.0012859280830031,0.0012859280830031,-0.001285928083003,0.0012859280830032,-0.0012859280830031,0.0012859280830031,-0.0012859280830031,0.0012859280830031,-0.0012359342717011,0.0012359342717011,-0.0012359342717011,0.0012359342717011,-0.001235934271701,0.0012359342717012,-0.0012359342717012,0.0012359342717011,-2.3444136738892e-17,1.582304602857e-17,-0.0012563610959232,0.0012563610959232,1.3293711533297e-17,-2.6425663302361e-17,-0.0012859280830031,0.0012859280830031,-0.0012859280830031,0.0012859280830031,-0.0012859280830031,0.0012859280830031,-0.0012859280830031,0.0012859280830031,-0.0012359342717011,0.0012359342717011,-0.0012359342717011,0.0012359342717011,0.62790472801918,0.52015280790738,1270536,32768,0.0052211488554271,0.0052211488554271,0.0052211488554271,36.814517928328,36.812326902647,0.00020971614342662,0.00020971614342662,0.00020971614342662,304108.33499873,0.015786935395328
36979200,0.99999941019645,0.015046768713132,0.005015589571044,0.005015589571044,0.005015589571044,-0.0012567458141566,0.0012567458141566,2.5988176667277e-17,-1.1859931804871e-17,-7.9740211050112e-17,9.3703019790007e-17,-0.0012862534759872,0.0012862534759872,-0.0012862534759872,0.0012862534759871,-0.0012862534759872,0.0012862534759872,-0.0012862534759871,0.0012862534759872,-0.0012363805183377,0.0012363805183379,-0.0012363805183378,0.0012363805183378,9.5827954874699e-17,-7.7196171121727e-17,-1.1205540031385e-17,3.6028311124532e-17,-0.0012567458141566,0.0012567458141566,-0.0012862534759871,0.0012862534759872,-0.0012862534759871,0.0012862534759872,-0.0012862534759872,0.0012862534759871,-0.0012862534759872,0.0012862534759871,-0.0012363805183378,0.0012363805183378,-0.0012363805183378,0.0012363805183378,-0.0012363805183377,0.0012363805183379,-0.0012363805183379,0.0012363805183378,-2.13192016542e-17,1.8102388160938e-17,-0.0012567458141566,0.0012567458141566,1.5411293901432e-17,-2.4161026603104e-17,-0.0012862534759872,0.0012862534759871,-0.0012862534759871,0.0012862534759871,-0.0012862534759871,0.0012862534759871,-0.0012862534759871,0.0012862534759872,-0.0012363805183378,0.0012363805183378,-0.0012363805183378,0.0012363805183378,0.63956200935375,0.6083653619042,1270536,32768,0.0052227435694225,0.0052227435694225,0.0052227435694224,36.946339828283,36.954970510237,0.00021077071862626,0.00021077071862626,0.00021077071862626,300480.69394859,0.015791795113307
37065600,0.99999944333629,0.015046769191425,0.0050155897304751,0.0050155897304751,0.0050155897304751,-0.0012571990789719,0.0012571990789719,2.0694220746938e-17,-1.7050949693426e-17,-8.5938551106843e-17,8.8629645366348e-17,-0.0012866356066084,0.0012866356066083,-0.0012866356066084,0.0012866356066083,-0.0012866356066083,0.0012866356066084,-0.0012866356066083,0.0012866356066084,-0.001236893502454,0.0012368935024541,-0.001236893502454,0.001236893502454,8.9967839779545e-17,-8.4034197518832e-17,-1.793327568015e-17,2.9278517326099e-17,-0.0012571990789719,0.0012571990789719,-0.0012866356066083,0.0012866356066083,-0.0012866356066083,0.0012866356066084,-0.0012866356066083,0.0012866356066083,-0.0012866356066083,0.0012866356066083,-0.001236893502454,0.001236893502454,-0.001236893502454,0.001236893502454,-0.0012368935024539,0.0012368935024541,-0.0012368935024541,0.001236893502454,-2.6569041275203e-17,1.2852548539935e-17,-0.0012571990789719,0.0012571990789719,9.9702836499725e-18,-2.9396160790996e-17,-0.0012866356066083,0.0012866356066083,-0.0012866356066083,0.0012866356066083,-0.0012866356066083,0.0012866356066083,-0.0012866356066083,0.0012866356066083,-0.001236893502454,0.001236893502454,-0.0012368935024541,0.001236893502454,0.65788745292516,0.69657791590101,1270536,32768,0.0052246223277586,0.0052246223277585,0.0052246223277585,37.087956635652,37.097614117828,0.00021190365308521,0.00021190365308521,0.00021190365308521,295130.39521563,0.015797520700218
37152000,0.99999947485087,0.015046769662461,0.0050155898874871,0.0050155898874871,0.0050155898874871,-0.0012576694603538,0.0012576694603538,2.3010326462086e-17,-1.4801018427282e-17,-8.2820999287087e-17,9.1114863562286e-17,-0.0012870348660557,0.0012870348660557,-0.0012870348660558,0.0012870348660557,-0.0012870348660557,0.0012870348660558,-0.0012870348660557,0.0012870348660558,-0.0012374160096972,0.0012374160096973,-0.0012374160096972,0.0012374160096972,9.6651459128974e-17,-7.6946178758822e-17,-1.0359977627442e-17,3.5851845927187e-17,-0.0012576694603538,0.0012576694603538,-0.0012870348660556,0.0012870348660557,-0.0012870348660556,0.0012870348660557,-0.0012870348660557,0.0012870348660557,-0.0012870348660557,0.0012870348660557,-0.0012374160096973,0.0012374160096972,-0.0012374160096972,0.0012374160096972,-0.0012374160096971,0.0012374160096973,-0.0012374160096973,0.0012374160096972,-1.9113386687392e-17,2.0102327064178e-17,-0.0012576694603538,0.0012576694603538,1.754358170268e-17,-2.0617017223099e-17,-0.0012870348660557,0.0012870348660557,-0.0012870348660557,0.0012870348660557,-0.0012870348660557,0.0012870348660557,-0.0012870348660557,0.0012870348660557,-0.0012374160096972,0.0012374160096972,-0.0012374160096973,0.0012374160096972,0.68133357716755,0.78479046989783,1270536,32768,0.0052265719845775,0.0052265719845775,0.0052265719845775,37.230492853116,37.240257725419,0.00021304394282493,0.00021304394282493,0.00021304394282493,289029.2488352,0.015803462491209
37238400,0.99999950480623,0.015046770128345,0.0050155900427817,0.0050155900427817,0.0050155900427817,-0.001258141676247,0.001258141676247,2.4054412213042e-17,-1.3771638109438e-17,-8.2879821019535e-17,9.0894282065605e-17,-0.0012874411027661,0.0012874411027661,-0.0012874411027662,0.0012874411027661,-0.0012874411027661,0.0012874411027662,-0.0012874411027661,0.0012874411027662,-0.0012379320916571,0.0012379320916573,-0.0012379320916572,0.0012379320916572,9.3158918764861e-17,-8.0306370224926e-17,-1.4028983188899e-17,3.2263720247846e-17,-0.001258141676247,0.001258141676247,-0.0012874411027661,0.0012874411027661,-0.001287441102766,0.0012874411027662,-0.0012874411027661,0.0012874411027661,-0.0012874411027661,0.0012874411027661,-0.0012379320916572,0.0012379320916572,-0.0012379320916572,0.0012379320916572,-0.0012379320916571,0.0012379320916573,-0.0012379320916573,0.0012379320916572,-2.1499343209823e-17,1.7837690364921e-17,-0.001258141676247,0.001258141676247,1.417603752002e-17,-2.4469840698458e-17,-0.0012874411027661,0.0012874411027661,-0.0012874411027661,0.0012874411027661,-0.0012874411027661,0.0012874411027661,-0.0012874411027661,0.0012874411027661,-0.0012379320916572,0.0012379320916572,-0.0012379320916572,0.0012379320916572,0.70896833560011,0.87300302389465,1270536,32768,0.0052285292113672,0.0052285292113671,0.0052285292113671,37.373121608767,37.38290133301,0.00021418497287014,0.00021418497287014,0.00021418497287014,282601.33161565,0.015809427452763
37324800,0.99999953326632,0.01504677056834,0.0050155901894468,0.0050155901894468,0.0050155901894468,-0.0012586092323844,0.0012586092323844,2.5785976961986e-17,-1.2242273065785e-17,-8.1048994597085e-17,9.3276562229757e-17,-0.001287849778756,0.001287849778756,-0.001287849778756,0.0012878497787559,-0.001287849778756,0.001287849778756,-0.0012878497787559,0.001287849778756,-0.00123843601164,0.0012384360116402,-0.0012384360116401,0.0012384360116401,9.7651428580594e-17,-7.6240317969443e-17,-1.0029105382421e-17,3.5748907895403e-17,-0.0012586092323844,0.0012586092323844,-0.0012878497787559,0.001287849778756,-0.0012878497787559,0.001287849778756,-0.001287849778756,0.001287849778756,-0.001287849778756,0.001287849778756,-0.0012384360116401,0.0012384360116401,-0.0012384360116401,0.0012384360116401,-0.00123843601164,0.0012384360116402,-0.0012384360116402,0.0012384360116401,-2.1771393722396e-17,1.7602403435128e-17,-0.0012586092323844,0.0012586092323844,1.3837812558443e-17,-2.4249259201777e-17,-0.001287849778756,0.001287849778756,-0.001287849778756,0.0012878497787559,-0.001287849778756,0.001287849778756,-0.001287849778756,0.001287849778756,-0.0012384360116401,0.0012384360116401,-0.0012384360116401,0.0012384360116401,0.70467690697296,0.76558456952602,1270536,32768,0.0052304670996516,0.0052304670996515,0.0052304670996515,37.515759841063,37.525544940601,0.0002153260787285,0.0002153260787285,0.0002153260787285,276056.06418286,0.015815333556617
37411200,0.99999956029313,0.01504677097439,0.0050155903247968,0.0050155903247968,0.0050155903247968,-0.0012587802740501,0.0012587802740501,2.4164702961382e-17,-1.3653994644542e-17,-8.237248357717e-17,9.1864840651e-17,-0.0012880672452698,0.0012880672452698,-0.0012880672452698,0.0012880672452698,-0.0012880672452698,0.0012880672452698,-0.0012880672452698,0.0012880672452698,-0.0012385506532845,0.0012385506532847,-0.0012385506532846,0.0012385506532846,9.2342767227142e-17,-8.1563684756007e-17,-1.432309185114e-17,3.1116696465106e-17,-0.0012587802740501,0.0012587802740501,-0.0012880672452697,0.0012880672452698,-0.0012880672452697,0.0012880672452698,-0.0012880672452698,0.0012880672452698,-0.0012880672452698,0.0012880672452697,-0.0012385506532846,0.0012385506532846,-0.0012385506532846,0.0012385506532846,-0.0012385506532845,0.0012385506532847,-0.0012385506532847,0.0012385506532846,-2.0054534406563e-17,1.9440582574135e-17,-0.0012587802740501,0.0012587802740501,1.5425999334544e-17,-2.233755289721e-17,-0.0012880672452698,0.0012880672452698,-0.0012880672452698,0.0012880672452697,-0.0012880672452698,0.0012880672452698,-0.0012880672452698,0.0012880672452698,-0.0012385506532846,0.0012385506532846,-0.0012385506532846,0.0012385506532846,0.68469135417715,0.63706424169366,1270536,32768,0.0052311759787257,0.0052311759787256,0.0052311759787256,37.658399048293,37.668188548191,0.00021646719238634,0.00021646719238634,0.00021646719238634,278677.13623748,0.015817493793563
37497600,0.99999958594676,0.015046771350909,0.0050155904503031,0.005015590450303,0.005015590450303,-0.0012588412612739,0.0012588412612739,2.4348520875283e-17,-1.3587820195538e-17,-8.251953790829e-17,9.2379530809922e-17,-0.0012882125105769,0.0012882125105768,-0.0012882125105769,0.0012882125105768,-0.0012882125105768,0.0012882125105769,-0.0012882125105768,0.0012882125105769,-0.0012385362255641,0.0012385362255642,-0.0012385362255641,0.0012385362255641,9.7070563972667e-17,-7.7372636319071e-17,-9.7276440036236e-18,3.5528326398722e-17,-0.0012588412612739,0.0012588412612739,-0.0012882125105768,0.0012882125105769,-0.0012882125105768,0.0012882125105769,-0.0012882125105769,0.0012882125105768,-0.0012882125105769,0.0012882125105768,-0.0012385362255641,0.0012385362255641,-0.0012385362255641,0.0012385362255641,-0.001238536225564,0.0012385362255642,-0.0012385362255642,0.0012385362255641,-2.4580131446798e-17,1.4867192876286e-17,-0.0012588412612739,0.0012588412612739,1.1176129165161e-17,-2.6410957869249e-17,-0.0012882125105769,0.0012882125105768,-0.0012882125105768,0.0012882125105768,-0.0012882125105768,0.0012882125105768,-0.0012882125105768,0.0012882125105768,-0.0012385362255641,0.0012385362255641,-0.0012385362255641,0.0012385362255641,0.66885546624032,0.58517435017955,1270536,32768,0.0052314287612552,0.0052314287612551,0.0052314287612551,37.801038355576,37.810832155782,0.00021760830684461,0.00021760830684461,0.00021760830684461,285008.53525395,0.015818263799347
37584000,0.99999961028546,0.015046771699728,0.005015590566576,0.0050155905665759,0.0050155905665759,-0.0012589822693101,0.0012589822693101,2.5028647156716e-17,-1.2698141492258e-17,-8.1901909717584e-17,9.3379500261542e-17,-0.001288405597447,0.0012884055974469,-0.001288405597447,0.0012884055974469,-0.0012884055974469,0.001288405597447,-0.0012884055974469,0.001288405597447,-0.0012386421455985,0.0012386421455986,-0.0012386421455986,0.0012386421455986,9.734261448524e-17,-7.7431458051519e-17,-1.0007047232753e-17,3.5572442698058e-17,-0.0012589822693101,0.0012589822693101,-0.0012884055974469,0.0012884055974469,-0.0012884055974468,0.001288405597447,-0.0012884055974469,0.0012884055974469,-0.0012884055974469,0.0012884055974469,-0.0012386421455986,0.0012386421455986,-0.0012386421455986,0.0012386421455985,-0.0012386421455985,0.0012386421455987,-0.0012386421455986,0.0012386421455986,-2.344781309717e-17,1.6073038391475e-17,-0.0012589822693101,0.0012589822693101,1.2690788775702e-17,-2.4911003691819e-17,-0.0012884055974469,0.0012884055974469,-0.0012884055974469,0.0012884055974469,-0.0012884055974469,0.0012884055974469,-0.0012884055974469,0.0012884055974469,-0.0012386421455985,0.0012386421455986,-0.0012386421455986,0.0012386421455986,0.65313632909926,0.54243370808786,1270536,32768,0.0052320132711405,0.0052320132711405,0.0052320132711404,37.943677672718,37.953475763373,0.00021874942138174,0.00021874942138174,0.00021874942138174,289149.74233716,0.015820044786792
37670400,0.99999963323647,0.015046772020222,0.0050155906734073,0.0050155906734072,0.0050155906734072,-0.0012589349178931,0.0012589349178931,2.5587453614974e-17,-1.2352563814125e-17,-8.1806324402355e-17,9.3732430656231e-17,-0.0012884015620862,0.0012884015620861,-0.0012884015620862,0.0012884015620861,-0.0012884015620861,0.0012884015620862,-0.0012884015620861,0.0012884015620862,-0.001238568874609,0.0012385688746092,-0.0012385688746091,0.0012385688746091,9.5401497314449e-17,-7.9813738215672e-17,-1.1712877473751e-17,3.3557798361707e-17,-0.0012589349178931,0.0012589349178931,-0.0012884015620861,0.0012884015620861,-0.0012884015620861,0.0012884015620862,-0.0012884015620861,0.0012884015620861,-0.0012884015620862,0.0012884015620861,-0.0012385688746091,0.0012385688746091,-0.0012385688746091,0.0012385688746091,-0.001238568874609,0.0012385688746092,-0.0012385688746092,0.0012385688746091,-2.3241937033601e-17,1.6308325321268e-17,-0.0012589349178931,0.0012589349178931,1.2470207279022e-17,-2.5146290621612e-17,-0.0012884015620862,0.0012884015620861,-0.0012884015620861,0.0012884015620861,-0.0012884015620861,0.0012884015620861,-0.0012884015620861,0.0012884015620861,-0.0012385688746091,0.0012385688746091,-0.0012385688746091,0.0012385688746091,0.63636726682518,0.49969306599618,1270536,32768,0.0052318170488125,0.0052318170488124,0.0052318170488124,37.97934342689,37.982050849136,0.00021903474741512,0.00021903474741512,0.00021903474741512,293032.81868338,0.0158194465692
37756800,0.99999965472607,0.015046772311865,0.0050155907706218,0.0050155907706218,0.0050155907706218,-0.0012586325674521,0.0012586325674521,2.2021386085301e-17,-1.5793635162346e-17,-8.5901787524062e-17,9.1026630963613e-17,-0.0012881386666555,0.0012881386666555,-0.0012881386666555,0.0012881386666554,-0.0012881386666555,0.0012881386666555,-0.0012881386666555,0.0012881386666555,-0.0012382433243329,0.001238243324333,-0.0012382433243329,0.0012382433243329,9.6401466766069e-17,-8.0026966995797e-17,-1.1830520938647e-17,3.3763674425276e-17,-0.0012586325674521,0.0012586325674521,-0.0012881386666554,0.0012881386666555,-0.0012881386666554,0.0012881386666555,-0.0012881386666555,0.0012881386666555,-0.0012881386666555,0.0012881386666555,-0.0012382433243329,0.0012382433243329,-0.0012382433243329,0.0012382433243329,-0.0012382433243328,0.001238243324333,-0.001238243324333,0.0012382433243329,-2.4161026603104e-17,1.5146596105415e-17,-0.0012586325674521,0.0012586325674521,1.1249656330721e-17,-2.6293314404352e-17,-0.0012881386666555,0.0012881386666555,-0.0012881386666555,0.0012881386666554,-0.0012881386666555,0.0012881386666555,-0.0012881386666555,0.0012881386666555,-0.0012382433243329,0.0012382433243329,-0.0012382433243329,0.0012382433243329,0.61843313774832,0.4569524239045,1270536,32768,0.0052305638792058,0.0052305638792058,0.0052305638792057,37.882289002101,37.875956058269,0.0002182583120168,0.0002182583120168,0.0002182583120168,297121.64799386,0.015815627346991
37843200,0.99999967484492,0.015046772577858,0.005015590859286,0.005015590859286,0.005015590859286,-0.0012583130894514,0.0012583130894514,2.6083761982505e-17,-1.152905955985e-17,-8.1703386370571e-17,9.5541198929014e-17,-0.0012878522205354,0.0012878522205354,-0.0012878522205354,0.0012878522205353,-0.0012878522205354,0.0012878522205354,-0.0012878522205354,0.0012878522205354,-0.0012379047372278,0.001237904737228,-0.0012379047372279,0.0012379047372279,9.673233901109e-17,-7.9916676247457e-17,-1.0749671604911e-17,3.3954845055732e-17,-0.0012583130894514,0.0012583130894514,-0.0012878522205353,0.0012878522205354,-0.0012878522205353,0.0012878522205354,-0.0012878522205354,0.0012878522205354,-0.0012878522205354,0.0012878522205354,-0.0012379047372279,0.0012379047372279,-0.0012379047372279,0.0012379047372279,-0.0012379047372278,0.001237904737228,-0.001237904737228,0.0012379047372279,-2.3010326462086e-17,1.6381852486828e-17,-0.0012583130894514,0.0012583130894514,1.2631967043254e-17,-2.4396313532897e-17,-0.0012878522205354,0.0012878522205354,-0.0012878522205354,0.0012878522205353,-0.0012878522205354,0.0012878522205354,-0.0012878522205354,0.0012878522205354,-0.0012379047372279,0.0012379047372279,-0.0012379047372279,0.0012379047372279,0.60246466230448,0.43132005729132,1270536,32768,0.0052292397326575,0.0052292397326574,0.0052292397326574,37.777049309518,37.769861267401,0.00021741639447614,0.00021741639447614,0.00021741639447614,301364.6322928,0.015811591765665
37929600,0.99999969368605,0.015046772829405,0.005015590943135,0.005015590943135,0.005015590943135,-0.0012580249940586,0.0012580249940586,2.4763949360699e-17,-1.2940781138607e-17,-8.3335689446009e-17,9.458534577673e-17,-0.0012875826514121,0.001287582651412,-0.0012875826514121,0.001287582651412,-0.001287582651412,0.0012875826514121,-0.001287582651412,0.0012875826514121,-0.0012376094692336,0.0012376094692338,-0.0012376094692337,0.0012376094692337,9.712203298856e-17,-8.0093141444801e-17,-1.0661439006239e-17,3.4072488520629e-17,-0.0012580249940586,0.0012580249940586,-0.001287582651412,0.001287582651412,-0.001287582651412,0.0012875826514121,-0.001287582651412,0.001287582651412,-0.001287582651412,0.001287582651412,-0.0012376094692337,0.0012376094692337,-0.0012376094692337,0.0012376094692336,-0.0012376094692336,0.0012376094692338,-0.0012376094692338,0.0012376094692337,-2.3602220144846e-17,1.582304602857e-17,-0.0012580249940586,0.0012580249940586,1.1926106253876e-17,-2.5160996054724e-17,-0.001287582651412,0.001287582651412,-0.001287582651412,0.001287582651412,-0.001287582651412,0.001287582651412,-0.001287582651412,0.001287582651412,-0.0012376094692336,0.0012376094692337,-0.0012376094692337,0.0012376094692337,0.60846151261333,0.52548026821167,1270536,32768,0.0052280456666056,0.0052280456666056,0.0052280456666056,37.671038796883,37.663766476533,0.00021656831037506,0.00021656831037506,0.00021656831037506,304740.12092794,0.015807952650105
38016000,0.9999997113365,0.015046773066837,0.0050155910222789,0.0050155910222789,0.0050155910222788,-0.0012579822834468,0.0012579822834468,2.4980854499101e-17,-1.2786374090931e-17,-8.3357747595677e-17,9.458534577673e-17,-0.0012874740852707,0.0012874740852707,-0.0012874740852707,0.0012874740852707,-0.0012874740852707,0.0012874740852707,-0.0012874740852707,0.0012874740852707,-0.001237631497065,0.0012376314970651,-0.001237631497065,0.001237631497065,9.6541168380633e-17,-8.0975467431524e-17,-1.1624644875079e-17,3.3234278833242e-17,-0.0012579822834468,0.0012579822834468,-0.0012874740852706,0.0012874740852707,-0.0012874740852706,0.0012874740852707,-0.0012874740852707,0.0012874740852707,-0.0012874740852707,0.0012874740852707,-0.0012376314970651,0.001237631497065,-0.001237631497065,0.001237631497065,-0.0012376314970649,0.0012376314970651,-0.0012376314970651,0.001237631497065,-2.4399989891175e-17,1.5087774372967e-17,-0.0012579822834468,0.0012579822834468,1.1279067196945e-17,-2.5910973143439e-17,-0.0012874740852707,0.0012874740852707,-0.0012874740852707,0.0012874740852706,-0.0012874740852707,0.0012874740852707,-0.0012874740852707,0.0012874740852707,-0.001237631497065,0.001237631497065,-0.0012376314970651,0.001237631497065,0.61311744717134,0.56198697248515,1270536,32768,0.0052278686702559,0.0052278686702558,0.0052278686702558,37.564950524951,37.557671685665,0.00021571960419961,0.00021571960419961,0.00021571960419961,300133.23015859,0.015807413462267
38102400,0.99999972787708,0.015046773290386,0.0050155910967954,0.0050155910967954,0.0050155910967954,-0.0012578725744188,0.0012578725744188,2.4418371682565e-17,-1.3470176730641e-17,-8.4328306181073e-17,9.3776546955567e-17,-0.0012873234540149,0.0012873234540149,-0.0012873234540149,0.0012873234540148,-0.0012873234540149,0.0012873234540149,-0.0012873234540149,0.0012873234540149,-0.0012375524932111,0.0012375524932113,-0.0012375524932112,0.0012375524932112,9.8261704054744e-17,-7.9181404591854e-17,-9.7570548698477e-18,3.5101868838473e-17,-0.0012578725744187,0.0012578725744188,-0.0012873234540148,0.0012873234540149,-0.0012873234540148,0.0012873234540149,-0.0012873234540149,0.0012873234540149,-0.0012873234540149,0.0012873234540148,-0.0012375524932112,0.0012375524932112,-0.0012375524932112,0.0012375524932111,-0.0012375524932111,0.0012375524932113,-0.0012375524932112,0.0012375524932112,-2.1536106792603e-17,1.7940628396706e-17,-0.0012578725744187,0.0012578725744187,1.4293680984916e-17,-2.3175762584597e-17,-0.0012873234540149,0.0012873234540149,-0.0012873234540149,0.0012873234540148,-0.0012873234540148,0.0012873234540149,-0.0012873234540148,0.0012873234540149,-0.0012375524932111,0.0012375524932112,-0.0012375524932112,0.0012375524932112,0.61599341667236,0.57718443256635,1270536,32768,0.00522741392335,0.0052274139233499,0.0052274139233499,37.458854277585,37.451576894797,0.00021487083422068,0.00021487083422068,0.00021487083422068,297468.34217095,0.015806027812469
38188800,0.99999974338279,0.015046773500889,0.0050155911669632,0.0050155911669631,0.0050155911669631,-0.0012577240842912,0.0012577240842912,2.5135261546778e-17,-1.2705494208815e-17,-8.3688619840698e-17,9.4894159872083e-17,-0.0012871508476948,0.0012871508476947,-0.0012871508476948,0.0012871508476947,-0.0012871508476947,0.0012871508476948,-0.0012871508476947,0.0012871508476948,-0.0012374177557608,0.0012374177557609,-0.0012374177557608,0.0012374177557608,9.6364703183289e-17,-8.148280487389e-17,-1.1970222553212e-17,3.3322511431914e-17,-0.0012577240842912,0.0012577240842912,-0.0012871508476947,0.0012871508476947,-0.0012871508476947,0.0012871508476948,-0.0012871508476947,0.0012871508476947,-0.0012871508476948,0.0012871508476947,-0.0012374177557609,0.0012374177557608,-0.0012374177557608,0.0012374177557608,-0.0012374177557607,0.0012374177557609,-0.0012374177557609,0.0012374177557608,-2.2219909432313e-17,1.7073007843095e-17,-0.0012577240842912,0.0012577240842912,1.3367238698857e-17,-2.4175732036217e-17,-0.0012871508476948,0.0012871508476947,-0.0012871508476947,0.0012871508476947,-0.0012871508476947,0.0012871508476947,-0.0012871508476947,0.0012871508476947,-0.0012374177557608,0.0012374177557608,-0.0012374177557609,0.0012374177557608,0.61875593985311,0.59029928701812,1270536,32768,0.0052267984197244,0.0052267984197243,0.0052267984197243,37.352757208861,37.34548210393,0.00021402205767089,0.00021402205767089,0.00021402205767089,295942.73892499,0.015804152230977
38275200,0.99999975792323,0.01504677369927,0.0050155912330899,0.0050155912330898,0.0050155912330898,-0.0012575657570022,0.0012575657570022,2.4219848335553e-17,-1.3823107125331e-17,-8.4835643623439e-17,9.3982423019136e-17,-0.0012869745479968,0.0012869745479968,-0.0012869745479968,0.0012869745479967,-0.0012869745479968,0.0012869745479968,-0.0012869745479968,0.0012869745479968,-0.0012372686866286,0.0012372686866288,-0.0012372686866287,0.0012372686866287,9.6680869995198e-17,-8.1828382552024e-17,-1.2389327396905e-17,3.3057813635897e-17,-0.0012575657570021,0.0012575657570022,-0.0012869745479967,0.0012869745479968,-0.0012869745479967,0.0012869745479968,-0.0012869745479968,0.0012869745479968,-0.0012869745479968,0.0012869745479968,-0.0012372686866287,0.0012372686866286,-0.0012372686866287,0.0012372686866286,-0.0012372686866286,0.0012372686866288,-0.0012372686866287,0.0012372686866287,-2.2510341736276e-17,1.682301548019e-17,-0.0012575657570022,0.0012575657570022,1.3323122399521e-17,-2.4263964634889e-17,-0.0012869745479968,0.0012869745479968,-0.0012869745479968,0.0012869745479967,-0.0012869745479968,0.0012869745479968,-0.0012869745479968,0.0012869745479968,-0.0012372686866286,0.0012372686866287,-0.0012372686866287,0.0012372686866287,0.62183719334347,0.60341414146988,1270536,32768,0.0052261421390676,0.0052261421390675,0.0052261421390675,37.246660055635,37.239387313062,0.00021317328044508,0.00021317328044508,0.00021317328044508,294654.24728481,0.015802152382994
38361600,0.99999977160389,0.015046773890758,0.0050155912969193,0.0050155912969192,0.0050155912969192,-0.0012575133297063,0.0012575133297063,2.4653658612358e-17,-1.3168715351844e-17,-8.4379775196965e-17,9.4747105540963e-17,-0.0012869057701101,0.00128690577011,-0.0012869057701101,0.00128690577011,-0.00128690577011,0.0012869057701101,-0.00128690577011,0.0012869057701101,-0.0012372248272599,0.00123722482726,-0.0012372248272599,0.0012372248272599,9.7813188344826e-17,-8.0688711485839e-17,-1.1220245464497e-17,3.4484240647766e-17,-0.0012575133297063,0.0012575133297063,-0.00128690577011,0.00128690577011,-0.00128690577011,0.0012869057701101,-0.00128690577011,0.00128690577011,-0.00128690577011,0.00128690577011,-0.0012372248272599,0.0012372248272599,-0.0012372248272599,0.0012372248272599,-0.0012372248272598,0.00123722482726,-0.00123722482726,0.0012372248272599,-2.350295847134e-17,1.6043627525251e-17,-0.0012575133297063,0.0012575133297063,1.2484912712134e-17,-2.5366872118293e-17,-0.00128690577011,0.00128690577011,-0.00128690577011,0.00128690577011,-0.00128690577011,0.00128690577011,-0.00128690577011,0.00128690577011,-0.0012372248272599,0.0012372248272599,-0.0012372248272599,0.0012372248272599,0.6380046066385,0.68645999815632,1270536,32768,0.0052259248112545,0.0052259248112545,0.0052259248112544,37.197137943781,37.19360843,0.00021277710355025,0.00021277710355025,0.00021277710355025,293343.99898717,0.015801490183898
38448000,0.99999978450921,0.015046774079122,0.0050155913597072,0.0050155913597072,0.0050155913597072,-0.0012576676382135,0.0012576676382136,2.5179377846114e-17,-1.2698141492258e-17,-8.3813616022151e-17,9.5438260897229e-17,-0.0012870062211047,0.0012870062211046,-0.0012870062211047,0.0012870062211046,-0.0012870062211046,0.0012870062211047,-0.0012870062211046,0.0012870062211047,-0.0012374215643928,0.001237421564393,-0.0012374215643929,0.0012374215643929,9.7467610666693e-17,-8.1093110896421e-17,-1.1448179677734e-17,3.4219542851749e-17,-0.0012576676382135,0.0012576676382136,-0.0012870062211046,0.0012870062211046,-0.0012870062211046,0.0012870062211047,-0.0012870062211046,0.0012870062211046,-0.0012870062211046,0.0012870062211046,-0.0012374215643929,0.0012374215643928,-0.0012374215643929,0.0012374215643928,-0.0012374215643928,0.001237421564393,-0.0012374215643929,0.0012374215643929,-2.3094882702481e-17,1.6264209021932e-17,-0.0012576676382135,0.0012576676382135,1.2837843106823e-17,-2.4999236290492e-17,-0.0012870062211046,0.0012870062211046,-0.0012870062211046,0.0012870062211046,-0.0012870062211046,0.0012870062211046,-0.0012870062211046,0.0012870062211046,-0.0012374215643928,0.0012374215643929,-0.0012374215643929,0.0012374215643929,0.66536548884373,0.79944244,1270536,32768,0.0052265643738575,0.0052265643738575,0.0052265643738574,37.193945405496,37.19360843,0.00021275156324397,0.00021275156324397,0.00021275156324397,288098.33158061,0.015803439522297
38534400,0.99999979668513,0.015046774260436,0.0050155914201452,0.0050155914201452,0.0050155914201452,-0.0012578881317673,0.0012578881317673,2.5293344952733e-17,-1.2801079524043e-17,-8.3894495904267e-17,9.5335322865445e-17,-0.0012871566535699,0.0012871566535698,-0.0012871566535699,0.0012871566535698,-0.0012871566535698,0.0012871566535699,-0.0012871566535698,0.0012871566535699,-0.0012376941502725,0.0012376941502726,-0.0012376941502726,0.0012376941502726,9.7364672634908e-17,-8.129898695999e-17,-1.1815815505535e-17,3.3910728756396e-17,-0.0012578881317672,0.0012578881317673,-0.0012871566535698,0.0012871566535698,-0.0012871566535698,0.0012871566535699,-0.0012871566535698,0.0012871566535698,-0.0012871566535698,0.0012871566535698,-0.0012376941502726,0.0012376941502725,-0.0012376941502726,0.0012376941502725,-0.0012376941502725,0.0012376941502727,-0.0012376941502726,0.0012376941502726,-2.3142675360095e-17,1.6308325321268e-17,-0.0012578881317673,0.0012578881317673,1.2837843106823e-17,-2.5087468889164e-17,-0.0012871566535698,0.0012871566535698,-0.0012871566535698,0.0012871566535698,-0.0012871566535698,0.0012871566535698,-0.0012871566535698,0.0012871566535698,-0.0012376941502725,0.0012376941502726,-0.0012376941502726,0.0012376941502726,0.67881522378254,0.79944244,1270536,32768,0.0052274782279817,0.0052274782279817,0.0052274782279817,37.193642501356,37.19360843,0.00021274914001084,0.00021274914001084,0.00021274914001084,280668.21695674,0.015806224938915
38620800,0.99999980817306,0.015046774434026,0.0050155914780086,0.0050155914780086,0.0050155914780086,-0.001257947113242,0.001257947113242,2.5870533202381e-17,-1.2051102435328e-17,-8.3445980194349e-17,9.5967656489263e-17,-0.0012872048627554,0.0012872048627553,-0.0012872048627554,0.0012872048627553,-0.0012872048627553,0.0012872048627554,-0.0012872048627553,0.0012872048627554,-0.0012377486367212,0.0012377486367214,-0.0012377486367213,0.0012377486367213,9.6982331373995e-17,-8.1916615150696e-17,-1.2440796412798e-17,3.3204867967018e-17,-0.001257947113242,0.001257947113242,-0.0012872048627553,0.0012872048627553,-0.0012872048627552,0.0012872048627554,-0.0012872048627553,0.0012872048627553,-0.0012872048627553,0.0012872048627553,-0.0012377486367213,0.0012377486367213,-0.0012377486367213,0.0012377486367213,-0.0012377486367212,0.0012377486367214,-0.0012377486367214,0.0012377486367213,-2.3190468017709e-17,1.6352441620604e-17,-0.001257947113242,0.001257947113242,1.2896664839271e-17,-2.5087468889164e-17,-0.0012872048627553,0.0012872048627553,-0.0012872048627553,0.0012872048627553,-0.0012872048627553,0.0012872048627553,-0.0012872048627553,0.0012872048627553,-0.0012377486367213,0.0012377486367213,-0.0012377486367213,0.0012377486367213,0.68877836888035,0.79944244,1270536,32768,0.0052277226138558,0.0052277226138558,0.0052277226138558,37.193611923474,37.19360843,0.00021274889538779,0.00021274889538779,0.00021274889538779,278192.87518981,0.015806969952565
38707200,0.99999981901188,0.015046774599709,0.0050155915332362,0.0050155915332362,0.0050155915332362,-0.0012579775567055,0.0012579775567055,2.4892621900429e-17,-1.302901373728e-17,-8.4343011614185e-17,9.5173563101212e-17,-0.0012872371316225,0.0012872371316225,-0.0012872371316225,0.0012872371316225,-0.0012872371316225,0.0012872371316225,-0.0012872371316225,0.0012872371316225,-0.0012377697004349,0.001237769700435,-0.0012377697004349,0.001237769700435,9.6813218893206e-17,-8.2365130860614e-17,-1.2595203460474e-17,3.3146046234569e-17,-0.0012579775567055,0.0012579775567055,-0.0012872371316224,0.0012872371316225,-0.0012872371316224,0.0012872371316225,-0.0012872371316225,0.0012872371316225,-0.0012872371316225,0.0012872371316225,-0.001237769700435,0.0012377697004349,-0.001237769700435,0.0012377697004349,-0.0012377697004348,0.001237769700435,-0.001237769700435,0.0012377697004349,-2.3462518530282e-17,1.6087743824587e-17,-0.0012579775567055,0.0012579775567055,1.2573145310806e-17,-2.5440399283853e-17,-0.0012872371316225,0.0012872371316225,-0.0012872371316225,0.0012872371316224,-0.0012872371316225,0.0012872371316225,-0.0012872371316225,0.0012872371316225,-0.0012377697004349,0.0012377697004349,-0.001237769700435,0.0012377697004349,0.69676124507532,0.79944244,1270536,32768,0.0052278487332377,0.0052278487332377,0.0052278487332377,37.193608789565,37.19360843,0.00021274887031652,0.00021274887031652,0.00021274887031652,276568.38000652,0.015807354483168
38793600,0.99999982923827,0.015046774757531,0.0050155915858437,0.0050155915858437,0.0050155915858437,-0.0012579944036215,0.0012579944036216,2.526025772823e-17,-1.256579259425e-17,-8.4284189881737e-17,9.5864718457479e-17,-0.00128726096924,0.00128726096924,-0.00128726096924,0.00128726096924,-0.00128726096924,0.00128726096924,-0.00128726096924,0.00128726096924,-0.0012377768778091,0.0012377768778093,-0.0012377768778092,0.0012377768778092,9.7504374249473e-17,-8.2041611332148e-17,-1.2036397002216e-17,3.3601914661043e-17,-0.0012579944036215,0.0012579944036215,-0.0012872609692399,0.00128726096924,-0.0012872609692399,0.00128726096924,-0.00128726096924,0.00128726096924,-0.00128726096924,0.00128726096924,-0.0012377768778092,0.0012377768778092,-0.0012377768778092,0.0012377768778092,-0.0012377768778091,0.0012377768778093,-0.0012377768778093,0.0012377768778092,-2.3315464199161e-17,1.5984805792803e-17,-0.0012579944036215,0.0012579944036215,1.245550184591e-17,-2.5425693850741e-17,-0.00128726096924,0.00128726096924,-0.00128726096924,0.0012872609692399,-0.00128726096924,0.00128726096924,-0.00128726096924,0.00128726096924,-0.0012377768778092,0.0012377768778092,-0.0012377768778092,0.0012377768778092,0.70344362152968,0.79944244,1270536,32768,0.0052279185113258,0.0052279185113257,0.0052279185113257,37.193608467048,37.19360843,0.00021274886773639,0.00021274886773639,0.00021274886773639,275332.78614873,0.01580756727288
38880000,0.99999983888685,0.015046774907655,0.0050155916358851,0.0050155916358851,0.005015591635885,-0.0012580036430314,0.0012580036430314,2.4072794004432e-17,-1.3903987007447e-17,-8.5644442444602e-17,9.4673578375403e-17,-0.0012872793275939,0.0012872793275939,-0.0012872793275939,0.0012872793275939,-0.0012872793275939,0.001287279327594,-0.0012872793275939,0.0012872793275939,-0.0012377772477827,0.0012377772477828,-0.0012377772477827,0.0012377772477827,9.72323237369e-17,-8.2321014561277e-17,-1.2198156766449e-17,3.3396038597474e-17,-0.0012580036430314,0.0012580036430314,-0.0012872793275938,0.0012872793275939,-0.0012872793275938,0.0012872793275939,-0.0012872793275939,0.0012872793275939,-0.0012872793275939,0.0012872793275939,-0.0012377772477827,0.0012377772477827,-0.0012377772477827,0.0012377772477827,-0.0012377772477826,0.0012377772477828,-0.0012377772477828,0.0012377772477827,-2.3631631011071e-17,1.574951886301e-17,-0.0012580036430314,0.0012580036430314,1.2352563814125e-17,-2.5602159048086e-17,-0.0012872793275939,0.0012872793275939,-0.0012872793275939,0.0012872793275938,-0.0012872793275939,0.0012872793275939,-0.0012872793275939,0.0012872793275939,-0.0012377772477827,0.0012377772477827,-0.0012377772477828,0.0012377772477827,0.70919502816361,0.79944244,1270536,32768,0.0052279567681745,0.0052279567681745,0.0052279567681745,37.193608433819,37.19360843,0.00021274886747055,0.00021274886747055,0.00021274886747055,274311.67684371,0.015807683972548
