time,ASR_ext,ASR_strain,ASR_strain_xx,ASR_strain_yy,ASR_strain_zz,disp_x_101,disp_x_102,disp_x_103,disp_x_104,disp_x_105,disp_x_106,disp_x_p1_neg,disp_x_p1_pos,disp_x_p2_neg,disp_x_p2_pos,disp_x_p3_neg,disp_x_p3_pos,disp_x_p4_neg,disp_x_p4_pos,disp_x_p5_neg,disp_x_p5_pos,disp_x_p6_neg,disp_x_p6_pos,disp_y_101,disp_y_102,disp_y_103,disp_y_104,disp_y_105,disp_y_106,disp_y_p1_neg,disp_y_p1_pos,disp_y_p2_neg,disp_y_p2_pos,disp_y_p3_neg,disp_y_p3_pos,disp_y_p4_neg,disp_y_p4_pos,disp_y_p5_neg,disp_y_p5_pos,disp_y_p6_neg,disp_y_p6_pos,disp_y_p7_neg,disp_y_p7_pos,disp_y_p8_neg,disp_y_p8_pos,disp_z_101,disp_z_102,disp_z_103,disp_z_104,disp_z_105,disp_z_106,disp_z_p1_neg,disp_z_p1_pos,disp_z_p2_neg,disp_z_p2_pos,disp_z_p3_neg,disp_z_p3_pos,disp_z_p4_neg,disp_z_p4_pos,disp_z_p5_neg,disp_z_p5_pos,disp_z_p6_neg,disp_z_p6_pos,humidity,ndof,nelem,strain_xx,strain_yy,strain_zz,temp,thermal_strain_xx,thermal_strain_yy,thermal_strain_zz,vonmises,vstrain
2419200,0,0,0,0,0,0,0,0,0,0,0,0,0,0,0,0,0,0,0,0,0,0,0,0,0,0,0,0,0,0,0,0,0,0,0,0,0,0,0,0,0,0,0,0,0,0,0,0,0,0,0,0,0,0,0,0,0,0,0,0,0,0,0,0,0,0,0,0,0,0,0,0,0,0,0
3419200,0.15971932821749,0.0026614135279619,0.00088713784265398,0.00088713784265398,0.00088713784265398,-0.00024807171846011,0.00024807171328743,-1.7198174432944e-12,-1.7201599169486e-12,-1.3479166189475e-12,-2.1115491995037e-12,-0.00025348407209652,0.00025348406841011,-0.00025348407349501,0.00025348406980839,-0.00025348407235377,0.00025348406815579,-0.00025348407373981,0.00025348406954161,-0.00024417463068526,0.00024417462658715,-0.00024417463113315,0.00024417462703438,-2.3594481778307e-13,4.9158863304e-13,-8.1718961630052e-13,1.0620730102809e-12,-0.00026239152490719,0.00026239152515317,-0.00026625028437713,0.00026625028370355,-0.0002662502851048,0.0002662502857515,-0.00026625028475143,0.00026625028459135,-0.00026625028547908,0.0002662502866393,-0.0002548097108329,0.00025480970949797,-0.00025480970950676,0.00025480971182676,-0.00025950654109445,0.00025950654127469,-0.00025950654073318,0.00025950654233464,-3.9193084332589e-12,-3.9189659290163e-12,-0.00022958286578266,0.00022958285439528,-2.9221002171383e-12,-4.8642295493339e-12,-0.00023619540414084,0.00023619539586831,-0.00023619540480243,0.00023619539521403,-0.00023619540472878,0.00023619539645647,-0.00023619540538368,0.00023619539579549,-0.00023418060661555,0.00023418059724762,-0.00023418060639684,0.00023418059702822,0.75746877217741,122718,2924,0.0010330957144786,0.0010926968259801,0.00095614290654479,31.872947279084,0.00017018357823267,0.00017018357823267,0.00017018357823267,2038420.5821933,0.0030866919587357
4419200,0.35081129587634,0.0056829986388053,0.0019059767854686,0.0020467859488798,0.0017302359044569,-0.00048475212944641,0.00048475211777056,-4.2666420770501e-12,-4.2669683091278e-12,-2.9608089031807e-12,-5.9657910727072e-12,-0.00050510355044116,0.00050510354151722,-0.00050510355400404,0.0005051035450799,-0.00050510355145597,0.00050510354050917,-0.00050510355497967,0.00050510354403266,-0.0004675746512983,0.00046757464094558,-0.000467574652765,0.00046757464241166,-8.1191753471193e-13,2.0412972353589e-12,-8.4890293424513e-13,2.0331686380937e-12,-0.00055509653092801,0.00055509653211844,-0.00057562314462327,0.00057562314381436,-0.00057562314772361,0.00057562314893431,-0.00057562314635786,0.00057562314750392,-0.00057562314945819,0.00057562315262386,-0.00051851104937965,0.00051851104871915,-0.00051851104834051,0.00051851105329602,-0.0005414366569027,0.00054143665631848,-0.00054143665599173,0.0005414366610035,-6.8689777456802e-12,-6.8686525276742e-12,-0.00040933533497289,0.00040933531674289,-5.2906350806123e-12,-8.3437124959356e-12,-0.00042808124624541,0.0004280812312324,-0.00042808124729656,0.00042808123020211,-0.00042808124792226,0.00042808123290946,-0.0004280812489517,0.00042808123185746,-0.00042841827777677,0.00042841826169434,-0.00042841827690268,0.00042841826081959,0.73992840791513,122718,2924,0.0020177506462209,0.0023101974230507,0.0017042019374795,33.606623198134,0.00018405298558508,0.00018405298558508,0.00018405298558508,3569431.4957118,0.0060503989899151
5419200,0.55082124564918,0.0087156650690931,0.0029029491823527,0.0033432440795217,0.0024694718072188,-0.0007109618316674,0.0007109618252252,-2.4246670144841e-12,-2.4248216637693e-12,-1.4161648106665e-12,-2.6552044147395e-12,-0.00075206911613731,0.0007520691106864,-0.00075206911794364,0.00075206911249263,-0.0007520691165802,0.00075206911025352,-0.00075206911837602,0.00075206911204926,-0.00067542214552932,0.0006754221393013,-0.00067542214571547,0.00067542213948718,-7.1299542436156e-14,1.0504053078977e-12,9.390708120313e-13,1.2106806615957e-14,-0.00088589901939756,0.00088589902035571,-0.00093536779515452,0.00093536779609644,-0.00093536779704149,0.00093536779728035,-0.00093536779615263,0.00093536779780803,-0.0009353677980396,0.00093536779899193,-0.00080516278976385,0.00080516279198479,-0.00080516279028614,0.00080516279071227,-0.00085017860180763,0.0008501786013919,-0.00085017859972454,0.00085017860151841,-8.2104290299702e-13,-8.2090077498599e-13,-0.00056281022968728,0.00056281022553838,-1.1654407495263e-12,-3.0228021085955e-13,-0.00059867401589219,0.00059867401196383,-0.00059867401560283,0.00059867401225431,-0.00059867401723448,0.0005986740133062,-0.00059867401693906,0.00059867401359064,-0.00059732431886675,0.00059732431650723,-0.00059732431817621,0.0005973243158164,0.72499638738019,122718,2924,0.0029579514537114,0.0036843208652428,0.0023426788563232,36.277814907254,0.00020542251925803,0.00020542251925803,0.00020542251925803,4256713.1205088,0.0090255002297887
6419200,0.70706733590288,0.010641108411991,0.0034979708945057,0.004241085881963,0.0029020516355222,-0.00083226395230632,0.00083226394747339,-1.7059396953751e-12,-1.7061081277296e-12,-1.3277338007761e-12,-2.2023984535332e-12,-0.00089507468466148,0.00089507468059067,-0.00089507468552591,0.00089507468145498,-0.00089507468497152,0.00089507468028754,-0.00089507468583196,0.00089507468114789,-0.00077968498917491,0.0007796849848547,-0.00077968498891897,0.00077968498459846,-3.2010611803665e-13,4.9080325629742e-13,7.4588024328233e-13,-5.8841505373578e-13,-0.00111775321007,0.0011177532102293,-0.0012025705263309,0.0012025705266538,-0.0012025705280781,0.0012025705275142,-0.0012025705273781,0.0012025705282474,-0.0012025705291252,0.0012025705291078,-0.00099064549233219,0.00099064549407054,-0.00099064549456122,0.00099064549367773,-0.0010524109942693,0.0010524109932074,-0.0010524109936863,0.0010524109942323,-3.0655500260216e-13,-3.0639911030574e-13,-0.00063840568521763,0.0006384056826862,-1.3492126060104e-12,-4.1080548785816e-14,-0.00069289291752005,0.00069289291482467,-0.0006928929170833,0.00069289291526681,-0.00069289291846181,0.00069289291576654,-0.00069289291802094,0.00069289291620457,-0.00067624774938669,0.00067624774889348,-0.0006762477493611,0.00067624774886756,0.59839168540088,122718,2924,0.003461816691039,0.0046462594772991,0.0026572624896343,36.740412351047,0.00020912329880838,0.00020912329880838,0.00020912329880838,4363328.7061336,0.010823624316917
7419200,0.83239043192722,0.011992552896416,0.0039015254915931,0.0048771398398471,0.0032138875649755,-0.00091046627401987,0.0009104662689858,-1.7009222806389e-12,-1.7009931524399e-12,-1.3771359459863e-12,-2.092050265771e-12,-0.00098953875454508,0.00098953875045805,-0.00098953875558884,0.00098953875150173,-0.00098953875480362,0.00098953875020961,-0.0009895387558415,0.00098953875124744,-0.00084581611330591,0.00084581610897672,-0.00084581611325461,0.00084581610892533,-2.54284290613e-13,4.0002039729851e-13,7.6336673849367e-13,-6.2882049584784e-13,-0.0012935814503339,0.0012935814504706,-0.0014109090512606,0.0014109090516283,-0.0014109090529652,0.001410909052416,-0.0014109090523022,0.0014109090531152,-0.0014109090540068,0.0014109090539029,-0.0011281279937292,0.0011281279954508,-0.001128127995866,0.0011281279948492,-0.001199569821685,0.0011995698207344,-0.0011995698211769,0.0011995698215242,-7.3831197448774e-13,-7.3824652060496e-13,-0.0006910456391453,0.00069104563526889,-1.7113886594277e-12,-3.4989412577243e-13,-0.00075916133488386,0.00075916133136746,-0.00075916133443156,0.00075916133182483,-0.00075916133583858,0.00075916133232221,-0.00075916133538173,0.00075916133277504,-0.00072900128035035,0.00072900127887669,-0.00072900128032829,0.00072900127885447,0.52694121020036,122718,2924,0.0037865857564571,0.0053751285995392,0.0028763758292497,40.777849917258,0.00024142279933806,0.00024142279933806,0.00024142279933806,4248816.4592803,0.012111040786155
8419200,0.90796668792659,0.012723104352165,0.0041149589300146,0.0052183600667171,0.0033897853554332,-0.00093634987814582,0.00093634987537216,-9.3036564046831e-13,-9.3046559019525e-13,-8.9107346765546e-13,-1.0167094108136e-12,-0.0010266428265782,0.0010266428241346,-0.001026642827211,0.0010266428247673,-0.0010266428266427,0.0010266428240845,-0.001026642827272,0.0010266428247138,-0.00086700979665309,0.00086700979424987,-0.00086700979664863,0.00086700979424525,-8.9090043066221e-14,-5.6440922827374e-15,1.0807276903933e-12,-1.1784134708656e-12,-0.0013917760475027,0.0013917760474064,-0.0015284087193394,0.0015284087199689,-0.0015284087209098,0.0015284087200275,-0.001528408720304,0.001528408720989,-0.0015284087218744,0.0015284087210476,-0.0012042024944691,0.0012042024966133,-0.0012042024973918,0.0012042024951044,-0.0012787087961513,0.00127870879523,-0.0012787087961244,0.0012787087953813,3.937294277186e-13,3.9381936614752e-13,-0.00070822710173807,0.00070822710122436,-1.009678684421e-12,1.2370896475582e-12,-0.000787423166656,0.00078742316556739,-0.0007874231659048,0.00078742316632104,-0.00078742316736956,0.00078742316628101,-0.00078742316661632,0.00078742316703263,-0.00074465800999255,0.00074465801139771,-0.00074465800995757,0.00074465801136254,0.47156008474719,122718,2924,0.0038941378415623,0.0057819035408871,0.0029480516976571,41.436037208749,0.00024668829766999,0.00024668829766999,0.00024668829766999,3961561.7170555,0.012704371008089
9419200,0.94978710821858,0.013072915610057,0.0042158465273505,0.0053794176044104,0.0034776514782957,-0.00093849525000113,0.00093849524836072,-5.3946113012689e-13,-5.3956704916825e-13,-6.4551050252372e-13,-4.5217162764363e-13,-0.0010360295733918,0.0010360295717895,-0.0010360295738592,0.0010360295722569,-0.0010360295733513,0.0010360295718471,-0.001036029573816,0.0010360295723117,-0.00086785100817195,0.00086785100675016,-0.00086785100822201,0.00086785100680004,-4.3057214043431e-15,-2.2933061175429e-13,1.2669142378162e-12,-1.499118850007e-12,-0.0014412630090072,0.001441263008776,-0.0015885850958631,0.0015885850966356,-0.0015885850973817,0.0015885850962993,-0.0015885850967611,0.0015885850973789,-0.0015885850982797,0.0015885850970426,-0.0012418842358964,0.0012418842382985,-0.0012418842392618,0.0012418842362406,-0.0013165161913723,0.0013165161904457,-0.0013165161915869,0.0013165161902336,8.6128607065469e-13,8.6138356767623e-13,-0.00071003569830606,0.00071003569916917,-7.8231086564594e-13,1.9793593646507e-12,-0.00079688804306074,0.00079688804294831,-0.00079688804213641,0.00079688804387401,-0.0007968880436563,0.00079688804354393,-0.00079688804273108,0.00079688804446874,-0.00074450310121596,0.00074450310385704,-0.00074450310114549,0.00074450310378637,0.40621133923259,122718,2924,0.0039031414493903,0.0059868122579688,0.0029557518862679,41.14427471929,0.00024435419775432,0.00024435419775432,0.00024435419775432,3694045.0180807,0.012928861064368
10419200,0.97069664947296,0.013262345615361,0.0042709496467561,0.0054637310279255,0.0035276649406797,-0.00093285581340225,0.00093285581408016,2.4892110518993e-13,2.4878822230088e-13,-1.346540978068e-13,6.6939093291943e-13,-0.0010337056720306,0.0010337056721288,-0.0010337056721025,0.0010337056722006,-0.0010337056717893,0.0010337056723919,-0.0010337056718606,0.0010337056724631,-0.00086225315181436,0.00086225315236795,-0.00086225315191463,0.00086225315246798,1.7019177134645e-13,-6.4545219364325e-13,1.6498040113846e-12,-2.1152759680065e-12,-0.001462226588296,0.0014622265878308,-0.0016146380883754,0.0016146380894584,-0.0016146380897683,0.0016146380883164,-0.0016146380891486,0.0016146380896726,-0.0016146380905415,0.0016146380885305,-0.0012570432613665,0.0012570432643134,-0.0012570432656036,0.0012570432611739,-0.0013314735335145,0.0013314735325922,-0.0013314735341919,0.0013314735316844,1.9470039027202e-12,1.9471299135765e-12,-0.00070499781016921,0.00070499781422153,-1.8282929704342e-13,3.5952212291211e-12,-0.00079550026565622,0.00079550026781372,-0.00079550026438943,0.0007955002690794,-0.00079550026600889,0.00079550026816652,-0.00079550026474371,0.00079550026943373,-0.0007387667940893,0.00073876679952348,-0.00073876679395327,0.00073876679938723,0.43665130715676,122718,2924,0.0038797964150091,0.006073590604252,0.0029349256275,38.08776624484,0.00021990212995872,0.00021990212995872,0.00021990212995872,3564179.5791684,0.012972036373339
11419200,0.98277724731331,0.013363906684883,0.0043004073279952,0.0055086775106651,0.0035548218462227,-0.00092664016850597,0.00092664016759721,-2.8206679481774e-13,-2.8218041967838e-13,-6.9120456616026e-13,1.490017422167e-13,-0.0010327253467021,0.0010327253454795,-0.0010327253471196,0.001032725345897,-0.0010327253464544,0.001032725345754,-0.0010327253468669,0.0010327253461665,-0.00085716566357669,0.00085716566294808,-0.00085716566368058,0.00085716566305179,2.0149913845728e-13,-6.6492848100898e-13,1.7640493447975e-12,-2.2169096278738e-12,-0.0014792978444462,0.0014792978439934,-0.0016332362977951,0.0016332362989579,-0.0016332362995869,0.0016332362980975,-0.0016332362987838,0.0016332362993702,-0.0016332363005757,0.0016332362985098,-0.0012720945706558,0.0012720945738175,-0.0012720945751395,0.0012720945704915,-0.0013452923170632,0.0013452923161385,-0.0013452923178415,0.0013452923152248,1.0919542886049e-12,1.0920599324363e-12,-0.00070202160884797,0.00070202161036787,-1.126121421293e-12,2.8448459728826e-12,-0.00079834968143427,0.00079834968144919,-0.00079834968010878,0.00079834968277577,-0.00079834968196662,0.0007983496819816,-0.00079834968064044,0.0007983496833075,-0.00073461045779356,0.00073461046136523,-0.00073461045769054,0.000734610461262,0.40445605707229,122718,2924,0.0038540655373771,0.006144201257244,0.0029226560059408,37.626141271724,0.00021620913017379,0.00021620913017379,0.00021620913017379,3367457.2161246,0.013005095483503
12419200,0.98970556606252,0.013429505406318,0.0043195950243966,0.0055370345071454,0.0035728758747765,-0.0009231696742766,0.00092316967374686,-1.5772667420543e-13,-1.5782332250519e-13,-6.0189267325375e-13,3.190104309209e-13,-0.0010306528638451,0.0010306528629054,-0.0010306528642053,0.0010306528632655,-0.0010306528635709,0.0010306528632073,-0.0010306528639262,0.0010306528635625,-0.00085407797938614,0.0008540779790705,-0.00085407797950621,0.00085407797919042,2.2223450500607e-13,-7.2140328515424e-13,1.8553326149798e-12,-2.3426582569277e-12,-0.0014874755911954,0.001487475590708,-0.0016432840127947,0.0016432840140229,-0.0016432840145849,0.0016432840130153,-0.0016432840137508,0.001643284014349,-0.0016432840155409,0.0016432840133413,-0.0012780939648724,0.0012780939681862,-0.0012780939695485,0.0012780939646273,-0.001350930368228,0.0013509303672708,-0.0013509303690613,0.0013509303662612,1.2456872980493e-12,1.2457750600741e-12,-0.00069985561087073,0.00069985561285721,-1.0756695213874e-12,3.1139106138962e-12,-0.00079767600605128,0.00079767600637394,-0.00079767600465262,0.00079767600777335,-0.00079767600654168,0.00079767600686438,-0.00079767600514272,0.00079767600826347,-0.00073210986745785,0.00073210987145785,-0.00073210986733906,0.00073210987133889,0.45322610794666,122718,2924,0.0038396924652953,0.0061780438280624,0.0029136999690534,36.800802157931,0.00020960641726345,0.00020960641726345,0.00020960641726345,3299878.6670009,0.013015751110255
13419200,0.99357453736011,0.013463058441268,0.0043293679815897,0.0055515603418165,0.0035821301178623,-0.00091367960805104,0.00091367960853426,1.7365113992982e-13,1.7357466507168e-13,-3.3745600345073e-13,7.5297152664849e-13,-0.0010249676671129,0.001024967666884,-0.0010249676673224,0.0010249676670936,-0.0010249676667826,0.001024967667243,-0.0010249676669881,0.0010249676674484,-0.00084559254766311,0.00084559254816522,-0.00084559254780413,0.00084559254830618,2.8986349781029e-13,-8.162902393641e-13,2.0023297713764e-12,-2.5147434704308e-12,-0.0014917345867375,0.0014917345862248,-0.0016474857502097,0.0016474857515795,-0.001647485751919,0.001647485750272,-0.0016474857510811,0.0016474857517071,-0.0016474857527904,0.0016474857503996,-0.0012820855823196,0.0012820855858645,-0.0012820855872368,0.0012820855819241,-0.0013539750769291,0.0013539750759971,-0.0013539750778497,0.0013539750747564,1.6857619423063e-12,1.6858321019277e-12,-0.00069313265026942,0.00069313265357926,-7.8310278262989e-13,3.7324597502733e-12,-0.00079499535388653,0.00079499535510711,-0.00079499535237769,0.00079499535661584,-0.00079499535427778,0.00079499535549841,-0.00079499535276942,0.00079499535700765,-0.00072469552415691,0.00072469552927493,-0.00072469552400939,0.0007246955291273,0.4150894025916,122718,2924,0.0038003486984233,0.0061956130289014,0.0028858263985359,34.786205536272,0.00019348964429017,0.00019348964429017,0.00019348964429017,3175412.1780582,0.012965476119271
14419200,0.99580879137485,0.01348097173677,0.0043345825401333,0.005559267338369,0.0035871218582681,-0.00090808397806681,0.00090808397871641,2.3024928957167e-13,2.3017829260225e-13,-3.5576243501064e-13,8.8858085446484e-13,-0.001019103580048,0.0010191035799278,-0.0010191035802289,0.0010191035801087,-0.0010191035796684,0.0010191035803385,-0.0010191035798449,0.0010191035805149,-0.00083991373784183,0.0008399137385225,-0.00083991373799575,0.00083991373867632,3.3016964883798e-13,-9.2750548887339e-13,2.1309449599177e-12,-2.7117952153412e-12,-0.0014902609106647,0.0014902609100834,-0.0016475725857048,0.0016475725871639,-0.0016475725874849,0.0016475725857129,-0.0016475725865969,0.0016475725872121,-0.001647572588377,0.0016475725857611,-0.0012789621922191,0.0012789621959652,-0.0012789621974542,0.0012789621917029,-0.0013508596459985,0.0013508596450373,-0.0013508596470673,0.0013508596436461,1.7566896725716e-12,1.7567516559722e-12,-0.00068773211709189,0.00068773212061006,-8.71026096633e-13,3.9693331444684e-12,-0.00078930447301585,0.00078930447432675,-0.00078930447139917,0.00078930447594313,-0.00078930447338581,0.00078930447469675,-0.00078930447176987,0.00078930447631387,-0.00071921948470208,0.0007192194900888,-0.00071921948454136,0.00071921948992797,0.38312450045663,122718,2924,0.0037771307207538,0.0061895182099777,0.0028634010221736,32.634956995782,0.00017627965596625,0.00017627965596625,0.00017627965596625,3169229.1123026,0.012913066194273
15419200,0.99697169393942,0.013493444971666,0.0043382610647419,0.0055645357231889,0.0035906481837355,-0.00089652948176246,0.00089652948500542,1.0966365389477e-12,1.0965892405879e-12,2.783245635521e-13,2.0528470516376e-12,-0.0010075289781206,0.0010075289799092,-0.0010075289778471,0.0010075289796356,-0.0010075289775656,0.0010075289804984,-0.0010075289772905,0.0010075289802233,-0.00082822652317078,0.00082822652599036,-0.000828226523364,0.00082822652618349,4.888178022458e-13,-1.2775665888647e-12,2.4818728275476e-12,-3.2469569841635e-12,-0.0014816261158078,0.0014816261150417,-0.0016397656037282,0.001639765605486,-0.0016397656052952,0.0016397656032121,-0.001639765604437,0.0016397656049975,-0.001639765606004,0.0016397656027236,-0.0012693310024072,0.0012693310066621,-0.0012693310083898,0.0012693310014176,-0.0013414071212183,0.0013414071202673,-0.0013414071226547,0.0013414071182474,2.987263799965e-12,2.9873015341063e-12,-0.00067553634967134,0.00067553635683412,-7.2614458148736e-14,5.6745932788022e-12,-0.00077715185008566,0.00077715185402013,-0.0007771518481622,0.00077715185594047,-0.00077715185018363,0.00077715185411812,-0.00077715184826365,0.00077715185604196,-0.00070716904454517,0.0007071690530239,-0.00070716904430752,0.00070716905278615,0.51103778709309,122718,2924,0.0037291724126478,0.0061537614924737,0.0028127433317735,27.046978027319,0.00013157582421855,0.00013157582421855,0.00013157582421855,3186722.9214409,0.01277696845342
16419200,0.99771888004887,0.013500729511963,0.0043403916315462,0.0055676503819319,0.0035926874984849,-0.00088302778841097,0.00088302778959734,4.0531430542619e-13,4.0534511187248e-13,-3.729827490154e-13,1.2938365035947e-12,-0.00099971842356278,0.00099971842366307,-0.00099971842370526,0.00099971842380557,-0.00099971842304818,0.00099971842421477,-0.00099971842318474,0.00099971842435137,-0.00081633551846583,0.00081633551969468,-0.00081633551863796,0.00081633551986695,5.000974282492e-13,-1.178977512458e-12,2.5554564031493e-12,-3.2121789877839e-12,-0.0014829812238629,0.0014829812232051,-0.0016392558193793,0.0016392558212053,-0.001639255821381,0.0016392558193684,-0.0016392558203381,0.0016392558210432,-0.0016392558223398,0.0016392558192063,-0.0012721415817463,0.001272141586185,-0.0012721415878161,0.0012721415809408,-0.001342874487937,0.0013428744870057,-0.0013428744893584,0.0013428744851341,1.9555023783917e-12,1.9554498064683e-12,-0.0006661232662056,0.00066612327031151,-1.1071495891047e-12,4.6514335172482e-12,-0.00077356753466344,0.00077356753605839,-0.00077356753274206,0.00077356753797922,-0.00077356753499486,0.00077356753638981,-0.00077356753307424,0.00077356753831139,-0.00069698687980151,0.00069698688595353,-0.00069698687962457,0.00069698688577668,0.46538451425637,122718,2924,0.0036731852735035,0.0061592677693505,0.0027736987450262,24.407508042958,0.00011046006434366,0.00011046006434366,0.00011046006434366,3023204.9746461,0.012686330775001
17419200,0.99822075259723,0.013506271497784,0.0043420234367359,0.0055699783932214,0.0035942696678269,-0.00087725494544543,0.00087725494649559,3.5793192571948e-13,3.5797664212686e-13,-3.9096404712555e-13,1.2066654901387e-12,-0.00099244549574395,0.00099244549580324,-0.00099244549589591,0.00099244549595521,-0.0009924454952519,0.0009924454963323,-0.00099244549539774,0.00099244549647817,-0.00081026827779513,0.00081026827889414,-0.00081026827797799,0.0008102682790771,4.5689627742647e-13,-1.1513258277863e-12,2.5389670833572e-12,-3.2116588860256e-12,-0.0014786637917882,0.0014786637911146,-0.0016369453130267,0.0016369453148074,-0.0016369453150371,0.0016369453129918,-0.0016369453139703,0.0016369453146767,-0.0016369453159808,0.0016369453128611,-0.0012657923768363,0.0012657923812662,-0.001265792382915,0.0012657923760637,-0.001336721648367,0.0013367216473554,-0.0013367216497433,0.0013367216455792,1.8909990253955e-12,1.8909427329975e-12,-0.00065996549569755,0.00065996549962151,-1.1673568380499e-12,4.5754795829932e-12,-0.00076588617118691,0.00076588617249638,-0.00076588616927111,0.00076588617441174,-0.00076588617152151,0.00076588617283093,-0.00076588616960652,0.00076588617474713,-0.00069091162392268,0.00069091162992431,-0.00069091162373747,0.00069091162973918,0.52521873377382,122718,2924,0.0036492172346015,0.0061414188732909,0.0027481115055356,21.970372469798,9.0962979758382e-05,9.0962979758382e-05,9.0962979758382e-05,3045211.0239973,0.012618064526456
18419200,0.99853256534864,0.013509579527621,0.0043429936200813,0.0055713766069134,0.0035952093006265,-0.00086323786481195,0.00086323786747104,8.8316253102032e-13,8.8324270004409e-13,6.6688596900318e-14,1.8509852477889e-12,-0.00098111064330038,0.00098111064452572,-0.00098111064319819,0.00098111064442355,-0.00098111064274515,0.0009811106451177,-0.00098111064263876,0.00098111064501136,-0.00079693335251294,0.00079693335488081,-0.0007969333527241,0.00079693335509223,5.2911092425975e-13,-1.2542358310151e-12,2.6766604063325e-12,-3.3779328064715e-12,-0.0014736142099237,0.0014736142092213,-0.0016315612551327,0.0016315612570566,-0.0016315612569466,0.0016315612548283,-0.0016315612559163,0.001631561256639,-0.0016315612577301,0.0016315612544106,-0.0012608712562736,0.00126087126091,-0.0012608712625512,0.0012608712553159,-0.00133118406254,0.0013311840615656,-0.0013311840639845,0.0013311840595164,2.6037034586466e-12,2.6036116379222e-12,-0.00064783820455702,0.00064783821062793,-5.9455113098871e-13,5.4658888995225e-12,-0.00075651054600892,0.00075651054885833,-0.00075651054398425,0.00075651055088103,-0.00075651054618171,0.00075651054903102,-0.00075651054415928,0.00075651055105605,-0.00067839419113793,0.00067839419887957,-0.0006783941909044,0.00067839419864625,0.50516361584657,122718,2924,0.0035910586208286,0.0061204576796677,0.0026977565786767,17.468055191014,5.4944441528111e-05,5.4944441528111e-05,5.4944441528111e-05,2971899.7244009,0.012486978582717
19419200,0.99879091821046,0.013513134274134,0.0043440456621757,0.0055728550004206,0.0035962336115381,-0.00086204379605374,0.00086204379532947,-2.304041322678e-13,-2.303451398719e-13,-8.986281614971e-13,4.9715537106821e-13,-0.00097921489091723,0.00097921488963999,-0.00097921489139502,0.0009792148901178,-0.00097921489049402,0.00097921489010082,-0.00097921489096278,0.00097921489056963,-0.00079572397258403,0.00079572397227874,-0.00079572397276121,0.00079572397245605,3.9990457730732e-13,-1.0216209078296e-12,2.4792568486404e-12,-3.0819228493725e-12,-0.0014743746395565,0.0014743746389531,-0.0016334753805487,0.0016334753822578,-0.0016334753828437,0.0016334753808722,-0.0016334753816669,0.0016334753824385,-0.0016334753839618,0.0016334753810529,-0.0012605518966632,0.0012605519010454,-0.0012605519026404,0.0012605518961052,-0.0013307587076866,0.0013307587066319,-0.0013307587089742,0.0013307587051297,1.0306425439895e-12,1.0305683256686e-12,-0.00064706573473432,0.00064706573609857,-1.9305497877351e-12,3.6028172594757e-12,-0.00075505510322923,0.00075505510258234,-0.00075505510138742,0.00075505510442577,-0.00075505510375124,0.00075505510310431,-0.00075505510190825,0.00075505510494659,-0.00067748893415145,0.00067748893812817,-0.00067748893400785,0.00067748893798471,0.65325215552177,122718,2924,0.003586104456374,0.0061236206514061,0.0026945463442027,17.551688956242,5.5613511649933e-05,5.5613511649933e-05,5.5613511649933e-05,2962959.8780534,0.012481910329688
20419200,0.99901578118229,0.013516448993938,0.0043450245577528,0.0055742370091418,0.0035971874270434,-0.00085553024835684,0.00085553024692234,-4.7498367707471e-13,-4.7488523485572e-13,-9.8297301129042e-13,7.8559247127749e-14,-0.00097781405037986,0.00097781404861448,-0.00097781405099137,0.00097781404922604,-0.00097781405006457,0.00097781404896297,-0.00097781405066708,0.00097781404956555,-0.00079076844062286,0.00079076843965973,-0.00079076844080326,0.00079076843984035,3.1224131418336e-13,-7.8025860481169e-13,2.2884282665579e-12,-2.7424783368164e-12,-0.0014817379638528,0.0014817379633984,-0.0016392333341295,0.0016392333356993,-0.0016392333363886,0.0016392333346318,-0.0016392333352335,0.0016392333360856,-0.0016392333374926,0.0016392333350181,-0.0012693269736155,0.0012693269777367,-0.0012693269790935,0.0012693269733361,-0.001338099295338,0.0013380992942894,-0.0013380992963248,0.0013380992931337,6.6501024321708e-13,6.6489651139739e-13,-0.00064556526038346,0.00064556526069655,-2.0340974185437e-12,2.9698984039953e-12,-0.00075848704454658,0.0007584870432068,-0.00075848704288136,0.00075848704487436,-0.00075848704514492,0.00075848704380507,-0.00075848704347785,0.00075848704547077,-0.00067507988659558,0.0006750798895749,-0.00067507988647234,0.00067507988945189,0.70012779305903,122718,2924,0.0035591265956777,0.0061540181791295,0.0026883627554502,18.599612991002,6.3996903928017e-05,6.3996903928017e-05,6.3996903928017e-05,2795772.2141704,0.012479136096004
21419200,0.9991686743307,0.013518544233812,0.0043456418668638,0.0055751063169475,0.0035977960500005,-0.00084321456035618,0.00084321456237696,6.5050567529226e-13,6.5064807340074e-13,2.2194821963424e-14,1.4247830915016e-12,-0.00096664625252212,0.00096664625332125,-0.00096664625256608,0.0009666462533653,-0.00096664625209025,0.00096664625378529,-0.00096664625212989,0.00096664625382503,-0.00077895717276502,0.00077895717450401,-0.00077895717300345,0.00077895717474272,4.1650695246909e-13,-9.9115407386458e-13,2.4175634392141e-12,-2.9736518628591e-12,-0.0014779072342568,0.0014779072337001,-0.0016365433731991,0.0016365433749212,-0.0016365433749324,0.0016365433730547,-0.0016365433739317,0.0016365433747024,-0.001636543375665,0.001636543372836,-0.0012642474126674,0.0012642474169239,-0.0012642474183093,0.0012642474119945,-0.0013324555416213,0.0013324555406473,-0.0013324555427139,0.0013324555389863,2.2011119340119e-12,2.2009501154259e-12,-0.0006353459204781,0.00063534592543096,-6.6090554508338e-13,4.7325965350164e-12,-0.00074936882560068,0.00074936882773337,-0.00074936882379869,0.00074936882953434,-0.00074936882583945,0.00074936882797202,-0.00074936882403894,0.00074936882977449,-0.00066446391345348,0.00066446392008944,-0.00066446391321951,0.00066446391985575,0.64990944923706,122718,2924,0.0035080233219177,0.0061381346314514,0.0026459226788835,15.218210655478,3.6945685243827e-05,3.6945685243827e-05,3.6945685243827e-05,2738846.5249286,0.012368353458499
22419200,0.99929529542821,0.013520325517244,0.0043461678350261,0.0055758409594001,0.0035983167228174,-0.00084184642925359,0.00084184642899218,-9.1543493850277e-14,-9.1390449151837e-14,-6.710050637559e-13,5.6464869154654e-13,-0.00096315363164217,0.00096315363076514,-0.00096315363206245,0.00096315363118549,-0.00096315363126872,0.00096315363117253,-0.00096315363168145,0.00096315363158537,-0.00077725487673401,0.00077725487670885,-0.00077725487695009,0.00077725487692527,3.5071278596513e-13,-9.0657633412706e-13,2.3009142968829e-12,-2.8400938253185e-12,-0.0014769203729019,0.0014769203723623,-0.0016376544119706,0.0016376544135566,-0.0016376544140479,0.0016376544122233,-0.0016376544129614,0.0016376544137126,-0.0016376544150387,0.0016376544123793,-0.0012614185911281,0.0012614185952137,-0.0012614185966672,0.0012614185906629,-0.0013296399298895,0.0013296399288755,-0.001329639930985,0.0013296399275074,1.1696235482152e-12,1.169458597372e-12,-0.00063368004989986,0.00063368005174257,-1.5785426589583e-12,3.5430864288806e-12,-0.00074578372039668,0.00074578372024166,-0.00074578371869016,0.00074578372194948,-0.00074578372086755,0.00074578372071242,-0.00074578371916033,0.00074578372241955,-0.00066263711020105,0.00066263711438026,-0.00066263711002701,0.00066263711420654,0.66642562144511,122718,2924,0.003502334223212,0.0061340884317749,0.0026389882646703,14.858153796613,3.4065230372907e-05,3.4065230372907e-05,3.4065230372907e-05,2755590.8477059,0.01235146726821
23419200,0.99940775406431,0.013521816975836,0.0043466069643231,0.0055764588085538,0.0035987512029595,-0.00084112088870573,0.00084112088751358,-3.9927325284385e-13,-3.9912480316243e-13,-8.6695533496256e-13,1.1832073832384e-13,-0.00096299632936499,0.00096299632783421,-0.00096299632994452,0.00096299632841382,-0.00096299632907323,0.00096299632815745,-0.00096299632964455,0.00096299632872887,-0.00077681326364882,0.00077681326283849,-0.00077681326385351,0.00077681326304351,2.7061011539967e-13,-7.4319929577167e-13,2.1261261659521e-12,-2.5857495953601e-12,-0.0014798354881543,0.0014798354876945,-0.0016407855574552,0.0016407855588917,-0.0016407855595704,0.0016407855578869,-0.0016407855584935,0.0016407855592613,-0.0016407855606087,0.0016407855582566,-0.001264271485646,0.0012642714894733,-0.001264271490812,0.0012642714853887,-0.0013320446651378,0.0013320446641108,-0.0013320446660443,0.001332044663032,7.3445766576364e-13,7.3430206757588e-13,-0.0006343261719035,0.0006343261724535,-1.8065558403709e-12,2.882114881218e-12,-0.00074704170295471,0.00074704170191958,-0.0007470417013937,0.00074704170348287,-0.00074704170352252,0.00074704170248728,-0.0007470417019599,0.00074704170404897,-0.00066289550411143,0.00066289550715617,-0.0006628955039665,0.00066289550701153,0.62875729639221,122718,2924,0.0034993361014184,0.0061461492611029,0.0026416790491024,15.707577898991,4.086062319193e-05,4.086062319193e-05,4.086062319193e-05,2713781.6152425,0.012363369606417
24419200,0.99951392800608,0.01352330245477,0.0043470458034842,0.0055770702535147,0.0035991863977707,-0.00084545226433097,0.00084545226209145,-7.460080923178e-13,-7.4585588571416e-13,-1.0870712852037e-12,-3.8853363056429e-13,-0.00096609237304522,0.00096609237078733,-0.00096609237379698,0.00096609237153917,-0.00096609237284708,0.0009660923710143,-0.00096609237358991,0.00096609237175724,-0.00078103964616894,0.00078103964447297,-0.00078103964635492,0.00078103964465927,1.7249743620408e-13,-5.630314468346e-13,1.9056091967118e-12,-2.2871719519963e-12,-0.0014836750568846,0.0014836750565034,-0.0016455580308021,0.0016455580320459,-0.0016455580329465,0.0016455580314211,-0.0016455580318919,0.0016455580326566,-0.0016455580340363,0.0016455580320318,-0.0012673964832373,0.0012673964867282,-0.0012673964879538,0.0012673964832098,-0.0013350896392452,0.0013350896381995,-0.0013350896399401,0.001335089637456,2.5357651811732e-13,2.5341328780977e-13,-0.00063876950628212,0.00063876950540223,-2.0375854296344e-12,2.1247194290556e-12,-0.00075035438974873,0.00075035438776188,-0.00075035438836454,0.00075035438914945,-0.00075035439042277,0.00075035438843581,-0.00075035438903596,0.00075035438982078,-0.00066719405169034,0.0006671940534662,-0.0006671940515789,0.00066719405335507,0.66255127740754,122718,2924,0.003517314402997,0.0061620722395404,0.0026601322642166,17.886371125417,5.8290969003339e-05,5.8290969003339e-05,5.8290969003339e-05,2714988.9913059,0.012416366622235
25419200,0.99961071980267,0.013524897843295,0.0043475191542903,0.0055777231806046,0.0035996555083997,-0.00084688133063395,0.00084688132849015,-7.1789289423251e-13,-7.1776339545998e-13,-9.9547898218277e-13,-4.2145886001525e-13,-0.00096890747503843,0.00096890747288867,-0.00096890747577411,0.00096890747362445,-0.00096890747487945,0.00096890747307399,-0.00096890747560708,0.00096890747380164,-0.00078296077747075,0.00078296077580055,-0.00078296077766318,0.00078296077599326,1.3473273694855e-13,-4.7566932156992e-13,1.7789844179531e-12,-2.112910687323e-12,-0.0014891301596591,0.0014891301593256,-0.0016505636250003,0.0016505636261537,-0.0016505636270277,0.0016505636256069,-0.001650563626035,0.0016505636267897,-0.0016505636280625,0.0016505636262429,-0.0012733719970332,0.0012733720003169,-0.0012733720014492,0.00127337199709,-0.0013405108437488,0.0013405108427279,-0.0013405108443122,0.0013405108421005,2.8357199883479e-13,2.8343479714386e-13,-0.00064209989539458,0.00064209989462391,-1.8597234220201e-12,2.0057668400896e-12,-0.00075500640788237,0.00075500640607132,-0.00075500640659597,0.00075500640736087,-0.00075500640854582,0.00075500640673464,-0.000755006407257,0.0007550064080219,-0.00067012420665849,0.00067012420840875,-0.00067012420654325,0.00067012420829379,0.77991302017261,122718,2924,0.0035232681464738,0.0061846357551173,0.002673981912248,19.931081933581,7.4648655468652e-05,7.4648655468652e-05,7.4648655468652e-05,2657193.6195923,0.012459267176695
26419200,0.99969006615937,0.013526289347909,0.0043479321056724,0.0055782910299888,0.0036000662122482,-0.00084122907242909,0.00084122907155156,-3.0542828334619e-13,-3.0533261353216e-13,-6.1503823306298e-13,6.3981604229439e-14,-0.00096695955195637,0.00096695955074304,-0.00096695955249308,0.00096695955127978,-0.00096695955176092,0.00096695955096382,-0.00096695955229153,0.00096695955149447,-0.00077843536316842,0.00077843536248194,-0.00077843536339272,0.00077843536270646,1.7503091763149e-13,-5.3112936259785e-13,1.7875376860684e-12,-2.1353558839906e-12,-0.0014936671207532,0.0014936671204057,-0.0016540523466177,0.001654052347811,-0.0016540523484222,0.0016540523470068,-0.0016540523475107,0.0016540523482324,-0.0016540523493151,0.0016540523474282,-0.0012788003263964,0.0012788003296605,-0.0012788003307679,0.0012788003263338,-0.0013449069552722,0.0013449069543166,-0.001344906955848,0.0013449069535165,8.2985116332248e-13,8.2974526949864e-13,-0.00064045652862661,0.00064045652951463,-1.3204131034625e-12,2.5882637281139e-12,-0.00075673613482091,0.00075673613427517,-0.0007567361335172,0.0007567361355809,-0.00075673613535637,0.00075673613481055,-0.0007567361340514,0.00075673613611504,-0.00066785575773645,0.00066785576075591,-0.00066785575757928,0.00066785576059894,0.82922923068302,122718,2924,0.0034998514799843,0.0062033540925973,0.0026671881078484,20.395173348387,7.83613867871e-05,7.83613867871e-05,7.83613867871e-05,2542932.2513699,0.012447648576929
27419200,0.99975927460456,0.013527383810621,0.0043482560378489,0.0055787369174871,0.0036003908552854,-0.00084051188673623,0.00084051188476861,-6.6370824255113e-13,-6.6359789619787e-13,-9.4102882206838e-13,-3.5752725425839e-13,-0.00096714487683989,0.00096714487481197,-0.00096714487755982,0.0009671448755319,-0.00096714487667752,0.00096714487500018,-0.00096714487738985,0.00096714487571255,-0.00077827393821721,0.00077827393667888,-0.00077827393843107,0.000778273936893,1.4555375931492e-13,-4.7309845893153e-13,1.7073856640694e-12,-2.027909401701e-12,-0.0014989881989511,0.0014989881986311,-0.0016599911547736,0.0016599911558937,-0.0016599911567204,0.0016599911553666,-0.0016599911557848,0.0016599911564994,-0.0016599911577315,0.0016599911559722,-0.0012836027807467,0.0012836027838865,-0.0012836027849927,0.0012836027807982,-0.001348996965761,0.0013489969648134,-0.0013489969663149,0.0013489969641604,3.3196429989498e-13,3.3184661231378e-13,-0.00064238865163801,0.00064238865103776,-1.7289736810409e-12,1.9830952238683e-12,-0.00075946008702249,0.00075946008538367,-0.00075946008578637,0.00075946008662296,-0.00075946008767004,0.00075946008603114,-0.00075946008643166,0.00075946008726806,-0.00066923377123171,0.00066923377304888,-0.00066923377110683,0.00066923377292427,0.74718867332314,122718,2924,0.0034969002728525,0.0062253723644523,0.0026752283851847,22.256950459621,9.3255603676971e-05,9.3255603676971e-05,9.3255603676971e-05,2478443.7746199,0.012475095971792
28419200,0.99981614832236,0.013528408136764,0.004348561196954,0.0055791493566058,0.0036006975832044,-0.00084387869841096,0.00084387869697795,-4.8870831110538e-13,-4.885906515277e-13,-7.7609568786829e-13,-1.6203972626818e-13,-0.00096755176948679,0.00096755176788534,-0.00096755177011317,0.00096755176851177,-0.00096755176931313,0.00096755176808422,-0.00096755176993292,0.00096755176870409,-0.00078118344363876,0.0007811834425118,-0.00078118344386148,0.00078118344273476,1.4398163087177e-13,-5.0048994566983e-13,1.6705809648983e-12,-2.0194991292173e-12,-0.0015000198604872,0.0015000198601387,-0.0016631551534084,0.0016631551544992,-0.0016631551552412,0.0016631551538818,-0.0016631551543525,0.0016631551550162,-0.0016631551561853,0.0016631551543988,-0.0012828517105147,0.0012828517135712,-0.001282851714701,0.0012828517105144,-0.0013483559540434,0.001348355953105,-0.0013483559546026,0.0013483559524086,5.6810860055457e-13,5.6798135444185e-13,-0.00064477511561643,0.00064477511573059,-1.4724046955178e-12,2.1998730702039e-12,-0.00075927812926227,0.00075927812821018,-0.00075927812803822,0.00075927812943683,-0.00075927812984958,0.00075927812879741,-0.00075927812862378,0.00075927813002232,-0.00067151226259199,0.00067151226493961,-0.00067151226244544,0.00067151226479331,0.8493285419621,122718,2924,0.0035108577700169,0.0062296998529341,0.0026851240770411,23.444427180666,0.00010275541744533,0.00010275541744533,0.00010275541744533,2513797.048922,0.012503614415007
29419200,0.99986236003604,0.013529002963044,0.0043487359242274,0.0055793936496217,0.0036008733891953,-0.00084141844901758,0.00084141844748446,-5.2228511072485e-13,-5.2215495982955e-13,-8.0523054414196e-13,-1.9732038376243e-13,-0.00096826067301429,0.00096826067131965,-0.00096826067366801,0.00096826067197342,-0.00096826067284285,0.00096826067151621,-0.00096826067348987,0.00096826067216332,-0.00077959368073755,0.00077959367953261,-0.00077959368096683,0.00077959367976218,1.5061186949901e-13,-4.8911041095386e-13,1.6551706709663e-12,-1.9863162605782e-12,-0.0015054536144914,0.0015054536141607,-0.0016674141157623,0.0016674141168521,-0.0016674141176005,0.0016674141162731,-0.0016674141167195,0.0016674141173864,-0.0016674141185577,0.0016674141168074,-0.001289472668996,0.0012894726720246,-0.0012894726731292,0.0012894726690097,-0.0013540680359691,0.0013540680350607,-0.0013540680365196,0.0013540680343644,5.0868375417813e-13,5.0854768480555e-13,-0.00064579907647919,0.00064579907642266,-1.5039055861284e-12,2.1192081902511e-12,-0.00076316213973535,0.0007631621385496,-0.00076316213852777,0.00076316213975992,-0.00076316214033753,0.0007631621391517,-0.00076316213912803,0.00076316214036011,-0.00067191800472744,0.00067191800692382,-0.00067191800458455,0.00067191800678119,0.60881578646039,122718,2924,0.0035006854210792,0.0062521402675305,0.0026894023547864,24.783777900572,0.00011347022320458,0.00011347022320458,0.00011347022320458,2416388.1829662,0.012520383427631
30419200,0.99989911859741,0.013529403803281,0.0043488538239635,0.0055795572751973,0.0036009927041204,-0.00085197965803401,0.00085197965646286,-5.3120449265562e-13,-5.3111001806013e-13,-8.2573174137387e-13,-2.0821746262885e-13,-0.00097107539659416,0.00097107539491243,-0.0009710753972358,0.00097107539555412,-0.00097107539641931,0.00097107539511251,-0.00097107539705432,0.00097107539574757,-0.0007885720667779,0.00078857206555138,-0.00078857206699411,0.00078857206576781,1.2950951416148e-13,-5.1865744948859e-13,1.608524566561e-12,-1.9900276766087e-12,-0.001502819494776,0.001502819494395,-0.0016686920430939,0.0016686920441224,-0.0016686920449244,0.001668692043564,-0.001668692044057,0.0016686920446569,-0.0016686920458875,0.0016686920440985,-0.0012833962758294,0.0012833962787627,-0.00128339627995,0.0012833962758195,-0.001349246385017,0.0013492463840798,-0.0013492463856025,0.0013492463834026,5.0916856289697e-13,5.0906340434479e-13,-0.00065101853918577,0.00065101853911884,-1.4921483864793e-12,2.0877387256106e-12,-0.00076142437770535,0.00076142437656503,-0.00076142437651236,0.00076142437776079,-0.0007614243783018,0.00076142437716141,-0.00076142437710698,0.00076142437835535,-0.0006778016346195,0.00067780163680212,-0.00067780163447423,0.00067780163665706,0.51512748248588,122718,2924,0.0035444555561726,0.0062413765654584,0.0027110303642589,26.134523742736,0.00012427618994189,0.00012427618994189,0.00012427618994189,2579577.8343617,0.012575666781358
31419200,0.99992887708013,0.0135298225858,0.0043489782283651,0.0055797272328775,0.0036011171245575,-0.00086126715373537,0.00086126715137185,-7.9137764013279e-13,-7.9128444330158e-13,-1.0331301536565e-12,-5.4242778214477e-13,-0.00097863522153503,0.00097863521925618,-0.00097863522231063,0.00097863522003182,-0.00097863522140245,0.00097863521941337,-0.00097863522217045,0.00097863522018142,-0.00079716325548356,0.00079716325361993,-0.00079716325567462,0.00079716325381121,9.0568262613511e-14,-4.3797491428465e-13,1.5198151589254e-12,-1.8615186612945e-12,-0.0015051538837953,0.0015051538834542,-0.001670804334764,0.0016708043357138,-0.0016708043366771,0.0016708043353892,-0.0016708043357999,0.0016708043364061,-0.001670804337713,0.0016708043360815,-0.0012862370195444,0.0012862370223465,-0.0012862370234876,0.0012862370196492,-0.001352616135671,0.0013526161347316,-0.0013526161361784,0.0013526161342101,1.5316414446993e-13,1.5305944178618e-13,-0.00065821657270574,0.00065821657156838,-1.744296212948e-12,1.6113717300417e-12,-0.00076701620267718,0.00076701620074599,-0.00076701620156049,0.00076701620186632,-0.00076701620335872,0.00076701620142746,-0.00076701620223931,0.00076701620254509,-0.00068522924038118,0.00068522924167667,-0.0006852292402674,0.00068522924156309,0.66479676253864,122718,2924,0.0035829854405726,0.0062510733697119,0.0027409121987418,28.445480073106,0.00014276384058485,0.00014276384058485,0.00014276384058485,2633568.8403187,0.012654755334298
32419200,0.99995061173835,0.013530182933108,0.0043490854145545,0.0055798736675166,0.0036012238510372,-0.00085675178022567,0.00085675177904567,-4.0150217188425e-13,-4.014179527774e-13,-6.8015614449078e-13,-7.5244848380356e-14,-0.00098035671189855,0.00098035671049381,-0.00098035671248571,0.000980356711081,-0.00098035671172675,0.0009803567106895,-0.00098035671230814,0.00098035671127094,-0.00079410101627587,0.00079410101533982,-0.00079410101650124,0.00079410101556539,1.4160585050906e-13,-4.9194788309456e-13,1.5788138271449e-12,-1.9221592205317e-12,-0.0015109784975807,0.0015109784972378,-0.0016732664023882,0.0016732664034217,-0.0016732664041158,0.0016732664028194,-0.0016732664032989,0.0016732664039103,-0.0016732664050265,0.0016732664033081,-0.0012950635677388,0.0012950635706177,-0.0012950635717259,0.0012950635677347,-0.0013603015435378,0.0013603015426564,-0.0013603015440684,0.001360301541954,6.7609269877332e-13,6.7600430441488e-13,-0.00065817145178664,0.00065817145222369,-1.271694297671e-12,2.2168915162947e-12,-0.00077267915273657,0.00077267915199021,-0.00077267915157264,0.0007726791531565,-0.00077267915330176,0.00077267915255533,-0.00077267915213629,0.00077267915372011,-0.00068462923797057,0.00068462924050076,-0.00068462923781887,0.00068462924034921,0.7835582016357,122718,2924,0.0035643011578494,0.0062750748436641,0.0027407724667817,29.298069703087,0.00014958455762469,0.00014958455762469,0.00014958455762469,2488412.6171935,0.012660027505342
33419200,0.99996571651175,0.013530442140484,0.0043491625988218,0.005579978172957,0.0036013013687055,-0.00085037208476902,0.00085037208430242,-1.7114790757832e-13,-1.7106530736158e-13,-4.9422194413827e-13,2.2607162307886e-13,-0.00097756295630042,0.00097756295539299,-0.00097756295678366,0.00097756295587628,-0.00097756295609049,0.00097756295562746,-0.00097756295656866,0.00097756295610569,-0.00078881295747813,0.00078881295711442,-0.00078881295772446,0.00078881295736094,1.861951648067e-13,-5.5779019518654e-13,1.6489420377173e-12,-2.0118719504576e-12,-0.0015142402690602,0.0015142402686976,-0.0016756302611111,0.0016756302622198,-0.0016756302627626,0.0016756302614297,-0.0016756302619598,0.001675630262569,-0.0016756302636113,0.001675630261779,-0.0012989174516756,0.001298917454653,-0.0012989174557695,0.0012989174515657,-0.0013632791585532,0.0013632791577051,-0.0013632791591415,0.0013632791568441,9.7758494427452e-13,9.7747971219517e-13,-0.00065568945881982,0.00065568946017355,-1.0406634731511e-12,2.6126530418606e-12,-0.00077328298122531,0.00077328298112075,-0.00077328298000526,0.0007732829823425,-0.00077328298172033,0.00077328298161571,-0.00077328298049935,0.00077328298283654,-0.00068168725386825,0.0006816872571484,-0.00068168725369251,0.00068168725697286,0.80945760226261,122718,2924,0.003537865175531,0.0062885152432128,0.0027304944855738,29.317375146523,0.00014973900117218,0.00014973900117218,0.00014973900117218,2387214.7881425,0.012636473549474
34419200,0.99997715022489,0.013530620197615,0.0043492155217418,0.0055800497944153,0.0036013548814574,-0.00085160559047594,0.00085160558826337,-7.4528526881133e-13,-7.4517920303157e-13,-1.0129596356608e-12,-4.542936216417e-13,-0.00097891135454918,0.00097891135234093,-0.00097891135531926,0.00097891135311109,-0.000978911354395,0.00097891135252057,-0.0009789113551576,0.00097891135328325,-0.00079037618932146,0.00079037618758974,-0.00079037618954437,0.00079037618781291,1.3510501969321e-13,-4.6049307931135e-13,1.57458142703e-12,-1.8931412246586e-12,-0.00151928677931,0.001519286778992,-0.0016815301873276,0.0016815301883521,-0.0016815301892382,0.0016815301879666,-0.0016815301883626,0.0016815301889986,-0.0016815301902732,0.0016815301886133,-0.0013032605028975,0.001303260505785,-0.0013032605068964,0.0013032605029742,-0.0013670900546202,0.0013670900537411,-0.0013670900551662,0.0013670900531252,1.9376190423624e-13,1.9364596660159e-13,-0.00065883861090135,0.00065883860990556,-1.7349611451868e-12,1.7089549176003e-12,-0.0007765180987506,0.00077651809688935,-0.00077651809760393,0.00077651809803935,-0.00077651809942354,0.00077651809756222,-0.0007765180982743,0.0007765180987097,-0.00068436311005956,0.00068436311147835,-0.00068436310993729,0.0006843631113564,0.73398852679868,122718,2924,0.003543002358323,0.0063094099860131,0.0027435832960929,31.489045063781,0.00016711236051025,0.00016711236051025,0.00016711236051025,2345800.327877,0.012676087796317
35419200,0.99998611830542,0.013530743801736,0.004349252195564,0.0055800995202262,0.0036013920859459,-0.00086193031772185,0.00086193031356356,-1.3866432456183e-12,-1.3865476009357e-12,-1.4910818620756e-12,-1.3196468033431e-12,-0.0009864383013629,0.00098643829774822,-0.00098643830245267,0.00098643829883807,-0.00098643830133669,0.00098643829779764,-0.00098643830241688,0.00098643829887789,-0.00080033940005909,0.00080033939673448,-0.00080033940023691,0.00080033939691248,6.5445647739209e-15,-2.1755491267028e-13,1.3443428724245e-12,-1.5537400048976e-12,-0.001526225449637,0.0015262254494285,-0.0016901054587298,0.0016901054595363,-0.0016901054608222,0.001690105459727,-0.0016901054599116,0.001690105460588,-0.0016901054620041,0.0016901054607787,-0.001309016181323,0.0013090161838897,-0.0013090161848656,0.0013090161817337,-0.0013728217020127,0.0013728217010745,-0.0013728217023052,0.001372821700933,-6.7517181514098e-13,-6.7528209118388e-13,-0.00066859127158143,0.00066859126798087,-2.3332581029195e-12,5.2515253737326e-13,-0.00078386479532902,0.0007838647916019,-0.00078386479438107,0.00078386479255534,-0.00078386479620212,0.00078386479247486,-0.00078386479524961,0.00078386479342377,-0.00069388235655386,0.00069388235579673,-0.00069388235650147,0.00069388235574446,0.64952121200817,122718,2924,0.0035858455364209,0.0063381913501783,0.0027840802490178,35.943761945414,0.00020275009556331,0.00020275009556331,0.00020275009556331,2367964.2540996,0.012789623198463
36419200,0.99999185613233,0.013530826770673,0.0043492768954509,0.0055801327773801,0.0036014170978418,-0.00086768572148033,0.00086768571970798,-6.0479414343936e-13,-6.047127487522e-13,-7.6171428346033e-13,-4.2338718345923e-13,-0.00098987400853789,0.00098987400676324,-0.00098987400921961,0.00098987400744499,-0.00098987400845221,0.00098987400686971,-0.00098987400912818,0.00098987400754575,-0.00080559041671967,0.00080559041523956,-0.00080559041694306,0.0008055904154632,4.9628101542623e-14,-3.2164123290465e-13,1.3715091013384e-12,-1.6400531327967e-12,-0.0015275524353268,0.0015275524350591,-0.0016923780202049,0.0016923780210622,-0.0016923780218829,0.0016923780207364,-0.0016923780211038,0.0016923780217141,-0.0016923780227819,0.0016923780213883,-0.0013096813486729,0.0013096813512344,-0.0013096813522208,0.0013096813488716,-0.0013737853397786,0.0013737853388792,-0.0013737853400929,0.0013737853384773,3.900523194635e-13,3.8996232221286e-13,-0.00067278288760852,0.00067278288722111,-1.3214911293531e-12,1.6747790213932e-12,-0.00078605914597245,0.00078605914474493,-0.00078605914497287,0.00078605914574745,-0.00078605914659073,0.00078605914536316,-0.00078605914558917,0.0007860591463637,-0.00069815625640679,0.00069815625813348,-0.00069815625626803,0.00069815625799492,0.6811981079479,122718,2924,0.0036097140204239,0.0063437276142995,0.0028014742716875,37.485516756624,0.00021508413405299,0.00021508413405299,0.00021508413405299,2411137.0254278,0.012837012030723
37419200,0.9999952439232,0.013530873831233,0.0043492908761426,0.0055801517291661,0.003601431225924,-0.00086649954868858,0.0008664995480607,-2.2400756664907e-13,-2.2393171203279e-13,-4.9025763877449e-13,1.0329116805513e-13,-0.00099037901963034,0.00099037901867321,-0.0009903790201283,0.0009903790191712,-0.00099037901946061,0.00099037901886539,-0.00099037901995405,0.00099037901935888,-0.00080474444261431,0.00080474444208475,-0.00080474444286396,0.0008047444423346,1.3280644285433e-13,-4.8427138231228e-13,1.4966587486908e-12,-1.8412668682081e-12,-0.0015290490398933,0.0015290490395493,-0.0016928988618507,0.0016928988628302,-0.0016928988634226,0.0016928988621723,-0.0016928988626757,0.0016928988632388,-0.0016928988642476,0.0016928988625809,-0.0013121021230443,0.0013121021257651,-0.0013121021268513,0.001312102123025,-0.001375914431692,0.001375914430845,-0.0013759144321816,0.0013759144301363,9.0195772522239e-13,9.018728160516e-13,-0.00067279318049229,0.00067279318163077,-9.6454638671115e-13,2.3685854855488e-12,-0.0007875788346562,0.00078757883452129,-0.00078757883354237,0.00078757883563694,-0.00078757883515981,0.00078757883502484,-0.00078757883404506,0.00078757883613958,-0.00069801163219919,0.00069801163520216,-0.00069801163202134,0.00069801163502446,0.65495763090949,122718,2924,0.0036048064133268,0.0063498923243531,0.0028015276904729,37.681073039767,0.00021664858431814,0.00021664858431814,0.00021664858431814,2372930.8585452,0.012838348022771
38419200,0.99999719101438,0.013530903968742,0.0043492998701326,0.0055801637758952,0.0036014403227146,-0.0008656410832203,0.00086564108318216,-2.5246294919491e-14,-2.5166916599958e-14,-4.1531862296292e-13,4.4419954765579e-13,-0.00098915182050001,0.00098915181993268,-0.00098915182090231,0.00098915182033504,-0.00098915182024421,0.00098915182021402,-0.00098915182064209,0.00098915182061199,-0.00080385396841204,0.00080385396842043,-0.00080385396867315,0.00080385396868177,2.1582331851047e-13,-6.6280381062208e-13,1.6608040871046e-12,-2.0971369927279e-12,-0.0015279651633187,0.0015279651628826,-0.0016921089822481,0.0016921089833643,-0.0016921089838472,0.001692108982453,-0.0016921089830786,0.0016921089836034,-0.0016921089846777,0.0016921089826921,-0.0013107103920547,0.0013107103950081,-0.0013107103962448,0.0013107103918279,-0.0013745703962464,0.0013745703954222,-0.0013745703969633,0.0013745703944257,1.172860816966e-12,1.1727713638163e-12,-0.00067171386777448,0.00067171386970962,-8.9662590281179e-13,2.8573273006858e-12,-0.00078617856392277,0.00078617856428982,-0.00078617856266828,0.00078617856554553,-0.00078617856436655,0.00078617856473353,-0.00078617856311167,0.00078617856598886,-0.00069698346956977,0.00069698347332641,-0.00069698346937104,0.00069698347312786,0.72891346290552,122718,2924,0.0036012398547806,0.0063454112912225,0.0027970425339707,37.194402189036,0.00021275521751229,0.00021275521751229,0.00021275521751229,2381086.151405,0.012825652381013
38880000,0.99999787100727,0.013530914730241,0.0043493030811643,0.005580168080017,0.0036014435690599,-0.00086255876267878,0.00086255876227325,-1.4676050921424e-13,-1.4667910025247e-13,-5.6682493756371e-13,3.4975840335616e-13,-0.00098849775318238,0.00098849775228384,-0.00098849775365984,0.00098849775276132,-0.00098849775290964,0.00098849775258388,-0.00098849775338158,0.00098849775305587,-0.00080133510614145,0.0008013351058935,-0.0008013351063985,0.00080133510615077,2.4494154661565e-13,-6.9416255851621e-13,1.7391145771258e-12,-2.1768977325627e-12,-0.0015297743722316,0.0015297743717939,-0.0016928644314408,0.0016928644326225,-0.0016928644331652,0.0016928644317382,-0.001692864432343,0.0016928644328978,-0.0016928644340675,0.0016928644320135,-0.0013134196062431,0.0013134196093319,-0.001313419610591,0.001313419605997,-0.0013768272228208,0.0013768272220038,-0.001376827223606,0.0013768272209543,9.9979976562698e-13,9.9970935662421e-13,-0.00067068930065966,0.00067068930207292,-1.1430947262996e-12,2.763945683761e-12,-0.00078725387831986,0.00078725387820177,-0.00078725387701576,0.00078725387950756,-0.00078725387880771,0.00078725387868957,-0.0007872538775027,0.00078725387999446,-0.00069571895056905,0.00069571895398207,-0.00069571895038478,0.00069571895379797,0.74537476942469,122718,2924,0.003588471871946,0.0063528574945016,0.002792804228738,37.193613676957,0.00021274890941565,0.00021274890941565,0.00021274890941565,2323189.1519404,0.01281598083891
