time,ASR_ext,ASR_strain,ASR_strain_xx,ASR_strain_yy,ASR_strain_zz,disp_x_101,disp_x_102,disp_x_103,disp_x_104,disp_x_105,disp_x_106,disp_x_p1_neg,disp_x_p1_pos,disp_x_p2_neg,disp_x_p2_pos,disp_x_p3_neg,disp_x_p3_pos,disp_x_p4_neg,disp_x_p4_pos,disp_x_p5_neg,disp_x_p5_pos,disp_x_p6_neg,disp_x_p6_pos,disp_y_101,disp_y_102,disp_y_103,disp_y_104,disp_y_105,disp_y_106,disp_y_p1_neg,disp_y_p1_pos,disp_y_p2_neg,disp_y_p2_pos,disp_y_p3_neg,disp_y_p3_pos,disp_y_p4_neg,disp_y_p4_pos,disp_y_p5_neg,disp_y_p5_pos,disp_y_p6_neg,disp_y_p6_pos,disp_y_p7_neg,disp_y_p7_pos,disp_y_p8_neg,disp_y_p8_pos,disp_z_101,disp_z_102,disp_z_103,disp_z_104,disp_z_105,disp_z_106,disp_z_p1_neg,disp_z_p1_pos,disp_z_p2_neg,disp_z_p2_pos,disp_z_p3_neg,disp_z_p3_pos,disp_z_p4_neg,disp_z_p4_pos,disp_z_p5_neg,disp_z_p5_pos,disp_z_p6_neg,disp_z_p6_pos,humidity,ndof,nelem,strain_xx,strain_yy,strain_zz,temp,thermal_strain_xx,thermal_strain_yy,thermal_strain_zz,vonmises,vstrain
2419200,0,0,0,0,0,0,0,0,0,0,0,0,0,0,0,0,0,0,0,0,0,0,0,0,0,0,0,0,0,0,0,0,0,0,0,0,0,0,0,0,0,0,0,0,0,0,0,0,0,0,0,0,0,0,0,0,0,0,0,0,0,0,0,0,0,0,0,0,0,0,0,0,0,0,0
2919200,0.076469059353464,0.0015608377165848,0.00052027923886159,0.00052027923886159,0.00052027923886159,-0.00016408079502372,0.00016407295059167,-2.5450431141872e-09,-2.5450431347374e-09,-2.1605748217035e-09,-2.9659497025078e-09,-0.00016451277420095,0.00016450717608466,-0.00016451483302395,0.00016450923490746,-0.00016451306144849,0.00016450691874934,-0.00016451508074458,0.00016450893804537,-0.00016444410728948,0.0001644383558393,-0.00016444524313316,0.00016443949168289,-2.4334402230127e-10,5.0959462165323e-10,-1.8033834782329e-09,2.0586900210212e-09,-0.00017091836459139,0.00017091862093957,-0.00017038625867175,0.00017038484514552,-0.0001703868414658,0.00017038821475293,-0.00017038684068492,0.00017038597461675,-0.00017038742347888,0.00017038934422431,-0.00016947849402114,0.00016947526670085,-0.00016947584535398,0.00016948010164233,-0.00017166398734105,0.00017166484215137,-0.00017166412860688,0.00017166644809817,-1.023408467303e-08,-1.0234084596292e-08,-0.00015498644167555,0.0001549604514979,-8.0878929225553e-09,-1.2147317791338e-08,-0.00015619370233244,0.00015617270260927,-0.00015619509372897,0.00015617132164314,-0.0001561944796284,0.0001561734799052,-0.00015619586117135,0.00015617208908558,-0.00015947922943148,0.0001594564672014,-0.00015947859595071,0.00015945583372078,0.81617709402987,122718,2924,0.00068341907841381,0.00071190566147828,0.00064551499892891,32.416002311701,0.00017452801849361,0.00017452801849361,0.00017452801849361,1291996.5196973,0.0020429253081728
3419200,0.1557367285814,0.0030994659836134,0.001042680553255,0.0010671715829521,0.00098961384740622,-0.00028443948821694,0.00028443095499661,-3.0031300589335e-09,-3.0031862919336e-09,-2.6144514883518e-09,-3.4059402734508e-09,-0.00029026979193378,0.00029026305354791,-0.0002902725242099,0.00029026578560652,-0.00029027005296861,0.00029026279617575,-0.00029027277019906,0.00029026551317251,-0.00028090247059897,0.00028089584095608,-0.00028090459832956,0.00028089796859628,-3.0441082013487e-10,4.3399168982237e-10,-1.0115487727323e-09,1.1288347129038e-09,-0.00030608808207203,0.00030608820180318,-0.00030809867417435,0.0003080978119631,-0.00030810069410257,0.0003081012804625,-0.0003080997572361,0.00030809940527567,-0.00030810177719457,0.00030810287379276,-0.00029751087533699,0.00029750916895818,-0.00029751116949043,0.00029751362219378,-0.0003054583376422,0.00030545849088491,-0.00030545977251113,0.0003054613685899,-8.460830776343e-09,-8.4608869436756e-09,-0.00025422449116681,0.00025420370507871,-7.1798430746563e-09,-9.4898968267235e-09,-0.00026124453150433,0.00026122686589839,-0.0002612453139304,0.00026122609621223,-0.00026124564455395,0.00026122797889567,-0.00026124641805133,0.0002612272002871,-0.00026435362083061,0.00026433528695966,-0.00026435253226046,0.0002643341985714,0.78776538930105,122718,2924,0.0011844415688318,0.0012745480547643,0.001058678122586,31.910911318289,0.00017048729054631,0.00017048729054631,0.00017048729054631,2172933.3885524,0.0035238668943768
3919200,0.24272194319632,0.0047334091242371,0.0015872427331289,0.0017055098984442,0.0014406564926641,-0.00041102070857887,0.00041101379531762,-2.5989013908658e-09,-2.5988849692367e-09,-2.3745704775037e-09,-2.4729064422292e-09,-0.00042558550316836,0.00042557947965416,-0.0004255870411152,0.00042558101743559,-0.00042558553767108,0.0004255794518028,-0.000425587068172,0.00042558098212846,-0.00039999171901435,0.00039998596644254,-0.00039999263768987,0.00039998688526102,-7.1342539843203e-11,-1.8487999645478e-11,2.7520640334358e-09,-2.8434131354599e-09,-0.00046552098196596,0.00046552089166854,-0.00047635666438773,0.00047635839891355,-0.00047635988853368,0.00047635792321769,-0.00047635753426714,0.00047635931990375,-0.00047636075838794,0.0004763588441782,-0.00044069700855603,0.00044070245433773,-0.00044070314514338,0.00044069757034923,-0.00045823265563606,0.00045823068530086,-0.00045823342034789,0.00045823153788155,-3.1180801074098e-09,-3.118063382863e-09,-0.00035127954147125,0.00035127104182293,-5.6342019996434e-09,-1.5612693554142e-10,-0.00036577102993475,0.00036576219688175,-0.00036576921462948,0.00036576401952708,-0.00036577186248161,0.00036576302936052,-0.0003657700418887,0.00036576484672135,-0.00036835725107791,0.00036835242301377,-0.0003683565865106,0.0003683517588157,0.77553103014397,122718,2924,0.0017110988158419,0.0019377693811283,0.0014626341489712,32.496603391933,0.00017517282713546,0.00017517282713546,0.00017517282713546,3007880.6133919,0.0051246001563556
4419200,0.33792860501666,0.0064978240885195,0.002166350263198,0.0024349630171785,0.0018965108081431,-0.00054535860557365,0.00054535480444882,-1.1195264997063e-09,-1.1194753859369e-09,-1.7147016794589e-09,-7.0168980962268e-10,-0.00057087458193471,0.00057087124657583,-0.00057087538117966,0.00057087204563052,-0.0005708742456131,0.00057087159028135,-0.0005708750478942,0.00057087239236191,-0.00052502661458561,0.00052502439241831,-0.00052502714521256,0.00052502492323536,2.0311933237323e-10,-8.1874795925303e-10,3.3965487938835e-09,-3.9947839057997e-09,-0.00064876249768225,0.00064876189779239,-0.00067380212413941,0.00067380432118465,-0.00067380520991572,0.00067380250019659,-0.00067380323672034,0.00067380475795162,-0.0006738063224496,0.000673802936912,-0.00060086073710217,0.00060086706790979,-0.00060086876536828,0.00060086056821764,-0.00063030172351358,0.00063029968059261,-0.00063030397671162,0.0006302999168569,-1.0840188403049e-09,-1.0839674592951e-09,-0.00044959840674005,0.00044959469325857,-4.674865712782e-09,2.6343197753249e-09,-0.00047216270511459,0.00047215802162754,-0.00047216027785889,0.00047216045033221,-0.00047216327094583,0.00047215858741929,-0.0004721608445651,0.00047216101700163,-0.00047560646188449,0.00047560657749477,-0.00047560655816031,0.00047560667415446,0.77667599145511,122718,2924,0.0022697292644052,0.0026994716818549,0.0018717269104787,33.598539133645,0.00018398831306916,0.00018398831306916,0.00018398831306916,3701178.9098228,0.0068644066259764
4919200,0.44131490074951,0.0083979476987153,0.0027796340780635,0.0032596186188845,0.0023586950017673,-0.00068682446397462,0.00068682193154345,-5.9307758937572e-10,-5.9300983137945e-10,-1.2622588747622e-09,-9.509850865878e-11,-0.00072530219432467,0.00072530002043605,-0.00072530263561344,0.00072530046157574,-0.00072530179844883,0.00072530041783135,-0.00072530224519442,0.00072530086441887,-0.00065589470018261,0.00065589355101719,-0.00065589524814102,0.00065589409914517,1.7923764347185e-10,-9.7098818312458e-10,3.3893890877252e-09,-4.156200573896e-09,-0.00085767789150572,0.00085767712194868,-0.00090236189447267,0.00090236401533916,-0.00090236460417978,0.00090236172121619,-0.00090236283984358,0.0009023642038128,-0.00090236554948529,0.00090236190962174,-0.00078005615824324,0.00078006243122658,-0.00078006425951332,0.00078005569605745,-0.00082281368633506,0.00082281153722279,-0.00082281573116826,0.00082281131399701,-5.5680843233589e-10,-5.5674100109807e-10,-0.00054888361154923,0.00054888135925177,-4.2326484640537e-09,3.2505940049898e-09,-0.00058186705887298,0.00058186387472771,-0.00058186457485992,0.00058186635870312,-0.00058186749600017,0.00058186431179295,-0.00058186501452223,0.00058186679830731,-0.00058373056317114,0.00058373186724851,-0.00058373074563945,0.00058373205004801,0.7777191245786,122718,2924,0.0028576706800774,0.0035671684774344,0.0022847546048513,35.343378992877,0.00019794703194301,0.00019794703194301,0.00019794703194301,4220025.4538947,0.0087476861008826
5419200,0.54212029759723,0.01021724307173,0.0033510709871206,0.004085943874187,0.0027802282104226,-0.000814299665166,0.00081429940069758,4.3434791253008e-10,4.3442591451678e-10,-6.4505806341343e-10,1.1092563670382e-09,-0.00086708009973528,0.00086707992762907,-0.00086708028189648,0.00086708010963872,-0.00086707951014567,0.0008670805227743,-0.0008670797001283,0.00086708071259544,-0.00077193931796557,0.00077194052566845,-0.00077193991026155,0.00077194111820734,3.6419977085876e-10,-1.3493096459871e-09,3.6537601665467e-09,-4.6043869687269e-09,-0.0010666482026733,0.0010666472486709,-0.0011341558597236,0.00113415823131,-0.0011341585565493,0.0011341554442506,-0.001134156906002,0.0011341581376889,-0.001134159602765,0.0011341553505647,-0.0009553388413614,0.00095534543773265,-0.00095534759551324,0.00095533796368451,-0.0010117409629783,0.0010117389340683,-0.0010117438192725,0.0010117384180211,4.5616870935906e-10,4.562461823742e-10,-0.00063540939374,0.00063540973809793,-3.6106649563111e-09,4.6018247583762e-09,-0.00068100721786533,0.00068100625339945,-0.00068100448837289,0.00068100897857068,-0.00068100751343491,0.00068100654893429,-0.00068100478968588,0.00068100927985209,-0.00067701722250333,0.00067702090254485,-0.00067701762383542,0.00067702130428308,0.76998245812033,122718,2924,0.00338719894279,0.0044343169737173,0.0026446871270665,36.272805849209,0.00020538244679367,0.00020538244679367,0.00020538244679367,4557205.813674,0.010521259995033
5919200,0.63347491513889,0.011752216443806,0.0038154765819159,0.0048144724334451,0.0031222674284451,-0.00091323087892746,0.00091323226056176,1.0767771645865e-09,1.0768624188558e-09,-2.0945724376726e-10,2.0438316962858e-09,-0.0009818068898106,0.00098180804637353,-0.00098180682741778,0.00098180798386766,-0.00098180613425654,0.00098180880995093,-0.00098180608220378,0.00098180875777408,-0.00085758688707802,0.00085758955974303,-0.00085758746468599,0.00085759013760676,4.503923377056e-10,-1.7350309415839e-09,3.9367597169282e-09,-5.1758470753659e-09,-0.0012518945837339,0.0012518933397838,-0.0013463005761982,0.0013463031094635,-0.0013463032367153,0.0013462997068202,-0.0013463015478885,0.0013463026247776,-0.0013463042082561,0.0013462992219969,-0.0011034801488478,0.0011034871365194,-0.0011034895282229,0.0011034786112305,-0.0011717279026787,0.0011717257496288,-0.0011717309636807,0.001171724513274,1.4007279482852e-09,1.4008121228888e-09,-0.00070098986764446,0.00070099259460888,-3.0915969268655e-09,5.9974559210475e-09,-0.00076048745579782,0.00076048851607678,-0.00076048443205153,0.00076049153398333,-0.00076048765219174,0.00076048871240962,-0.00076048463628621,0.00076049173815995,-0.0007445285614048,0.00074453450949965,-0.00074452893676336,0.00074453488528684,0.72322607217621,122718,2924,0.003798004211547,0.0052023789104571,0.0029175427743693,36.779011722766,0.00020943209378213,0.00020943209378213,0.00020943209378213,4755473.8776324,0.011989372370157
6419200,0.71079794950107,0.013014882381654,0.0041853578848699,0.0054264307434065,0.0034030937533779,-0.00098708805516231,0.00098709132563028,1.8498544897243e-09,1.8499430722677e-09,2.316199051764e-10,3.1273537440781e-09,-0.0010696723885687,0.0010696751223637,-0.0010696720994392,0.0010696748331299,-0.001069671418931,0.0010696761030086,-0.0010696711434002,0.0010696758273629,-0.000920527718841,0.0009205322202615,-0.0009205283389409,0.0009205328406363,5.8078373345561e-10,-2.2155552870715e-09,4.1949969956625e-09,-5.7732278570872e-09,-0.0014067304754661,0.0014067288914962,-0.0015286344173037,0.0015286371145541,-0.0015286370848981,0.0015286331350687,-0.0015286353786015,0.0015286362033885,-0.0015286380460793,0.0015286322237914,-0.0012233027874697,0.0012233100689222,-0.001223312974612,0.0012233006747814,-0.0013009095742874,0.00130090738286,-0.0013009131760047,0.0013009054897645,2.3098012037764e-09,2.309888700142e-09,-0.00075032480082351,0.00075032982403715,-2.630075247536e-09,7.3388213298557e-09,-0.00082125430567028,0.00082125730023669,-0.00082125098537223,0.00082126061226798,-0.00082125438224301,0.00082125737674708,-0.00082125107269316,0.0008212606995297,-0.00079481608081265,0.00079482424323489,-0.00079481646010975,0.00079482462298416,0.70960752349485,122718,2924,0.0041046251686692,0.0058439014140362,0.0031228625850977,36.74151875714,0.00020913215005712,0.00020913215005712,0.00020913215005712,4889832.1056358,0.01315739231895
6919200,0.78041385688365,0.014188337166469,0.0045245841035721,0.0059923903283393,0.0036713627345574,-0.0010545432177897,0.0010545460384661,1.7702201111709e-09,1.7703106798963e-09,5.3841126403782e-12,3.1720683480188e-09,-0.0011499965219806,0.001149998974289,-0.0011499964318287,0.0011499988840413,-0.0011499954630199,0.0011500000484937,-0.0011499953827951,0.0011499999681626,-0.00098134315914905,0.0009813475514651,-0.00098134393507737,0.00098134832768203,6.1044099691716e-10,-2.4451150455902e-09,3.9465146626861e-09,-5.7194449230012e-09,-0.001557513569432,0.0015575117904971,-0.0017039061231245,0.0017039085957598,-0.0017039088151428,0.0017039048693589,-0.0017039071683158,0.0017039076041213,-0.0017039098602168,0.0017039038776068,-0.0013436559148689,0.0013436626266419,-0.0013436659242107,0.001343653633852,-0.0014287008835892,0.0014286988522551,-0.001428704812738,0.0014286967748546,1.1964973480718e-09,1.196586872733e-09,-0.00079845047209583,0.00079845267596938,-3.5754886905101e-09,6.073247507917e-09,-0.0008806908229205,0.00088069160522584,-0.00088068761414855,0.00088069480719492,-0.00088069096856535,0.00088069175080363,-0.00088068776985675,0.00088069496283948,-0.00084446270987451,0.00084446844491274,-0.00084446300628429,0.00084446874179381,0.73388447301289,122718,2924,0.004384626566677,0.0064682098175977,0.0033231519155501,38.624141811234,0.00022419313448988,0.00022419313448988,0.00022419313448988,4848622.0312576,0.014277203762066
7419200,0.8403873045088,0.015133547073686,0.0047913222444038,0.0064550570946231,0.0038871677346589,-0.0011014053521324,0.00110140802388,1.7324713593179e-09,1.732563107121e-09,-8.6163924232878e-11,3.1677765787176e-09,-0.0012111319155361,0.0012111342433648,-0.0012111318969503,0.0012111342246879,-0.0012111308271696,0.0012111353474704,-0.0012111308171843,0.0012111353373832,-0.001021272381166,0.0010212767200188,-0.0010212731993775,0.0010212775385264,6.1450193991696e-10,-2.5254017313577e-09,3.6859848652808e-09,-5.5331925798825e-09,-0.0016869683642134,0.0016869665110373,-0.0018559221683451,0.0018559244436643,-0.0018559248518003,0.0018559210089262,-0.0018559232897807,0.0018559234769398,-0.0018559259731143,0.0018559200420839,-0.0014452639381639,0.0014452701118654,-0.0014452736372478,0.0014452616821976,-0.0015347430437471,0.0015347411685097,-0.0015347471246929,0.0015347390764712,8.0122770949934e-10,8.0131774538392e-10,-0.00083289032831976,0.00083289160803761,-3.7592404308147e-09,5.4372952415833e-09,-0.00092917474382272,0.00092917485520414,-0.00092917168743241,0.00092917790644003,-0.00092917492658607,0.00092917503789759,-0.00092917187903844,0.00092917809797966,-0.00087687054969706,0.00087687532071657,-0.00087687080969896,0.00087687558119636,0.68603447609988,122718,2924,0.0045791822998483,0.007003853744619,0.0034665968229652,40.762811597947,0.00024130249278358,0.00024130249278358,0.00024130249278358,4654719.7727228,0.015163791332149
7919200,0.88542849479655,0.015823098637284,0.0049821274435645,0.0067922531870031,0.0040487180067167,-0.0011266694708653,0.0011266745540973,2.6092877321924e-09,2.6093800100469e-09,5.4047717154157e-10,4.3081374539462e-09,-0.0012461875870878,0.0012461918008209,-0.0012461872206297,0.0012461914342763,-0.0012461863258714,0.0012461930770202,-0.0012461859737524,0.001246192724804,-0.0010414494578853,0.0010414558382876,-0.0010414502431739,0.001041456623877,7.4179054027877e-10,-2.8852998529524e-09,3.9413783983013e-09,-6.0133814166784e-09,-0.0017772335449165,0.001777231466582,-0.0019667214301611,0.0019667239177861,-0.0019667240551314,0.0019667198953922,-0.0019667225123734,0.0019667225716707,-0.0019667251372188,0.0019667185491559,-0.001511874982135,0.0015118814813993,-0.0015118853313863,0.001511872271819,-0.0016040929271669,0.0016040910461456,-0.0016040973820652,0.001604088374736,2.4778993640316e-09,2.477990419612e-09,-0.00085185342410265,0.00085185903028738,-2.4774430798733e-09,7.4918993569197e-09,-0.00095706846256977,0.00095707213770693,-0.000957065141787,0.00095707545089034,-0.00095706847384634,0.00095707214891114,-0.00095706516457371,0.00095707547360824,-0.00089373971338692,0.0008937482917158,-0.00089373997481438,0.00089374855362742,0.66517730107635,122718,2924,0.0046841265049855,0.0073771929452801,0.0035456907318272,40.956062662505,0.00024284850130004,0.00024284850130004,0.00024284850130004,4536795.9078971,0.015729835503249
8419200,0.91895948174334,0.016328724753944,0.0051214866364775,0.0070364750037931,0.0041707631136729,-0.0011407818844209,0.0011407872070604,2.7267548432466e-09,2.726846956293e-09,4.9435578291355e-10,4.5980307739631e-09,-0.0012687510339563,0.0012687554154772,-0.0012687506868226,0.0012687550682595,-0.0012687496639513,0.0012687568049314,-0.0012687493298337,0.0012687564707189,-0.0010525251421413,0.0010525318712151,-0.0010525259659642,0.0010525326953408,8.2518354479737e-10,-3.1305564892952e-09,4.0775170045368e-09,-6.3060443880255e-09,-0.0018467764523564,0.0018467742172227,-0.0020517833687894,0.0020517859483376,-0.0020517861288297,0.0020517817835853,-0.0020517845254119,0.0020517844605449,-0.0020517872853248,0.0020517802956691,-0.0015639526330688,0.0015639592895563,-0.00156396341405,0.0015639496662834,-0.0016571186256502,0.0016571167657757,-0.0016571234008741,0.0016571137668511,2.3934760571534e-09,2.3935677477366e-09,-0.00086409934229667,0.00086410472518186,-2.766936927035e-09,7.6283708647969e-09,-0.00097762371795406,0.00097762711068454,-0.00097762025670025,0.00097763056478384,-0.0009776237299785,0.00097762712263535,-0.00097762028004778,0.00097763058806134,-0.00090351547308934,0.00090352401171825,-0.00090351569834198,0.0009035242374571,0.65392244039559,122718,2924,0.0047428123574138,0.0076647026360234,0.0035968293181523,41.432304801073,0.00024665843840858,0.00024665843840858,0.00024665843840858,4353229.3481874,0.016133554725988
8919200,0.94340211408981,0.016683271444608,0.0052185612762986,0.0072063970843053,0.0042583130840045,-0.0011464191240913,0.0011464248342033,2.884414424248e-09,2.8845064569866e-09,5.3341960350021e-10,4.8857484233276e-09,-0.001281484826383,0.0012814894968712,-0.0012814844573101,0.0012814891277158,-0.0012814833751344,0.0012814909699266,-0.0012814830188025,0.0012814906135012,-0.0010562161480569,0.0010562232888429,-0.0010562169849081,0.0010562241259982,8.8863651552914e-10,-3.3089144475232e-09,4.1771034107698e-09,-6.5168255092776e-09,-0.0018978172392366,0.0018978148927522,-0.0021146427637539,0.0021146454167629,-0.0021146455955337,0.0021146411179723,-0.0021146439587666,0.0021146438062763,-0.0021146467904171,0.0021146395073603,-0.001602046310921,0.0016020530807411,-0.0016020573942606,0.0016020431498082,-0.0016950618422776,0.0016950600027015,-0.0016950668360315,0.0016950567465021,2.5003968803619e-09,2.5004886238832e-09,-0.00087078344024501,0.00087078909538329,-2.8135315496307e-09,7.8940552788902e-09,-0.00099154357959616,0.00099154713503807,-0.00099154001453296,0.00099155069315148,-0.00099154357677144,0.00099154713213888,-0.00099154002305757,0.00099155070160523,-0.00090742005687092,0.00090742892426401,-0.00090742025652692,0.00090742912440688,0.62734198482558,122718,2924,0.004766339232112,0.0078756477973795,0.0036248166897385,41.891325950152,0.00025033060760122,0.00025033060760122,0.00025033060760122,4160093.5769488,0.016400332844394
9419200,0.96013210360845,0.016922266144048,0.0052840063426277,0.007319382262289,0.0043188775391308,-0.0011455699350977,0.0011455777530109,3.664948534952e-09,3.6650414431062e-09,1.0556199735418e-09,5.9612631072688e-09,-0.0012849242040599,0.0012849305400851,-0.0012849235644924,0.0012849299004373,-0.0012849225689887,0.0012849321990678,-0.0012849219460173,0.0012849315760052,-0.001054262450374,0.0010542714346498,-0.0010542632867554,0.0010542722713381,1.0327717372971e-09,-3.6932677454997e-09,4.5353746739463e-09,-7.1072753717337e-09,-0.001929641625723,0.0019296390465879,-0.0021558277414323,0.0021558306758568,-0.0021558305954372,0.0021558257421063,-0.0021558289010456,0.0021558286641663,-0.0021558317549198,0.0021558237302892,-0.001624066781905,0.0016240740678143,-0.0016240787007974,0.0016240631196575,-0.0017167136684957,0.0017167117882449,-0.0017167190615467,0.0017167078956015,3.7950035049097e-09,3.7950944929743e-09,-0.00087168337414781,0.00087169233880164,-2.0036710418721e-09,9.6817961849231e-09,-0.00099674650884922,0.00099675270956326,-0.00099674261264784,0.00099675659646539,-0.0009967463589684,0.00099675255960656,-0.00099674247665344,0.00099675646039879,-0.00090629155511387,0.00090630348073201,-0.0009062917198482,0.00090630364595631,0.61542000353453,122718,2924,0.0047629364742453,0.0080071620869188,0.0036287244416875,41.151250219621,0.00024441000175697,0.00024441000175697,0.00024441000175697,4028565.9276005,0.016534555681954
9919200,0.97138480676878,0.017082622080619,0.0053281131757867,0.0073941187483537,0.0043603901564787,-0.0011416038516261,0.0011416129483124,4.1483802165636e-09,4.1484729687696e-09,1.273490891426e-09,6.7432357024839e-09,-0.0012844362117639,0.0012844435008181,-0.0012844354278734,0.0012844427168479,-0.0012844343928937,0.0012844453492673,-0.0012844336262528,0.0012844445825357,-0.0010497976981929,0.0010498078928251,-0.0010497985465751,0.0010498087415144,1.1915819809884e-09,-4.0834002588662e-09,4.9698718939427e-09,-7.7650079234557e-09,-0.0019509353609712,0.0019509325580375,-0.0021832021672872,0.0021832054315282,-0.0021832052060024,0.0021831999498548,-0.0021832033738409,0.0021832030970733,-0.0021832064124246,0.0021831976152725,-0.0016390861031298,0.0016390940527056,-0.0016390990317931,0.0016390819736491,-0.0017310846271605,0.0017310826923297,-0.0017310904832633,0.0017310781831517,4.526863021942e-09,4.526953987659e-09,-0.00086988681782265,0.00086989763005756,-1.8133004488572e-09,1.0975651046952e-08,-0.00099865634932035,0.00099866385723706,-0.00099865208399962,0.00099866811212038,-0.00099865611674728,0.0009986636245878,-0.00099865186655743,0.00099866789460564,-0.00090274989467968,0.00090276372654779,-0.00090275002268865,0.00090276385504661,0.61191532397963,122718,2924,0.004746587262674,0.0080951306916193,0.0036213934179071,39.828255734434,0.00023382604587547,0.00023382604587547,0.00023382604587547,3907919.5948337,0.016599934370426
10419200,0.97894618669388,0.017192261793484,0.005358462248451,0.0074444832552173,0.0043893162898159,-0.0011361322061436,0.0011361422164363,4.4915026840033e-09,4.4915952782807e-09,1.4889022166512e-09,7.2396785656129e-09,-0.0012817536989243,0.0012817617038269,-0.001281752814184,0.001281760819006,-0.0012817517872788,0.0012817636468021,-0.0012817509206516,0.0012817627800869,-0.0010442343229493,0.0010442453384292,-0.0010442351839374,0.0010442461997246,1.2728303133194e-09,-4.2726186264926e-09,5.1986405075716e-09,-8.0980967477031e-09,-0.0019648724430831,0.0019648695356029,-0.0022010055709548,0.0022010090144098,-0.0022010086718245,0.0022010032146094,-0.0022010067691765,0.0022010064866265,-0.0022010098699169,0.0022010006867021,-0.001649076570257,0.0016490848746218,-0.0016490900091896,0.001649072206064,-0.0017403795841346,0.0017403776193819,-0.001740385649025,0.0017403727883532,5.0308267907059e-09,5.0309176707232e-09,-0.00086653047286852,0.00086654256219751,-1.5895753198592e-09,1.1771309613606e-08,-0.00099836513467175,0.00099837360412087,-0.00099836067726982,0.00099837805033939,-0.0009983648434107,0.00099837331278269,-0.00099836040198961,0.00099837777498807,-0.00089805596828447,0.00089807105111214,-0.00089805606405511,0.00089807114737024,0.62047456210692,122718,2924,0.0047239752657588,0.0081526875834756,0.0036075548075319,38.100154877183,0.00022000123901746,0.00022000123901746,0.00022000123901746,3806179.6039665,0.016621411492367
10919200,0.98449063666784,0.017269887731131,0.0053798919255669,0.0074800693510977,0.0044099264544667,-0.0011331542993305,0.0011331619915462,3.6572538051163e-09,3.6573462458477e-09,6.7781559399299e-10,6.3524862826693e-09,-0.0012815959957178,0.0012816020380615,-0.0012815954441618,0.0012816014864265,-0.0012815941163872,0.0012816039548063,-0.0012815935757452,0.0012816034140744,-0.0010413384837792,0.0010413476886728,-0.0010413393448313,0.0010413485500329,1.2658117900246e-09,-4.2279238947684e-09,5.1935101488299e-09,-8.0563762784701e-09,-0.0019780553037103,0.0019780524328495,-0.0022165361567784,0.0022165395683695,-0.002216539581943,0.0022165341702063,-0.0022165375638187,0.0022165373083564,-0.0022165409888502,0.0022165319100639,-0.0016598905236807,0.0016598988480485,-0.0016599040167828,0.0016598863087589,-0.0017503282332149,0.0017503262818959,-0.0017503343754388,0.0017503216208917,3.483677188555e-09,3.4837677710461e-09,-0.00086605541931559,0.0008660635207684,-3.0869941388598e-09,1.0183818706283e-08,-0.0010010066122466,0.0010010115633093,-0.0010010021944846,0.001001015973455,-0.0010010064993464,0.0010010114503328,-0.0010010020940252,0.0010010158729233,-0.00089622615263896,0.00089623793162628,-0.00089622627133591,0.00089623805081189,0.59839954993889,122718,2924,0.0047116898962677,0.0082071151436204,0.0036056485011809,37.946263910081,0.00021877011128065,0.00021877011128065,0.00021877011128065,3699792.7299371,0.016662337992019
11419200,0.98853038146953,0.017326288636561,0.0053955058279809,0.0075057112074798,0.0044250716011005,-0.0011303680325511,0.001130376075248,3.7882812170945e-09,3.7883739041427e-09,8.1671679526693e-10,6.4757811477429e-09,-0.0012793007666237,0.0012793071335719,-0.0012793001751377,0.0012793065420072,-0.001279298890618,0.0012793090455519,-0.001279298310924,0.0012793084657682,-0.0010386629454091,0.0010386724247995,-0.0010386638103903,0.0010386732900887,1.243382647043e-09,-4.2293668642749e-09,5.1685279929e-09,-8.0553557175887e-09,-0.0019849628743016,0.0019849599796165,-0.002226692544806,0.002226695922515,-0.0022266959190599,0.002226690484714,-0.0022266939106365,0.0022266936305221,-0.0022266972847575,0.0022266881925924,-0.0016636860918238,0.0016636943721319,-0.0016636995465501,0.0016636818472491,-0.0017537335261078,0.0017537315367249,-0.0017537396341174,0.0017537268850381,3.6560586046031e-09,3.6561493547912e-09,-0.00086467782404476,0.00086468637688909,-2.9042934051242e-09,1.0346098974628e-08,-0.0010001187294145,0.001000124101035,-0.00100011431736,0.0010001285051742,-0.0010001185917875,0.0010001239633312,-0.0010001141926543,0.0010001283803955,-0.00089431693518599,0.00089432907451573,-0.00089431704614227,0.00089432918596177,0.59529609897714,122718,2924,0.0047001731878625,0.0082356649791402,0.003599970619692,37.628568293041,0.00021622854634433,0.00021622854634433,0.00021622854634433,3657363.3316153,0.016673884164884
11919200,0.99145808238118,0.017368043234679,0.0054071437445557,0.0075244934699244,0.0044364060201993,-0.0011272416128882,0.0011272500721505,3.9423602011277e-09,3.9424528223894e-09,9.5300808909161e-10,6.6580076147906e-09,-0.0012774204565989,0.0012774271725406,-0.0012774198158541,0.0012774265317178,-0.00127741856419,0.0012774291000005,-0.0012774179361698,0.0012774284718895,-0.0010356555206973,0.0010356653431327,-0.0010356563889473,0.0010356662116886,1.2567728611577e-09,-4.2574435198464e-09,5.1948395547469e-09,-8.0960673581113e-09,-0.0019911643644789,0.001991161455415,-0.0022345033056707,0.0022345067101696,-0.0022345066487385,0.0022345011904623,-0.0022345046427616,0.0022345043580569,-0.0022345079856982,0.0022344988382206,-0.0016683506688159,0.0016683589850476,-0.0016683641743277,0.0016683463815809,-0.001757863238918,0.0017578612518059,-0.0017578693619831,0.0017578565350311,3.8902777870333e-09,3.8903684445712e-09,-0.00086312589897484,0.00086313505073848,-2.707047700051e-09,1.0616762518551e-08,-0.00099998245290784,0.00099998833564152,-0.00099997801510918,0.00099999276516364,-0.00099998228785773,0.0009999881705142,-0.00099997786339829,0.00099999261338036,-0.00089202074912549,0.00089203340673198,-0.00089202084594874,0.0008920335040436,0.60696177375419,122718,2924,0.0046872485148883,0.0082612693956944,0.0035935686300232,37.10515303049,0.00021204122424392,0.00021204122424392,0.00021204122424392,3599652.7729784,0.016680276200822
12419200,0.99361346001534,0.017399100874509,0.0054158290493988,0.0075383710526952,0.0044449007724148,-0.0011243848780184,0.0011243930287163,3.8306320035717e-09,3.8307243841871e-09,8.4616134957954e-10,6.5434174686762e-09,-0.0012763877971361,0.001276394243248,-0.0012763872028095,0.0012763936488418,-0.0012763859080699,0.0012763961677628,-0.0012763853255215,0.0012763955851235,-0.001033036402716,0.0010330459833483,-0.0010330372684681,0.0010330468494076,1.2659932887152e-09,-4.244484793256e-09,5.199594063147e-09,-8.0791849982088e-09,-0.0019972127435734,0.0019972098561632,-0.0022410518847483,0.0022410553004368,-0.0022410552717467,0.0022410498390053,-0.0022410532498211,0.0022410529824262,-0.0022410566366867,0.0022410475208671,-0.0016739205822382,0.0016739289111636,-0.0016739340892618,0.0016739163307257,-0.0017627801787806,0.0017627782158879,-0.0017627863084564,0.00176277351163,3.6787648462812e-09,3.6788554560628e-09,-0.00086207650581363,0.00086208510940854,-2.9099684394617e-09,1.0396140542849e-08,-0.0010009692123897,0.0010009746043921,-0.001000964781784,0.0010009790273356,-0.0010009690737562,0.0010009744656824,-0.0010009646558604,0.0010009789013399,-0.00089018496314934,0.00089019716583515,-0.00089018505828197,0.00089019726145818,0.61229629628597,122718,2924,0.0046754423038868,0.0082862206824729,0.0035892494170332,36.802505931805,0.00020962004745444,0.00020962004745444,0.00020962004745444,3530553.1252043,0.016689263371806
12919200,0.9951815320683,0.017420995810479,0.0054219334356519,0.0075481618415789,0.0044509005332482,-0.0011208102251071,0.0011208190216644,4.0664419374166e-09,4.0665344273207e-09,1.0542632459705e-09,6.823118864167e-09,-0.0012740653579496,0.0012740723333961,-0.0012740646846686,0.0012740716600358,-0.0012740634437113,0.0012740742820089,-0.0012740627836526,0.0012740736218599,-0.0010297597854467,0.0010297698932992,-0.0010297606541412,0.0010297707623008,1.28931155477e-09,-4.2864071389101e-09,5.246484907958e-09,-8.1440215837897e-09,-0.0020004559376811,0.0020004530322954,-0.0022449409848616,0.0022449444491926,-0.0022449443225747,0.002244938854563,-0.002244942307204,0.002244942039453,-0.0022449456447838,0.0022449364446949,-0.0016765282904545,0.0016765366866414,-0.0016765418776112,0.0016765239707774,-0.0017648943939698,0.0017648924372721,-0.0017649005463133,0.001764887629301,4.0632156448398e-09,4.0633061595957e-09,-0.00085994908313389,0.00085995867255516,-2.5852392435098e-09,1.0842290395826e-08,-0.0010001939820809,0.0010002002043961,-0.001000189508969,0.0010002046691497,-0.0010001937996532,0.001000200021892,-0.001000189339963,0.0010002045000714,-0.0008875832815511,0.0008875963372727,-0.00088758336038244,0.00088759641659244,0.59298586764042,122718,2924,0.0046606506136839,0.0082995936576375,0.0035804486307807,36.136974355637,0.0002042957948451,0.0002042957948451,0.0002042957948451,3480779.1249529,0.016678881745663
13419200,0.99629873212944,0.017436418494295,0.0054262360667923,0.0075550383414097,0.0044551440860928,-0.0011164524188497,0.0011164624236002,4.5126142338486e-09,4.5127067545351e-09,1.406119893848e-09,7.3822283375211e-09,-0.001269403694336,0.0012694116606578,-0.0012694028712876,0.0012694108375311,-0.0012694017098473,0.0012694136792884,-0.0012694009025132,0.0012694128718649,-0.0010256093398223,0.0010256204671538,-0.0010256102174883,0.0010256213451282,1.3347064250467e-09,-4.4342217202173e-09,5.367062629509e-09,-8.364000364236e-09,-0.0019995536767842,0.0019995506718525,-0.0022456965553765,0.0022457001122032,-0.00224569984155,0.0022456942226348,-0.0022456978233089,0.0022456975093222,-0.0022457011093489,0.0022456916196244,-0.0016740301890354,0.0016740387509949,-0.001674044056977,0.0016740256537777,-0.00176227032545,0.0017622683392798,-0.0017622766046373,0.0017622632814934,4.7870214556077e-09,4.7871121753638e-09,-0.00085611097025827,0.0008561224146206,-2.0371821610716e-09,1.1748464707962e-08,-0.00099601956774459,0.00099602733558009,-0.00099601497176154,0.00099603192168601,-0.00099601929940671,0.00099602706716562,-0.00099601471845204,0.00099603166830349,-0.0008837480725069,0.00088376277789594,-0.0008837481290091,0.00088376283488658,0.58571222176759,122718,2924,0.0046425921716665,0.0082958782083825,0.0035645311833523,34.796283805694,0.00019357027044555,0.00019357027044555,0.00019357027044555,3473316.6324732,0.016640558142152
13919200,0.99712140111832,0.017447633116299,0.0054293671321141,0.0075600304206516,0.0044582355635337,-0.001112997106016,0.0011130065668362,4.3197876191961e-09,4.3198801274335e-09,1.1693434491765e-09,7.2254033779454e-09,-0.0012662204027062,0.001266227883991,-0.0012662196579992,0.0012662271392054,-0.0012662183947044,0.0012662299291457,-0.001266217663675,0.0012662291980266,-0.0010222511367494,0.0010222618762585,-0.0010222520139161,0.0010222627537338,1.3584403165808e-09,-4.4957461503941e-09,5.4303673745925e-09,-8.4639011397477e-09,-0.0019998847133602,0.0019998816717379,-0.0022468540113981,0.0022468576044454,-0.0022468574306628,0.0022468517523503,-0.0022468553614454,0.0022468550341871,-0.0022468587805762,0.0022468491819628,-0.0016735739707097,0.0016735826313404,-0.0016735880222797,0.001673569392667,-0.0017615746372537,0.0017615726464302,-0.001761581033684,0.0017615675351488,4.4298657128602e-09,4.4299564010373e-09,-0.0008533612657951,0.00085337178306447,-2.4678349488363e-09,1.1469623262341e-08,-0.00099361028584794,0.00099361718612264,-0.00099360564204574,0.00099362182090416,-0.00099361005953391,0.00099361695973212,-0.00099360542991656,0.00099362160870182,-0.00088073177690657,0.00088074577540825,-0.0008807318402834,0.00088074583927462,0.5782908407589,122718,2924,0.0046282769426377,0.0082972421199887,0.0035531278193863,33.82932013155,0.0001858345610524,0.0001858345610524,0.0001858345610524,3452470.5537068,0.016615800885703
14419200,0.99772811590152,0.017455722778618,0.0054316235140053,0.0075636319274846,0.0044604673371284,-0.0011092121043475,0.0011092219690755,4.4700072383031e-09,4.470099708821e-09,1.2711912447558e-09,7.4325582326244e-09,-0.0012626222079982,0.0012626300093164,-0.0012626214156135,0.0012626292168533,-0.0012626201650166,0.0012626320899014,-0.0012626193869043,0.0012626313116995,-0.0010185489718188,0.0010185600654519,-0.0010185498531459,0.0010185609470859,1.3861706473794e-09,-4.5688486648095e-09,5.5076266071407e-09,-8.5851879725182e-09,-0.0019993053615787,0.0019993022758543,-0.0022470076889031,0.0022470113413051,-0.0022470111195342,0.0022470053642807,-0.0022470090323429,0.0022470086946425,-0.0022470124628394,0.0022470027174893,-0.0016722943273231,0.0016723031039372,-0.0016723085564228,0.0016722896548129,-0.0017601016846756,0.0017600996807858,-0.0017601081581944,0.0017600944490548,4.6669227692386e-09,4.6670134548934e-09,-0.00085012982864236,0.00085014095037331,-2.3306071540218e-09,1.1810358046511e-08,-0.00099062919511549,0.00099063657031619,-0.00099062448259476,0.00099064127338306,-0.0009906289416357,0.00099063631675976,-0.00099062424375977,0.0009906410344754,-0.00087729444490189,0.0008773090110719,-0.00087729449813592,0.00087730906479432,0.56553166178872,122718,2924,0.0046125931384423,0.0082948457355825,0.0035397249166887,32.643242230149,0.00017634593784119,0.00017634593784119,0.00017634593784119,3436386.4516541,0.016583796961
14919200,0.99816330134236,0.017461579545109,0.0054332626033889,0.0075662269078209,0.0044620900338992,-0.0011038755725813,0.0011038869419686,5.0243902250885e-09,5.0244827426685e-09,1.7084775032255e-09,8.1313241460995e-09,-0.0012571142810229,0.001257123309037,-0.0012571132990215,0.0012571223269581,-0.0012571121495167,0.0012571254778245,-0.0012571111848947,0.0012571245131135,-0.0010132527001935,0.001013265060903,-0.0010132535931356,0.001013265954153,1.4527823050272e-09,-4.7472029395029e-09,5.6873156561753e-09,-8.8731460889484e-09,-0.0019963437250513,0.0019963405308549,-0.0022449805123748,0.0022449843109606,-0.002244983889658,0.0022449779486668,-0.0022449817885777,0.0022449814217683,-0.0022449851657274,0.0022449750593448,-0.0016684163550366,0.0016684253948465,-0.0016684309786527,0.0016684114304288,-0.00175616033109,0.0017561582962787,-0.0017561669632549,0.0017561527453876,5.5893236411575e-09,5.5894143195454e-09,-0.00084496578314751,0.00084497926371238,-1.6495191862035e-09,1.2981137292837e-08,-0.00098533573526335,0.00098534506080934,-0.00098533085507839,0.00098534992963082,-0.00098533537533456,0.00098534470080306,-0.00098533051174865,0.00098534958622804,-0.00087208280178531,0.00087209947830389,-0.00087208282455081,0.00087209950155842,0.57027522767107,122718,2924,0.0045904709114585,0.0082826143078962,0.0035182985665033,30.580255128253,0.00015984204102603,0.00015984204102603,0.00015984204102603,3434300.2094166,0.016527092556266
15419200,0.99845982837947,0.017465856450857,0.0054344720377535,0.0075680980208609,0.0044632863922421,-0.0010953492248859,0.0010953630012935,5.9092875605713e-09,5.9093801478195e-09,2.3887904056848e-09,9.2758583574826e-09,-0.0012494887329541,0.0012494996833818,-0.0012494874508803,0.0012494984012301,-0.0012494864456533,0.0012495020082531,-0.0012494851854711,0.0012495007479814,-0.0010047587727944,0.0010047731714952,-0.0010047596837588,0.0010047740827675,1.5943706507769e-09,-5.0461531928367e-09,6.042956696821e-09,-9.3804246904647e-09,-0.0019918993763991,0.001991896030125,-0.0022405534014577,0.0022405575071943,-0.0022405567312373,0.0022405504926286,-0.0022405545863227,0.0022405542160005,-0.002240557915969,0.0022405472013057,-0.0016638663282221,0.001663875907416,-0.001663881691737,0.0016638610020885,-0.0017514193142875,0.0017514172621944,-0.0017514262379858,0.0017514111416943,7.0837028327832e-09,7.0837932602335e-09,-0.00083683282934489,0.00083685012076133,-5.9506491376359e-10,1.4931442772877e-08,-0.00097823211552802,0.00097824453230465,-0.00097822693011895,0.00097824970344375,-0.0009782315891477,0.00097824400584745,-0.00097822642318728,0.0009782491964394,-0.00086370282794281,0.00086372295509219,-0.00086370279768951,0.00086372292532819,0.6099827352991,122718,2924,0.0045551303320356,0.0082642253379482,0.0034845592249256,27.072287245967,0.00013177829796774,0.00013177829796774,0.00013177829796774,3415248.1427892,0.016438190202133
15919200,0.99868768218901,0.017469395731851,0.0054354811701266,0.0075696299084771,0.0044642846532472,-0.0010898221634143,0.001089833047577,4.8532674883332e-09,4.8533600443837e-09,1.3376290405128e-09,8.1824687035507e-09,-0.0012466048371085,0.0012466132773489,-0.0012466039426769,0.001246612382838,-0.0012466025736891,0.0012466155863515,-0.0012466016924144,0.0012466147049865,-0.00099946414974316,0.00099947628002931,-0.00099946504449281,0.00099947717508693,1.6295559487138e-09,-5.0018296751251e-09,6.1880992575213e-09,-9.4473204236695e-09,-0.001992787614513,0.0019927843463635,-0.0022398316038215,0.002239835810108,-0.0022398354065755,0.0022398291840248,-0.002239833069086,0.0022398328374851,-0.0022398368717061,0.0022398262112723,-0.0016662098902496,0.0016662197740037,-0.0016662255761002,0.0016662047543066,-0.0017531630434259,0.0017531610062311,-0.0017531701084829,0.0017531550320117,5.2924038575149e-09,5.2924937809162e-09,-0.00083282557488826,0.00083283824712665,-2.4606623268667e-09,1.3225590603833e-08,-0.00097706188277106,0.00097707010394362,-0.00097705665606737,0.00097707532052383,-0.00097706157229753,0.00097706979339348,-0.00097705636068019,0.00097707502506384,-0.00085902509078994,0.00085904147973237,-0.00085902510372895,0.00085904149315819,0.65577890942366,122718,2924,0.0045322368308285,0.0082678234054111,0.0034679426419176,25.354763269998,0.00011803810615998,0.00011803810615998,0.00011803810615998,3348968.9418722,0.016401710883679
16419200,0.99887256314634,0.017472022245082,0.0054362205201845,0.0075707820653734,0.0044650196595246,-0.0010854025133951,0.0010854120915917,4.3683415744925e-09,4.3684337200749e-09,9.3996896201255e-10,7.5958246757701e-09,-0.001244860144165,0.0012448674935449,-0.0012448594185813,0.0012448667678808,-0.0012448579449443,0.0012448697383721,-0.0012448572296727,0.0012448690230086,-0.00099557171055987,0.00099558274779186,-0.00099557259101065,0.00099558362854964,1.6035027923257e-09,-4.8531497446066e-09,6.1464730247035e-09,-9.2864064518926e-09,-0.0019944992791208,0.0019944961304212,-0.0022399495230953,0.0022399537067028,-0.0022399534397699,0.0022399473490929,-0.0022399510567983,0.002239950929841,-0.0022399549733387,0.0022399445721013,-0.0016693197825364,0.0016693296508336,-0.0016693353174841,0.0016693148696307,-0.0017556616398409,0.0017556596258872,-0.001755668592054,0.0017556538779198,4.4791894895913e-09,4.479279566186e-09,-0.00083019744295086,0.00083020803810399,-3.1658395350989e-09,1.2300424421025e-08,-0.00097714768561259,0.00097715410429611,-0.0009771425363083,0.00097715924520384,-0.00097714747092247,0.00097715388953001,-0.00097714233487702,0.00097715904369988,-0.00085597124869313,0.00085598584787706,-0.00085597128257471,0.00085598588224314,0.60060693522128,122718,2924,0.0045139403705432,0.008274822810228,0.003457056610677,24.412517048807,0.00011050013639046,0.00011050013639046,0.00011050013639046,3280900.3253332,0.016379183851914
16919200,0.99902621235895,0.017474463687808,0.0054369191324505,0.0075718290453343,0.004465715510023,-0.0010830547775206,0.0010830639216173,4.2154526809888e-09,4.2155453955265e-09,8.5389568617403e-10,7.3462265589978e-09,-0.001240201802507,0.0012402088678139,-0.0012402011350041,0.0012402082002318,-0.0012401996572245,0.0012402110588018,-0.0012401989991511,0.0012402104006389,-0.00099370263918045,0.00099371329719343,-0.00099370351682595,0.00099371417514764,1.5040537240735e-09,-4.789788956647e-09,5.9901152883838e-09,-9.1664593714877e-09,-0.001990243118574,0.0019902399336503,-0.0022383049145747,0.0022383089133445,-0.0022383088045181,0.0022383027180013,-0.002238306441242,0.0022383062383227,-0.0022383103310511,0.0022383000428502,-0.0016625648975975,0.0016625745138613,-0.0016625801781131,0.0016625600179765,-0.0017491979848934,0.0017491958662271,-0.001749204820664,0.001749190323041,4.169456004698e-09,4.1695466020599e-09,-0.00082742087081345,0.00082743068428056,-3.333485685977e-09,1.1848491294392e-08,-0.00097181483289402,0.00097182068402494,-0.0009718097796926,0.00097182572919915,-0.00097181464413471,0.00097182049518912,-0.00097180960406934,0.00097182555350309,-0.00085406077800201,0.0008540746354506,-0.00085406083373414,0.00085407469167175,0.6689580844723,122718,2924,0.0045041837523839,0.008257299041705,0.0034455163908228,23.780088232801,0.00010544070586241,0.00010544070586241,0.00010544070586241,3321946.4819165,0.016339700721944
17419200,0.99914674676826,0.017476267964143,0.005437431021154,0.0075726118426736,0.0044662251003156,-0.0010774355280868,0.0010774464606605,4.8585740507452e-09,4.8586650051782e-09,1.4701511781039e-09,8.0780348372866e-09,-0.0012383950424748,0.0012384035445814,-0.0012383941512452,0.0012384026532704,-0.0012383928541756,0.0012384057738809,-0.0012383919765929,0.0012384048962057,-0.00098805439624472,0.00098806646683231,-0.0009880552843914,0.00098806735528355,1.5909143918338e-09,-4.8066107528703e-09,6.1449912316183e-09,-9.2522326465848e-09,-0.0019924331780824,0.0019924300622229,-0.0022377836608477,0.0022377878635075,-0.0022377873866724,0.0022377813163833,-0.0022377850450233,0.0022377849625986,-0.002237788770714,0.0022377784153446,-0.0016671957251074,0.0016672056038501,-0.0016672111620703,0.0016671908040994,-0.0017530794193261,0.001753077386305,-0.0017530862271455,0.0017530716165203,5.3050907357556e-09,5.3051819437997e-09,-0.00082371446702811,0.00082372718374677,-2.3294634293442e-09,1.3120450877017e-08,-0.00097216265867827,0.00097217093450504,-0.00097215751011228,0.00097217607320194,-0.00097216235164158,0.00097217062739326,-0.00097215721784599,0.00097217578086434,-0.00084921478362111,0.00084923112543999,-0.00084921478762392,0.00084923112992461,0.63180123560822,122718,2924,0.004480930688912,0.008266246036441,0.0034301719245276,21.983776724828,9.1070213798628e-05,9.1070213798628e-05,9.1070213798628e-05,3235700.9688774,0.016309603966773
17919200,0.99923883522959,0.017477545787156,0.0054377899305243,0.0075731714898636,0.004466584366768,-0.0010707933629632,0.0010708054943355,5.3032136927359e-09,5.303305078431e-09,1.8170852900546e-09,8.6317365115511e-09,-0.0012305830984762,0.0012305925815909,-0.0012305820651497,0.0012305915481854,-0.0012305808406769,0.0012305948811315,-0.0012305798232573,0.0012305938636214,-0.00098196158699129,0.00098197467630621,-0.00098196247345188,0.00098197556307519,1.6169986897412e-09,-4.9716940486889e-09,6.2559160819403e-09,-9.4979937646337e-09,-0.0019858932229536,0.0019858899720335,-0.0022330483499474,0.0022330526143302,-0.0022330520365073,0.0022330457748756,-0.0022330496849987,0.0022330495265321,-0.0022330533714228,0.0022330426869474,-0.0016588360321816,0.0016588460578491,-0.0016588517513326,0.0016588308460267,-0.0017448956134445,0.0017448935070494,-0.001744902545844,0.0017448874891761,6.0130681574872e-09,6.0131598791618e-09,-0.0008168991322774,0.00081691366390713,-1.802449669694e-09,1.4020375113775e-08,-0.00096397497208247,0.00096398474749114,-0.00096396969599964,0.00096399001202159,-0.00096397457984776,0.00096398435518105,-0.00096396932033935,0.00096398963628959,-0.00084314625129877,0.00084316421987555,-0.00084314624809992,0.00084316421716379,0.58584131735113,122718,2924,0.0044533750163048,0.0082392528088556,0.0034018794111495,19.503919962938,7.1231359703507e-05,7.1231359703507e-05,7.1231359703507e-05,3260593.9777765,0.016225395522268
18419200,0.99931203674242,0.017478590197682,0.005438085125635,0.0075736256716942,0.0044668794003531,-0.0010663024521565,0.001066313965935,5.0877747071644e-09,5.0878663534107e-09,1.5446237766973e-09,8.4458533179786e-09,-0.0012240121941174,0.0012240211703185,-0.0012240112406122,0.0012240202167401,-0.0012240099108584,0.0012240234992369,-0.0012240089713013,0.0012240225595876,-0.00097748237639788,0.00097749503072739,-0.00097748326505299,0.00097749591968861,1.6080105986741e-09,-5.0690371381008e-09,6.2853741553693e-09,-9.6312441679842e-09,-0.0019798145755742,0.001979811220768,-0.0022292571592311,0.0022292613949732,-0.0022292609830408,0.0022292545970893,-0.0022292585836448,0.0022292583437938,-0.0022292624073194,0.0022292515457771,-0.001650513752075,0.0016505238080252,-0.0016505296636597,0.0016505084635992,-0.001736895139587,0.0017368929628526,-0.0017369022156245,0.0017368869122018,5.6051554163937e-09,5.6052472487385e-09,-0.00081160925597746,0.00081162273840882,-2.285445358419e-09,1.3689259104586e-08,-0.00095653666475978,0.00095654551106379,-0.00095653134084463,0.00095655082402091,-0.00095653631236974,0.0009565451585994,-0.00095653100459484,0.00095655048769555,-0.00083835343321176,0.00083837058929596,-0.00083835344634587,0.00083837060291601,0.60198893346353,122718,2924,0.00443472974355,0.0082141921958769,0.0033799047100412,17.480437463046,5.5043499704366e-05,5.5043499704366e-05,5.5043499704366e-05,3305369.2223692,0.016158633087987
18919200,0.99937591920588,0.01747955281275,0.0054383593293049,0.0075740408771413,0.0044671526063037,-0.001063953152097,0.0010639623717551,4.2472212407826e-09,4.2473127435465e-09,7.9988839940332e-10,7.4740404233719e-09,-0.0012229771948674,0.0012229842685332,-0.001222976531539,0.0012229836051263,-0.00122297499151,0.0012229865202041,-0.001222974336728,0.0012229858653306,-0.00097505862148439,0.00097506940596669,-0.00097505950580354,0.00097507029059241,1.567200537217e-09,-4.9077732827774e-09,6.172046455041e-09,-9.401116046358e-09,-0.0019809916836933,0.0019809884458708,-0.0022296696035591,0.002229673744915,-0.0022296736262651,0.0022296674106074,-0.0022296711814758,0.0022296710029579,-0.0022296752040478,0.0022296646685197,-0.001652414366862,0.001652424280238,-0.0016524300528142,0.0016524093702777,-0.0017384485193781,0.001738446387555,-0.001738455527587,0.0017384406587593,4.1849107759624e-09,4.1850022779327e-09,-0.00081014659668982,0.00081015643740949,-3.5201657948513e-09,1.2076009015014e-08,-0.00095652253514859,0.00095652827306499,-0.00095651734500761,0.00095653345534301,-0.00095652234664286,0.00095652808448298,-0.00095651716947101,0.00095653327973401,-0.00083631126826225,0.00083632529351849,-0.0008363113113619,0.00083632533710328,0.63537814132488,122718,2924,0.0044250010445278,0.0082190221665926,0.0033738385285191,16.875332687803,5.0202661502428e-05,5.0202661502428e-05,5.0202661502428e-05,3268557.7187533,0.016147504838039
19419200,0.99943616888611,0.017480504403261,0.00543863166554,0.0075744484382409,0.0044674242994806,-0.0010637194256795,0.0010637265375891,3.4687778070757e-09,3.4688698517673e-09,2.0361224308905e-10,6.476060169866e-09,-0.0012246986842142,0.001224704071632,-0.0012246982778339,0.0012247036651714,-0.0012246966149753,0.0012247061877546,-0.0012246962135647,0.0012247057862536,-0.00097499525691292,0.00097500424977503,-0.00097499612897433,0.00097500512214272,1.4718972560786e-09,-4.6234012654414e-09,5.9198286306518e-09,-8.9659768341505e-09,-0.0019849890343639,0.0019849859798767,-0.0022323335614187,0.0022323375087959,-0.0022323376423175,0.0022323317157743,-0.0022323352147851,0.0022323351101128,-0.0022323392955512,0.0022323293169626,-0.0016576876236903,0.0016576971800932,-0.0016577027369243,0.0016576830350225,-0.0017432234469327,0.0017432213653221,-0.0017432301972178,0.0017432161200427,2.880010062221e-09,2.880101265541e-09,-0.00081136209063896,0.00081136860426713,-4.4775282702613e-09,1.0403425283207e-08,-0.00095975846276035,0.00095976148371021,-0.00095975351627035,0.00095976642490664,-0.00095975842101146,0.00095976144188548,-0.00095975348487742,0.0009597663934434,-0.00083694463184322,0.00083695566186763,-0.00083694470682122,0.00083695573732909,0.66499874861131,122718,2924,0.0044240550564848,0.0082354887376525,0.0033788957320154,17.545471837739,5.556377470191e-05,5.556377470191e-05,5.556377470191e-05,3212737.4923933,0.016168432086212
19919200,0.99949426570184,0.017481406843059,0.0054388891753228,0.007574835587653,0.0044676820800834,-0.0010641225792542,0.0010641288042498,3.1264114253175e-09,3.1265036649015e-09,3.7293429254718e-10,5.5905829308819e-09,-0.0012267459029685,0.0012267508616386,-0.0012267455836074,0.0012267505421973,-0.001226744171292,0.0012267526246838,-0.0012267438598918,0.0012267523131925,-0.00097582626182638,0.00097583418408821,-0.00097582712658293,0.00097583504915289,1.1428939513155e-09,-3.9054473359706e-09,4.9681903046083e-09,-7.6401138551779e-09,-0.0019890389330073,0.0019890362540458,-0.0022353776121869,0.0022353808371537,-0.0022353810685861,0.002235375919304,-0.0022353790050717,0.0022353788663938,-0.0022353824613365,0.0022353739484142,-0.0016626794472388,0.0016626874882832,-0.0016626923907939,0.0016626756475863,-0.001747767211812,0.0017477652385777,-0.0017477729824308,0.0017477610808863,2.3068141996523e-09,2.306905361372e-09,-0.0008132787207914,0.00081328382425855,-3.9419531499783e-09,8.6710299472656e-09,-0.00096325328696655,0.00096325580129802,-0.00096324909313248,0.00096325999067631,-0.0009632532976806,0.0009632558119364,-0.00096324911360642,0.00096326001107871,-0.00083857740010406,0.00083858647508668,-0.00083857748902577,0.00083858656449097,0.65387747724813,122718,2924,0.0044257505066761,0.0082521805300781,0.0033868659023651,18.681308643403,6.4650469147221e-05,6.4650469147221e-05,6.4650469147221e-05,3162396.0150917,0.016195226555429
20419200,0.99954614368086,0.017482244704341,0.0054391294160265,0.0075751922084688,0.0044679230798459,-0.0010624871199109,0.001062495291352,3.8366621133174e-09,3.8367541812237e-09,1.0294352235819e-09,6.3922817167696e-09,-0.0012249641580845,0.0012249707205225,-0.0012249636000853,0.0012249701624438,-0.0012249623738552,0.0012249725328067,-0.0012249618284993,0.00122497198736,-0.00097461686595145,0.0009746263549435,-0.00097461773852905,0.00097462722782866,1.1761461934235e-09,-3.9996183178176e-09,4.9504235830165e-09,-7.6812997243308e-09,-0.0019884801388361,0.0019884774008332,-0.002235462970836,0.0022354662122951,-0.0022354661785025,0.0022354609981402,-0.0022354642209318,0.0022354639964241,-0.0022354674284641,0.0022354587821391,-0.001661473911111,0.0016614818643571,-0.0016614867843828,0.0016614699203802,-0.0017464680056281,0.0017464660808614,-0.0017464737856011,0.0017464616886703,3.4905026745393e-09,3.4905936435966e-09,-0.00081219093488414,0.00081219907919125,-2.7795133473634e-09,9.8838860324569e-09,-0.0009618968884864,0.00096190205587648,-0.0009618926712621,0.00096190626632049,-0.00096189676432917,0.00096190193164322,-0.00096189255923159,0.00096190615421772,-0.00083772175316851,0.00083773335273894,-0.00083772181116147,0.0008377334112171,0.67876340410219,122718,2924,0.0044189754826461,0.00824987589532,0.0033823600818654,18.601931702398,6.4015453619186e-05,6.4015453619186e-05,6.4015453619186e-05,3156011.9030144,0.016181413800751
20919200,0.99958929282971,0.017482916667348,0.0054393211814491,0.0075754797570907,0.0044681157288085,-0.001058110693622,0.0010581208906136,4.5768301031805e-09,4.5769220815009e-09,1.5953498819393e-09,7.3617503395804e-09,-0.0012221164308531,0.0012221245648092,-0.0012221156301957,0.0012221237640717,-0.0012221145118182,0.0012221265122888,-0.0012221137275076,0.001222125727887,-0.00097045147869672,0.00097046268187893,-0.00097045235646079,0.00097046355995025,1.3101249317003e-09,-4.2515516857791e-09,5.1744036685786e-09,-8.0183333227151e-09,-0.0019879032100523,0.0019879003585732,-0.0022341497625345,0.0022341532261538,-0.0022341528857295,0.0022341475284426,-0.002234150944915,0.0022341506727507,-0.0022341540679756,0.0022341449749095,-0.0016614835219607,0.0016614917762797,-0.0016614968413109,0.0016614791888288,-0.0017461692157228,0.0017461673609997,-0.0017461752414649,0.0017461624594074,4.7438841145617e-09,4.7439749357091e-09,-0.00080884907297602,0.0008088604162054,-1.8111589481021e-09,1.1439385857063e-08,-0.00096005438989745,0.0009600621575476,-0.00096004997154938,0.0009600665669022,-0.0009600541307485,0.00096006189832285,-0.00096004972663995,0.00096006632192073,-0.00083409741238932,0.00083411185610815,-0.00083409743137836,0.00083411187558145,0.65509999392574,122718,2924,0.0044008501218979,0.0082474510515893,0.0033685094594578,17.278090255855,5.3424722046843e-05,5.3424722046843e-05,5.3424722046843e-05,3120680.1910391,0.01614646890631
21419200,0.99962392263137,0.017483457061022,0.0054394754919626,0.0075757105417384,0.0044682710273213,-0.0010528021815139,0.0010528136304682,5.0400897408651e-09,5.0401819207298e-09,1.8705566878746e-09,8.0364162328829e-09,-0.0012161252585373,0.0012161343411144,-0.0012161243114403,0.0012161333939381,-0.0012161232083639,0.0012161364226997,-0.0012161222793859,0.0012161354936313,-0.00096540593657472,0.0009654182607252,-0.00096540681700959,0.00096541914146804,1.4201006276653e-09,-4.5268295651112e-09,5.4267308027461e-09,-8.430031319918e-09,-0.0019831189900982,0.0019831159787971,-0.0022305654081375,0.0022305690726752,-0.0022305685846564,0.0022305629737124,-0.0022305665982158,0.0022305662633931,-0.0022305697746003,0.0022305601643004,-0.0016554687686492,0.0016554773832727,-0.0016554826712653,0.0016554640808126,-0.00174023212699,0.0017402302634471,-0.0017402384600093,0.0017402249123148,5.4981134018049e-09,5.4982044249718e-09,-0.00080347471671728,0.00080348798522556,-1.3881041376067e-09,1.2540875069562e-08,-0.00095392708739277,0.00095393633612989,-0.00095392244030281,0.00095394097264535,-0.00095392674261975,0.0009539359912807,-0.00095392211133813,0.00095394064360828,-0.00082906417385527,0.00082908043984765,-0.00082906417711155,0.00082908044358985,0.65600719939019,122718,2924,0.0043788303629145,0.008227700284444,0.0033462013394154,15.232485956773,3.7059887654186e-05,3.7059887654186e-05,3.7059887654186e-05,3135051.5154096,0.016081347089676
21919200,0.99965337022618,0.017483910773765,0.0054396049076218,0.0075759046261484,0.0044684012399947,-0.0010491768329971,0.0010491870441948,4.5934638665838e-09,4.5935560199035e-09,1.3567928424946e-09,7.6355787988384e-09,-0.0012128878811937,0.0012128958854401,-0.0012128870933399,0.0012128950975071,-0.0012128857992456,0.001212898004214,-0.0012128850257006,0.0012128972305786,-0.00096186311632706,0.0009618745205592,-0.00096186399764096,0.00096187540218104,1.4622558902628e-09,-4.6090803051134e-09,5.5408929699938e-09,-8.5824926521525e-09,-0.0019814683898181,0.0019814653400151,-0.0022290572068641,0.0022290609436332,-0.0022290606368957,0.0022290549458558,-0.0022290585558056,0.00222905822497,-0.0022290619857028,0.0022290522270624,-0.0016536159700305,0.001653624773803,-0.0016536301940443,0.0016536112597285,-0.0017382492829064,0.001738247420446,-0.0017382558168539,0.0017382420189247,4.7278211187642e-09,4.7279121023528e-09,-0.00080029549213901,0.00080030677393594,-2.2790086423504e-09,1.1894926114177e-08,-0.00095113742244314,0.00095114485205694,-0.00095113269891239,0.00095114956661234,-0.00095113716591512,0.00095114459545275,-0.00095113245654466,0.00095114932417223,-0.00082576236017639,0.00082577707469544,-0.00082576237978168,0.00082577709478633,0.64802894638839,122718,2924,0.0043637998343039,0.0082208701387953,0.0033330053357366,13.996713156189,2.7173705249511e-05,2.7173705249511e-05,2.7173705249511e-05,3123594.8560465,0.016045730142502
22419200,0.99968193888677,0.01748436082888,0.0054397336847962,0.0075760963120162,0.0044685308320677,-0.0010500286814697,0.0010500355541458,3.3775149615047e-09,3.3776071058699e-09,2.9810448329465e-10,6.1878628514492e-09,-0.0012135640473656,0.0012135693583821,-0.0012135636714875,0.0012135689824249,-0.0012135620999828,0.001213571345996,-0.0012135617312003,0.0012135709771231,-0.00096283835771677,0.000962847033584,-0.00096283923401259,0.00096284791018787,1.3452117288815e-09,-4.3683407100722e-09,5.2918141394164e-09,-8.2143961353072e-09,-0.0019830581105414,0.0019830551801047,-0.0022310733140269,0.0022310768062677,-0.00223107698962,0.0022310715138333,-0.0022310748660308,0.0022310745562799,-0.0022310785414894,0.0022310692637153,-0.0016548315274172,0.0016548399782693,-0.0016548453156825,0.0016548272195569,-0.0017393354612045,0.0017393335874571,-0.0017393418562468,0.001739328740982,2.6508958459571e-09,2.6509869037006e-09,-0.00080163568817108,0.00080164165119436,-4.0322837189708e-09,9.4765559125187e-09,-0.00095228691846104,0.0009522899054337,-0.00095228242686246,0.00095229439209992,-0.00095228689197965,0.00095228987887608,-0.00095228241056045,0.00095229437572552,-0.00082702449742931,0.00082703459708874,-0.00082702457133133,0.00082703467147655,0.66209700792063,122718,2924,0.0043673310274617,0.0082274462359915,0.0033385599789784,14.849548117358,3.3996384938864e-05,3.3996384938864e-05,3.3996384938864e-05,3114588.3040771,0.016061640796957
22919200,0.99970895816065,0.017484764894444,0.0054398486433548,0.0075762695238942,0.0044686467271952,-0.0010499026674319,0.0010499100244507,3.5467189578653e-09,3.5468109779798e-09,5.6207144807735e-10,6.2725930461764e-09,-0.0012143508806983,0.0012143566479411,-0.0012143504379818,0.0012143562051452,-0.0012143489884928,0.001214358575721,-0.0012143485550563,0.0012143581421939,-0.0009627965227801,0.00096280550468589,-0.00096279739656097,0.00096280637877454,1.2935120044491e-09,-4.2368897510441e-09,5.1492876472676e-09,-7.995062960197e-09,-0.0019853369191318,0.0019853340657719,-0.0022328917505653,0.0022328951485382,-0.0022328952410494,0.002232889898046,-0.0022328931940372,0.0022328929040337,-0.0022328966843867,0.002232887653411,-0.0016575599132591,0.0016575681430875,-0.0016575733250308,0.0016575557230355,-0.0017417855043603,0.0017417836461296,-0.0017417916825717,0.001741778946993,2.9522555552369e-09,2.9523465208551e-09,-0.00080241304392563,0.00080241979560302,-3.559849441102e-09,9.598241172192e-09,-0.00095397594764126,0.00095397973206319,-0.00095397157007387,0.00095398410409072,-0.00095397588603031,0.00095397967037632,-0.00095397151929099,0.00095398405323562,-0.00082746454067104,0.00082747516423545,-0.00082746460561102,0.0008274752296601,0.62916623703724,122718,2924,0.0043668254833018,0.0082368402476841,0.0033417981057946,15.357160736954,3.8057285895635e-05,3.8057285895635e-05,3.8057285895635e-05,3084855.0191954,0.016073970149313
23419200,0.99973419824899,0.017485149518806,0.0054399584452986,0.007576433538333,0.0044687575351742,-0.0010501564993647,0.0010501641293939,3.6477426520652e-09,3.6478346703905e-09,7.0073143787455e-10,6.3322464607467e-09,-0.0012131973237098,0.0012132033594973,-0.0012131968480247,0.0012132028837334,-0.0012131954557746,0.0012132052612496,-0.0012131949903905,0.0012132047957755,-0.00096317535825299,0.00096318453051481,-0.00096317623652468,0.00096318540909472,1.2517960904299e-09,-4.1960696082479e-09,5.0344327015367e-09,-7.8817359661412e-09,-0.0019844529280997,0.0019844500733451,-0.0022334694465956,0.0022334727455282,-0.0022334728296311,0.0022334675324323,-0.0022334708389521,0.0022334705003443,-0.0022334742218528,0.002233465287118,-0.0016553320365239,0.0016553400663794,-0.0016553452158637,0.0016553278642367,-0.0017396488456438,0.0017396469786068,-0.0017396549363348,0.0017396423567365,3.0998228888676e-09,3.09991425988e-09,-0.00080246792101109,0.00080247505975084,-3.3011025401128e-09,9.6333768055339e-09,-0.00095261463947089,0.00095261884613968,-0.00095261033512181,0.00095262314457888,-0.00095261455666465,0.00095261876325724,-0.00095261026362119,0.00095262307300587,-0.00082777490590837,0.00082778577084246,-0.00082777496953489,0.00082778583495519,0.64041032716265,122718,2924,0.0043678682996797,0.0082332269739613,0.0033420186631619,15.70555498984,4.0844439918723e-05,4.0844439918723e-05,4.0844439918723e-05,3104622.8183058,0.016071568090106
23919200,0.99975907286953,0.017485557450042,0.0054400759564662,0.0075766056489962,0.0044688758445798,-0.0010519232375649,0.00105192933564,3.0876848046171e-09,3.0877766594888e-09,2.4318131338957e-10,5.6396535871012e-09,-0.0012157251854495,0.0012157299945636,-0.0012157248967036,0.0012157297057382,-0.0012157233970219,0.0012157318169594,-0.00121572311577,0.0012157315356169,-0.00096493979615127,0.000964947693504,-0.00096494066910348,0.00096494856676337,1.1897443217159e-09,-4.0382882581834e-09,4.8454223048511e-09,-7.6003385590506e-09,-0.0019881847231008,0.00198818196097,-0.0022367300332297,0.0022367331783006,-0.0022367334684235,0.0022367283501572,-0.0022367314998278,0.0022367311656476,-0.0022367349348872,0.0022367263373739,-0.0016595784797432,0.001659586219672,-0.0016595912773829,0.0016595745507698,-0.0017436078016033,0.0017436059751747,-0.0017436137675059,0.0017436016568645,2.1524256135901e-09,2.1525168650248e-09,-0.00080511339503353,0.00080511810805805,-4.0104457014308e-09,8.4337145627661e-09,-0.00095605013162484,0.00095605236584248,-0.00095604599477933,0.00095605649866559,-0.00095605015526875,0.0009560523894105,-0.00095604602784455,0.00095605653165878,-0.00083000025590919,0.00083000895257438,-0.00083000034205146,0.00083000903920154,0.68827841379539,122718,2924,0.0043752080642426,0.0082486293116835,0.00335300377096,17.003831417712,5.1230651341693e-05,5.1230651341693e-05,5.1230651341693e-05,3074773.7406535,0.016105845805001
24419200,0.9997827934102,0.017485935011599,0.0054401842626452,0.0075767655918992,0.0044689851570545,-0.0010521956821294,0.0010522023865652,3.2998946282416e-09,3.2999861003209e-09,5.4303628382936e-10,5.783274638459e-09,-0.0012183435874219,0.0012183489438541,-0.0012183432136977,0.0012183485700495,-0.0012183418462479,0.0012183507138338,-0.0012183414828108,0.0012183503503051,-0.00096528905428393,0.00096529735665987,-0.00096528992216536,0.00096529822484769,1.1538156544297e-09,-3.9133726879742e-09,4.6728932430837e-09,-7.3417785139413e-09,-0.0019928326586325,0.0019928299827711,-0.0022396588916794,0.0022396619380862,-0.0022396621010035,0.002239657153623,-0.0022396602431803,0.0022396599088425,-0.0022396634523698,0.0022396551242489,-0.0016658660547385,0.001665873506715,-0.0016658784031002,0.0016658622410168,-0.0017494051259873,0.0017494033689258,-0.0017494108821656,0.0017493991612998,2.5394409737129e-09,2.539532319978e-09,-0.00080695701057598,0.00080696272907712,-3.4217745888116e-09,8.6060561855233e-09,-0.00096021255002819,0.00096021579157568,-0.00096020854823555,0.00096021978860572,-0.00096021253091482,0.00096021577238698,-0.00096020853927755,0.00096021977957616,-0.00083118878947325,0.00083119816670178,-0.00083118886069082,0.0008311982384014,0.66831884467202,122718,2924,0.0043763711502763,0.0082677742344616,0.0033606777965141,17.881340245628,5.8250721965025e-05,5.8250721965025e-05,5.8250721965025e-05,3014897.2494629,0.016134300644168
24919200,0.99980476318654,0.017486267371787,0.0054402790655093,0.0075769070811856,0.0044690812250922,-0.0010520344631338,0.0010520418373381,3.5452004276211e-09,3.5452920475879e-09,7.7675196078468e-10,6.0489434074605e-09,-0.0012175613683633,0.0012175672864071,-0.0012175609148573,0.0012175668328214,-0.0012175596149165,0.0012175690674255,-0.0012175591733089,0.0012175686257271,-0.00096553867462611,0.00096554751279695,-0.00096553954782958,0.00096554838630749,1.1526447364357e-09,-3.9397548763694e-09,4.6370123754549e-09,-7.3327221162551e-09,-0.0019927319031489,0.0019927292004557,-0.0022404434484104,0.0022404464705224,-0.0022404465574045,0.002240441604441,-0.0022404447460994,0.0022404443642261,-0.0022404478549589,0.0022404394980142,-0.0016649460318792,0.0016649534012364,-0.0016649583045829,0.0016649421525214,-0.0017484572628377,0.0017484555149295,-0.0017484630094864,0.0017484512507964,2.9330404456314e-09,2.9331319470525e-09,-0.00080711444801435,0.00080712118139811,-3.0080132280548e-09,8.9837833539005e-09,-0.00095964775853006,0.0009596519050426,-0.00095964376653362,0.00095965589146767,-0.00095964769223813,0.00095965183867488,-0.00095964371125721,0.00095965583611921,-0.00083166098149776,0.00083167118328857,-0.00083166104388232,0.00083167124615695,0.63528367731871,122718,2924,0.0043757014428336,0.0082673745287096,0.003361331836266,18.351717067903,6.2013736543223e-05,6.2013736543223e-05,6.2013736543223e-05,3017308.5572217,0.016133866458153
25419200,0.99982634080408,0.017486625201263,0.005440382408769,0.0075770570753586,0.0044691857171355,-0.0010549169619081,0.0010549226123139,2.9219651498491e-09,2.922057320705e-09,2.1908091798385e-10,5.3163226988732e-09,-0.0012189815799681,0.0012189861083644,-0.0012189813434124,0.0012189858717303,-0.0012189798877272,0.0012189878303951,-0.0012189796592949,0.0012189876018733,-0.00096854960587475,0.00096855705164733,-0.00096855048116171,0.00096855792724321,1.0919388457237e-09,-3.841209299575e-09,4.4664195681245e-09,-7.1260618028799e-09,-0.0019941103416913,0.0019941076752241,-0.0022431975721361,0.0022432004316178,-0.0022432007940758,0.0022431959549555,-0.0022431989863678,0.0022431985623723,-0.0022432022081726,0.00224319408558,-0.0016650976698866,0.0016651047656789,-0.0016651096642946,0.0016650939686231,-0.0017486472574601,0.0017486455222656,-0.00174865296717,0.0017486415293022,1.8439382272856e-09,1.8440295292009e-09,-0.00080994641654117,0.00080995035919046,-3.8993782374362e-09,7.6895442326744e-09,-0.00096102296867064,0.00096102480785006,-0.0009610191163465,0.00096102865669446,-0.00096102302121522,0.00096102486031774,-0.00096101917788026,0.00096102871815575,-0.00083467075313743,0.00083467851743771,-0.00083467084560985,0.00083467861039656,0.69486036961156,122718,2924,0.0043876446052083,0.0082731114308185,0.0033730753082302,19.919329741648,7.4554637933182e-05,7.4554637933182e-05,7.4554637933182e-05,3032848.9502898,0.016163750857481
25919200,0.99984642354145,0.017486955131931,0.005440477484766,0.0075771957838311,0.0044692818633339,-0.0010552587930855,0.0010552655765567,3.3256405462141e-09,3.3257322869648e-09,6.4142851570171e-10,5.7372180744554e-09,-0.0012222184794819,0.0012222239462406,-0.0012222180925262,0.0012222235592048,-0.0012222167836769,0.001222225667697,-0.0012222164083506,0.0012222252922794,-0.00096873458488589,0.00096874289613489,-0.00096873545189454,0.00096874376345059,1.1074513324161e-09,-3.8148808852429e-09,4.4226924973683e-09,-7.0415167132038e-09,-0.0019995348015104,0.0019995321759186,-0.0022463849312827,0.0022463878017518,-0.0022463879529483,0.0022463831876831,-0.0022463862271726,0.0022463858102148,-0.0022463892487035,0.0022463811960157,-0.001672655611732,0.0016726626198857,-0.0016726674230739,0.0016726519004261,-0.0017556488380342,0.0017556471711993,-0.0017556544455192,0.0017556431018017,2.5724118070299e-09,2.5725026541535e-09,-0.0008119912931765,0.00081199710969298,-3.1215638952481e-09,8.3605727923605e-09,-0.00096596871409996,0.00096597221763018,-0.00096596489253759,0.00096597603438318,-0.00096596868885819,0.00096597219231276,-0.00096596487756089,0.00096597601933465,-0.00083576509317875,0.00083577436131149,-0.00083576516132911,0.00083577442994452,0.68893726305544,122718,2924,0.0043891030166788,0.0082954508890598,0.0033815898038875,20.734036831036,8.1072294648289e-05,8.1072294648289e-05,8.1072294648289e-05,2963383.1746486,0.01619661626209
26419200,0.99986385739001,0.017487255630984,0.0054405644856023,0.007577321102095,0.0044693700432863,-0.0010531730769955,0.0010531817191871,4.00254750907e-09,4.0026394270511e-09,1.2279290002516e-09,6.5445238441713e-09,-0.0012201898938296,0.0012201968558873,-0.001220189282645,0.0012201962446231,-0.0012201881220178,0.0012201986518317,-0.0012201875262366,0.0012201980559597,-0.00096710227568585,0.00096711210904794,-0.00096710314940883,0.00096711298307877,1.1689530578747e-09,-3.9569502801792e-09,4.5417670010769e-09,-7.2381887130092e-09,-0.001998631668999,0.0019986289656105,-0.0022458728478693,0.0022458758348161,-0.0022458757272708,0.0022458708420145,-0.0022458740334617,0.0022458735825148,-0.0022458769127283,0.0022458685895827,-0.0016713529651252,0.0016713601297205,-0.001671364989937,0.0016713490151332,-0.0017542638730449,0.0017542622144858,-0.0017542695662178,0.0017542578357667,3.7082336247711e-09,3.708324712067e-09,-0.00081042859112337,0.00081043732146983,-2.1482267221482e-09,9.6738773162923e-09,-0.00096433622401329,0.00096434216335738,-0.00096433228377523,0.00096434609663601,-0.0009643360710196,0.00096434201028784,-0.00096433214319812,0.00096434595598685,-0.00083446446749414,0.00083447625560154,-0.00083446450573309,0.00083447629432456,0.72144034873317,122718,2924,0.0043804598098711,0.0082917167381537,0.0033751114395042,20.399042236935,7.8392337895482e-05,7.8392337895482e-05,7.8392337895482e-05,2956022.1263833,0.016177448627656
26919200,0.99988008855108,0.017487526705631,0.0054406426334875,0.0075774347050232,0.00446944936712,-0.0010534186667819,0.0010534253849185,3.3043800675932e-09,3.3044718786456e-09,5.7011452189638e-10,5.7679291019605e-09,-0.0012219708025789,0.0012219761843639,-0.0012219704277204,0.0012219758094253,-0.0012219690744221,0.0012219779396875,-0.001221968710786,0.0012219775759601,-0.00096760181083307,0.00096761010921432,-0.00096760267927489,0.00096761097796351,1.1444162655745e-09,-3.8801306709067e-09,4.4628144755518e-09,-7.1085062557192e-09,-0.0020020083434954,0.0020020056909024,-0.0022482760233271,0.0022482789342337,-0.0022482790912617,0.0022482742979467,-0.0022482773593033,0.0022482769170256,-0.0022482804271031,0.0022482722806081,-0.0016756158757566,0.0016756229290373,-0.0016756277950036,0.0016756121062125,-0.0017581850934225,0.0017581834648546,-0.0017581908058757,0.0017581792976895,2.5218478742987e-09,2.5219388634538e-09,-0.00081201129750678,0.00081201697754226,-3.2234626440465e-09,8.3640449974681e-09,-0.00096731824156609,0.00096732159427034,-0.00096731438542458,0.00096732544572965,-0.00096731822252775,0.00096732157515636,-0.0009673143764953,0.00096732543672853,-0.00083575065774406,0.00083575985286971,-0.00083575072395564,0.00083575991956421,0.69956233686248,122718,2924,0.0043814987112588,0.0083056291892436,0.0033816892926883,21.28666980544,8.5493358443524e-05,8.5493358443524e-05,8.5493358443524e-05,2914019.2648558,0.016199337707243
27419200,0.99989515567439,0.017487776361354,0.005440714569682,0.0075775392386487,0.0044695225530238,-0.0010544035134623,0.0010544101000744,3.2571826298285e-09,3.257274667716e-09,5.4599417102676e-10,5.68874318533e-09,-0.0012222368529477,0.0012222421467557,-0.0012222364957198,0.0012222417894485,-0.001222235142775,0.0012222438837685,-0.001222234796626,0.0012222435375289,-0.0009689292627032,0.00096893744278443,-0.00096893013343106,0.0009689383138208,1.1182864355876e-09,-3.8518159236087e-09,4.3958827553875e-09,-7.0397537765897e-09,-0.002002789930146,0.0020027872794416,-0.0022499921070751,0.0022499949560502,-0.0022499951508607,0.0022499903868061,-0.002249993439607,0.0022499929718172,-0.0022499964832576,0.0022499884024426,-0.0016755362865406,0.001675543226947,-0.0016755480807813,0.0016755325447796,-0.0017580589590991,0.0017580573241603,-0.0017580646328828,0.0017580532255902,2.4224670146779e-09,2.422558255039e-09,-0.0008133460741125,0.00081335150728966,-3.2542260161584e-09,8.1957198754112e-09,-0.00096786002113969,0.00096786320595558,-0.00096785621113292,0.00096786701141945,-0.00096786001013986,0.00096786319487989,-0.00096785621016009,0.00096786701037453,-0.00083730517324709,0.00083731411598762,-0.00083730524483065,0.00083731418805559,0.69373344700985,122718,2924,0.0043855817838237,0.0083088787952848,0.0033872288454148,22.250586572441,9.3204692579531e-05,9.3204692579531e-05,9.3204692579531e-05,2916434.6237119,0.016212406571163
27919200,0.99990881197321,0.017488009630762,0.0054407820343445,0.0075776364430334,0.0044695911533842,-0.0010549503139331,0.0010549573721624,3.4279844571228e-09,3.428076615384e-09,7.1137151852408e-10,5.8741523702655e-09,-0.0012226987279873,0.0012227044119733,-0.0012226983129992,0.001222703996906,-0.001222697009936,0.0012227061558553,-0.0012226966071866,0.0012227057530155,-0.00096959105795919,0.00096959961103201,-0.00096959192942326,0.00096960048280504,1.121396586457e-09,-3.8641936332429e-09,4.3878679304702e-09,-7.0407481643883e-09,-0.002004048049019,0.0020040453893095,-0.0022516081660472,0.0022516110151162,-0.0022516111456663,0.0022516063784644,-0.0022516094584985,0.002251608976042,-0.0022516124379831,0.0022516043392593,-0.0016764652897799,0.0016764722068229,-0.0016764770536558,0.0016764615112091,-0.0017588615272572,0.0017588598984821,-0.001758867187039,0.0017588557572705,2.7087217616172e-09,2.7088130058647e-09,-0.00081437328230192,0.00081437945323869,-2.9673432868759e-09,8.4829117150244e-09,-0.00096878210074146,0.00096878592933028,-0.00096877828904473,0.00096878973594242,-0.00096878205695129,0.00096878588546417,-0.00096877825584668,0.00096878970267204,-0.00083824539782997,0.00083825494805756,-0.00083824546239418,0.00083825501310524,0.71478775320644,122718,2924,0.0043878565345929,0.0083140812836301,0.0033914976443514,22.918283329577,9.8546266636614e-05,9.8546266636614e-05,9.8546266636614e-05,2908054.8086804,0.016224341251192
28419200,0.99992102580015,0.017488227081931,0.0054408451606243,0.0075777265927484,0.0044696553285585,-0.0010548875167928,0.0010548948048304,3.5101574572407e-09,3.5102494338604e-09,7.775753155858e-10,5.9823362902622e-09,-0.0012237177155679,0.0012237235735955,-0.0012237172717821,0.0012237231297299,-0.0012237159834176,0.001223725331422,-0.0012237155523482,0.0012237249002618,-0.00096959530122572,0.00096960404424978,-0.00096959617105087,0.00096960491438295,1.1407427487391e-09,-3.8852689642883e-09,4.4123234517238e-09,-7.0666174915099e-09,-0.0020064293328822,0.0020064266717181,-0.0022533691989376,0.0022533720790406,-0.0022533721633379,0.0022533673904915,-0.0022533704811221,0.0022533700014613,-0.0022533734453873,0.0022533653127816,-0.0016794266586633,0.0016794336092544,-0.0016794384591517,0.0016794228529973,-0.0017615561745972,0.0017615545665679,-0.0017615618538803,0.0017615503657288,2.857577837602e-09,2.8576689166339e-09,-0.00081527462881825,0.00081528117885553,-2.8450188658324e-09,8.6587374351611e-09,-0.00097070423094937,0.00097070836883744,-0.00097070040072426,0.00097071219377097,-0.00097070417242607,0.00097070831023822,-0.00097070035297529,0.00097071214594991,-0.00083881140970435,0.00083882129147159,-0.00083881146767378,0.00083882134992442,0.74447173709192,122718,2924,0.0043876147191671,0.0083238936217273,0.0033952499144622,23.44123356969,0.00010272986855752,0.00010272986855752,0.00010272986855752,2877503.4461836,0.016237889884567
28919200,0.99993191190086,0.017488412818632,0.005440898807824,0.0075778039940868,0.0044697100167217,-0.0010544962010156,0.001054503457383,3.497586874802e-09,3.4976787431026e-09,7.5183355160034e-10,5.9873131922213e-09,-0.0012247020114458,0.0012247078272379,-0.0012247015717325,0.0012247073874446,-0.0012247002695986,0.0012247095951568,-0.0012246998424278,0.0012247091678948,-0.00096942097089022,0.00096942969731048,-0.00096942183878346,0.0009694305655114,1.1578107366767e-09,-3.8996559425996e-09,4.440183984133e-09,-7.0915822730294e-09,-0.002008955521951,0.0020089528636439,-0.0022550819154927,0.0022550848253276,-0.0022550849004691,0.0022550801234625,-0.0022550832098694,0.0022550827400636,-0.0022550861947108,0.0022550780380677,-0.00168269284425,0.0016826998394429,-0.0016827046959731,0.0016826890304455,-0.0017645340636152,0.0017645324723094,-0.0017645397703598,0.001764528236391,2.8430811343946e-09,2.8431721783238e-09,-0.00081607257175133,0.00081607908129302,-2.8853665322095e-09,8.670403497293e-09,-0.00097273509420058,0.00097273917508943,-0.00097273124684548,0.00097274301725143,-0.00097273503917754,0.00097273911999076,-0.00097273120247028,0.0009727429728044,-0.00083935873972995,0.0008393686067571,-0.00083935879554318,0.00083936866305317,0.7138103831273,122718,2924,0.0043860129300957,0.0083342963023905,0.0033985736476591,23.983500632853,0.00010706800506282,0.00010706800506282,0.00010706800506282,2841274.6958186,0.016250221210082
29419200,0.99994169667926,0.017488564499663,0.0054409421864416,0.007577867890062,0.0044697544231594,-0.0010553753971973,0.0010553822687828,3.3610319298442e-09,3.3611239948658e-09,6.2095658086814e-10,5.8293211350054e-09,-0.0012244679457158,0.0012244734585701,-0.0012244675559688,0.0012244730687439,-0.0012244662137379,0.0012244752174716,-0.0012244658356424,0.0012244748392858,-0.00097058306056229,0.00097059148510301,-0.00097058393173833,0.00097059235658644,1.1397174872366e-09,-3.8930839766627e-09,4.406746385864e-09,-7.0695168808179e-09,-0.0020090611706151,0.0020090585009554,-0.0022564219763065,0.0022564248437809,-0.0022564249979562,0.0022564202215134,-0.0022564233018728,0.0022564228090685,-0.0022564263233873,0.0022564181866705,-0.0016816755358071,0.0016816824752414,-0.0016816873556424,0.0016816717404832,-0.0017635173139764,0.0017635157067625,-0.001763523031044,0.0017635115284955,2.5866285772651e-09,2.5867198987161e-09,-0.00081704973128518,0.00081705558567793,-3.1111762141728e-09,8.3830707732915e-09,-0.000972586381216,0.00097258991936377,-0.00097258255568357,0.00097259374010938,-0.00097258635168918,0.00097258988976097,-0.00097258253644922,0.00097259372080259,-0.00084057658239302,0.00084058588826724,-0.00084057664752616,0.00084058595388462,0.64935524766203,122718,2924,0.0043896521351441,0.0083347634183644,0.0034026245771563,24.77819645897,0.00011342557167176,0.00011342557167176,0.00011342557167176,2852136.7335698,0.016258496219463
29919200,0.99995037885875,0.017488707088389,0.0054409833215697,0.0075779273259982,0.0044697964408212,-0.0010572538129062,0.0010572608827257,3.4372895524798e-09,3.4373817142445e-09,6.8436509371726e-10,5.9100389896598e-09,-0.001223347696244,0.0012233533874889,-0.0012233472864044,0.0012233529775715,-0.0012233459581312,0.0012233551525705,-0.0012233455603601,0.0012233547547104,-0.00097246270452206,0.00097247129781481,-0.00097246358252416,0.00097247217612589,1.1252480669734e-09,-3.9213553522269e-09,4.3685093170979e-09,-7.0731626178549e-09,-0.0020072182656765,0.002007215554149,-0.0022571934817235,0.002257196303672,-0.0022571964713814,0.0022571916691718,-0.002257194796284,0.0022571942463834,-0.0022571977858068,0.0022571896117524,-0.0016774356631448,0.0016774425213092,-0.0016774474434083,0.0016774318156672,-0.0017595170591929,0.0017595154331127,-0.0017595227938737,0.0017595112464101,2.6783472711878e-09,2.6784389320572e-09,-0.00081791986188577,0.00081792596092267,-3.001594417498e-09,8.4605671658492e-09,-0.00097065309656536,0.00097065686945419,-0.00097064928125865,0.00097066067969122,-0.00097065305115895,0.00097065682397121,-0.0009706492465294,0.00097066064488922,-0.0008418238483633,0.00084183334211588,-0.00084182391634626,0.00084183341058552,0.68704428878183,122718,2924,0.0043974160752861,0.0083272303818555,0.0034062199999691,25.464863371306,0.00011891890697044,0.00011891890697044,0.00011891890697044,2902284.6766025,0.016262359198327
30419200,0.99995802458664,0.017488820465462,0.0054410156995288,0.0075779752239198,0.0044698295420136,-0.0010576855569227,0.001057692634353,3.4360985451492e-09,3.4361906075233e-09,6.8958070643718e-10,5.9137458537118e-09,-0.0012258650995547,0.0012258707836218,-0.0012258646840418,0.0012258703680304,-0.001225863361817,0.0012258725478695,-0.0012258629585354,0.0012258721444962,-0.00097263702057067,0.00097264561096021,-0.00097263789247726,0.0009726464831788,1.1412353799837e-09,-3.905283676735e-09,4.3823010803572e-09,-7.0555669252148e-09,-0.0020114294954766,0.0020114268153336,-0.0022598254070793,0.0022598282588894,-0.0022598283899304,0.0022598236194339,-0.0022598267169115,0.0022598261974307,-0.002259829699627,0.0022598215578433,-0.0016832049681148,0.0016832118537596,-0.0016832167436333,0.0016832011515016,-0.0017648779021745,0.0017648763094452,-0.0017648836219031,0.0017648721077642,2.7098245911968e-09,2.7099156459027e-09,-0.00081960931182659,0.00081961548514678,-2.9712087964343e-09,8.4881588582076e-09,-0.00097441886447645,0.00097442269445264,-0.00097441504981443,0.00097442650412207,-0.00097441882045471,0.00097442265035525,-0.00097441501632344,0.00097442647056046,-0.00084270882251249,0.0008427183777896,-0.00084270888401404,0.00084271843977889,0.6219290633486,122718,2924,0.0043992347235337,0.0083445781720666,0.0034132478656066,26.130183076958,0.00012424146461567,0.00012424146461567,0.00012424146461567,2851578.2196022,0.0162890025976
30919200,0.99996482414975,0.017488930835387,0.0054410475871,0.0075780211355701,0.0044698621127172,-0.0010603240093783,0.001060330586303,3.2595984829671e-09,3.259690970868e-09,5.4336590117338e-10,5.6824782493666e-09,-0.001225355455792,0.0012253607620789,-0.0012253551078074,0.001225360414017,-0.0012253537467011,0.0012253624980644,-0.0012253534098958,0.0012253621611705,-0.00097533047453684,0.00097533865805395,-0.00097533135332977,0.00097533953715655,1.0962062911209e-09,-3.8686058976865e-09,4.2751150449346e-09,-6.9572263887448e-09,-0.0020099923325318,0.0020099896436643,-0.0022609732216298,0.0022609759642305,-0.0022609762122168,0.0022609714760663,-0.0022609745581045,0.0022609739869796,-0.0022609775485564,0.0022609694986846,-0.0016794427075262,0.0016794494118908,-0.0016794543124917,0.0016794389392767,-0.0017613951929783,0.0017613935809089,-0.0017614008825695,0.00176138950912,2.3659473675551e-09,2.3660385566352e-09,-0.00082112906615109,0.00082113436496781,-3.2085209288586e-09,8.0375905244953e-09,-0.00097298547245004,0.00097298861585714,-0.00097298173046793,0.00097299235341789,-0.00097298546134863,0.00097298860467878,-0.00097298172943752,0.00097299235231437,-0.00084470751336989,0.00084471627389331,-0.0008447075889866,0.00084471634999753,0.67884299782531,122718,2924,0.0044101453818702,0.0083387244359437,0.003419533600472,27.119201972278,0.00013215361577822,0.00013215361577822,0.00013215361577822,2904550.4095184,0.016300502627237
31419200,0.99997090732807,0.01748903056203,0.0054410764157352,0.0075780626511802,0.0044698914951145,-0.0010619251625124,0.0010619311511485,3.0392305551295e-09,3.0393229182527e-09,4.0684728875453e-10,5.3771325175279e-09,-0.001229894276347,0.0012298991229595,-0.0012298939916968,0.0012298988382303,-0.0012298926225277,0.0012299008018928,-0.0012298923485919,0.0012299005278669,-0.00097662631937378,0.00097663397641138,-0.00097662718517695,0.00097663484252346,1.0640097966428e-09,-3.7390067977324e-09,4.1601250513294e-09,-6.7479139431551e-09,-0.0020164044188013,0.0020164018244374,-0.0022650269905097,0.0022650296608486,-0.0022650299481315,0.0022650253599609,-0.002265028325828,0.0022650277937342,-0.0022650312833147,0.0022650234927156,-0.0016881923837352,0.001688198919646,-0.0016882036997334,0.0016881887927058,-0.0017696083214872,0.0017696067565416,-0.0017696138688557,0.0017696028598321,2.0355366309149e-09,2.0356270945024e-09,-0.00082441446655541,0.00082441891501107,-3.382498539815e-09,7.5346742932143e-09,-0.0009791654659465,0.00097916796244117,-0.00097916183429732,0.00097917159038632,-0.00097916549698525,0.00097916799340357,-0.00097916187462641,0.0009791716306429,-0.00084697113041016,0.00084697907757415,-0.00084697121006271,0.00084697915771113,0.68615600582869,122718,2924,0.0044168215942767,0.008365143772569,0.0034331885597813,28.436270495064,0.00014269016396051,0.00014269016396051,0.00014269016396051,2834229.2120417,0.01634804695372
31919200,0.9999761469451,0.017489117679727,0.0054411016285022,0.0075780987889996,0.0044699172622248,-0.001062587436048,0.0010625941975598,3.3177513963858e-09,3.3178438376418e-09,6.7708124676871e-10,5.6812300151463e-09,-0.0012309875320608,0.0012309930171086,-0.0012309871507319,0.0012309926357007,-0.0012309858650099,0.0012309947076109,-0.0012309854962563,0.001230994338767,-0.00097757367730383,0.00097758194306906,-0.000977574546369,0.00097758281244353,1.0726474520625e-09,-3.7571683152635e-09,4.1658339290448e-09,-6.7628076362218e-09,-0.00201834735846,0.0020183447549067,-0.0022668030097782,0.00226680569676,-0.0022668058694088,0.0022668012714275,-0.0022668042783708,0.0022668037378834,-0.0022668071378661,0.0022667993124202,-0.0016903380688091,0.0016903446030854,-0.0016903493661598,0.0016903344222358,-0.001771590895844,0.0017715893375695,-0.0017715964201852,0.0017715853679788,2.5098271003431e-09,2.5099175891339e-09,-0.00082577168534246,0.00082577735664829,-2.9226289660442e-09,8.0268919821823e-09,-0.00098086382760698,0.000980867381972,-0.00098086018259052,0.0009808710223886,-0.00098086380443638,0.00098086735872495,-0.00098086016961749,0.00098087100934317,-0.00084834115527069,0.00084835011898738,-0.00084834122059326,0.00084835018479512,0.69501901329211,122718,2924,0.0044195779347084,0.0083731596802106,0.0034388281458093,29.268766432708,0.00014935013146167,0.00014935013146167,0.00014935013146167,2815735.4097074,0.016364727234087
32419200,0.99998044923127,0.017489192754072,0.0054411234580412,0.0075781297292196,0.0044699395668114,-0.0010616523652912,0.0010616604495961,3.7975581824432e-09,3.7976506697355e-09,1.0546521293514e-09,6.2969789582035e-09,-0.0012305891598545,0.0012305956789999,-0.0012305886173802,0.0012305951364467,-0.0012305874129824,0.0012305974494751,-0.0012305868854487,0.0012305969218514,-0.00097684272168035,0.0009768520938945,-0.00097684359469955,0.00097685296722296,1.1478686770469e-09,-3.9082716568072e-09,4.3298187930668e-09,-6.9995917583353e-09,-0.0020189586427269,0.0020189559661243,-0.0022672247166254,0.0022672275529818,-0.002267227528554,0.0022672227964874,-0.002267225930338,0.0022672253794066,-0.0022672287421314,0.0022672206227813,-0.001691124814266,0.0016911315885235,-0.0016911364335761,0.0016911209503197,-0.0017722309099685,0.0017722293616499,-0.0017722365701866,0.0017722250855537,3.3281118521108e-09,3.3282023761193e-09,-0.00082545655886252,0.0008254643281142,-2.3061966067473e-09,9.0600903201381e-09,-0.00098100808238518,0.00098101333172122,-0.00098100429503223,0.00098101711298294,-0.00098100796848968,0.00098101321774934,-0.00098100419278527,0.00098101701066342,-0.00084798593234367,0.00084799676742429,-0.00084798597341774,0.00084799680898315,0.7287175643112,122718,2924,0.0044157118623995,0.0083756706745357,0.0034375293519695,29.299092480955,0.00014959273984764,0.00014959273984764,0.00014959273984764,2799034.793031,0.016362032186847
32919200,0.99998395435214,0.017489249583477,0.0054411398496793,0.0075781533682986,0.004469956365499,-0.0010600288967993,0.0010600372601904,3.9002021391673e-09,3.9002945335706e-09,1.0453351044158e-09,6.5280943824918e-09,-0.0012304998949491,0.0012305065626091,-0.001230499323481,0.0012305059910617,-0.0012304980709322,0.0012305084133521,-0.0012304975138777,0.0012305078562071,-0.00097540333435846,0.00097541300473373,-0.0009754042067089,0.00097541387739312,1.2358205460012e-09,-4.0587942500335e-09,4.5641531403722e-09,-7.2934855467289e-09,-0.0020203704629437,0.0020203677264765,-0.0022676705081837,0.0022676735381958,-0.0022676734540901,0.0022676685669784,-0.0022676717721159,0.0022676712578487,-0.0022676747178871,0.0022676662865004,-0.0016933964811839,0.001693403635215,-0.0016934085962131,0.0016933924557955,-0.001774247548266,0.0017742459981873,-0.0017742534178,0.0017742414604634,3.5126909671617e-09,3.5127814145631e-09,-0.00082492172154376,0.00082492994906181,-2.3797834540431e-09,9.5151277517454e-09,-0.00098184990505769,0.00098185537289806,-0.00098184594199982,0.00098185932967816,-0.00098184977555106,0.0009818552433153,-0.00098184582423173,0.00098185921183776,-0.00084722792293967,0.00084723932101201,-0.00084722795544982,0.00084723935400599,0.67786408424292,122718,2924,0.0044090003590481,0.0083814633491241,0.0034353218002305,29.174673826593,0.00014859739061274,0.00014859739061274,0.00014859739061274,2763955.2231728,0.016358866408941
33419200,0.99998685082965,0.017489299637657,0.0054411544009415,0.0075781739654274,0.0044699712712879,-0.0010601189037989,0.0010601268880811,3.76878075789e-09,3.7688735390167e-09,8.7520850431184e-10,6.4163306639732e-09,-0.0012285887604066,0.0012285951119501,-0.0012285882405761,0.0012285945920416,-0.0012285869191644,0.0012285969824624,-0.0012285864123996,0.0012285964756083,-0.00097577408892258,0.0009757834958003,-0.00097577496391041,0.00097578437109829,1.2371027620069e-09,-4.1169540347038e-09,4.6360379397527e-09,-7.420548633627e-09,-0.0020183032486024,0.0020183004568599,-0.0022674677137184,0.0022674707687216,-0.0022674707790117,0.0022674657933447,-0.0022674690367012,0.0022674685116545,-0.0022674721018593,0.0022674635361467,-0.0016896096827422,0.0016896169597029,-0.0016896220119714,0.0016896055998759,-0.0017706021475572,0.0017706005353127,-0.0017706081134734,0.0017705959750327,3.2567274070588e-09,3.2568180608988e-09,-0.0008244938667092,0.00082450143646481,-2.7295545932749e-09,9.3573954820877e-09,-0.00097950971730803,0.00097951456489268,-0.00097950569215315,0.0009795185840988,-0.00097950961262815,0.00097951446013603,-0.00097950559894201,0.00097951849081474,-0.00084724546363958,0.00084725638575774,-0.00084724550909518,0.00084725643169977,0.72119042534719,122718,2924,0.0044093545104383,0.0083729742123737,0.0034335342933256,29.316033472682,0.00014972826778146,0.00014972826778146,0.00014972826778146,2796060.9011922,0.016348759645114
33919200,0.99998931195579,0.017489341722825,0.005441166611916,0.0075781913379934,0.0044699837729154,-0.0010605996948057,0.0010606066508256,3.3928303097637e-09,3.3929229097825e-09,5.7074030104028e-10,5.9536573216791e-09,-0.0012310416470259,0.0012310471733309,-0.0012310412503843,0.0012310467766103,-0.0012310398591745,0.0012310489903817,-0.0012310394736123,0.0012310486047292,-0.00097615248511209,0.00097616103420219,-0.00097615335404752,0.00097616190344705,1.2051190560283e-09,-4.0014809987963e-09,4.5749093678945e-09,-7.2786759480931e-09,-0.0020222121624053,0.0020222094515786,-0.0022699091088719,0.0022699121160995,-0.0022699122429298,0.0022699073588396,-0.0022699104808371,0.0022699100143345,-0.0022699136147597,0.0022699052569437,-0.0016949056635865,0.001694912875384,-0.0016949178473614,0.0016949017629078,-0.0017755429374061,0.0017755413345032,-0.001775548814147,0.0017755369723014,2.6417206968803e-09,2.6418109803244e-09,-0.00082625381410159,0.00082625979895959,-3.2418149711014e-09,8.6288303249535e-09,-0.00098313294145714,0.00098313646743925,-0.00098312899117756,0.00098314041304544,-0.00098313290964562,0.00098313643555138,-0.00098312896952142,0.00098314039131679,-0.00084840813474281,0.00084841767834406,-0.00084840819169664,0.00084841773578225,0.71426718917534,122718,2924,0.0044113740205157,0.0083890750067392,0.0034408505804847,30.069378679907,0.00015575502943926,0.00015575502943926,0.00015575502943926,2749273.9204759,0.016374632693655
34419200,0.99999144986255,0.017489377540901,0.0054411769830146,0.0075782061390538,0.0044699944188322,-0.0010626081650544,0.0010626140365776,3.0004715694032e-09,3.0005642508597e-09,2.6377431967707e-10,5.4463894146008e-09,-0.0012328599721408,0.0012328646573749,-0.0012328597086223,0.0012328643937776,-0.001232858251357,0.0012328664072256,-0.0012328579969759,0.0012328661527545,-0.0009784620015476,0.00097846964373778,-0.00097846286957194,0.00097847051207199,1.1382608849701e-09,-3.8776774559684e-09,4.4287888831867e-09,-7.078007968421e-09,-0.0020245051221041,0.0020245024660385,-0.0022725255616322,0.0022725284336721,-0.0022725287298958,0.0022725239551376,-0.0022725269776827,0.0022725265102045,-0.002272530145811,0.0022725220315391,-0.0016969391672729,0.0016969461609954,-0.0016969510703107,0.0016969354424033,-0.0017774608323075,0.0017774592169605,-0.0017774665960352,0.0017774551145469,1.9614195005486e-09,1.9615099556176e-09,-0.00082880746918796,0.0008288117110699,-3.7463954546611e-09,7.7631021552878e-09,-0.00098542598916752,0.00098542811655341,-0.0009854221620964,0.00098543194017953,-0.00098542603159353,0.00098542815890299,-0.00098542221350686,0.00098543199151734,-0.00085104442053843,0.00085105240441128,-0.0008510444971149,0.00085105248147291,0.69956538819525,122718,2924,0.0044197053644911,0.0083985539564521,0.0034514479733805,31.478634921254,0.00016702907937004,0.00016702907937004,0.00016702907937004,2740725.4657682,0.016403499984235
34919200,0.99999333163759,0.017489409863486,0.005441186371365,0.0075782194377605,0.0044700040543605,-0.0010663991819333,0.0010664038952567,2.5811790011577e-09,2.5812717301045e-09,-4.0731741904862e-11,4.8804812091786e-09,-0.0012360563626305,0.0012360601621068,-0.0012360562410805,0.0012360600404784,-0.0012360547285708,0.0012360618242924,-0.0012360546142676,0.0012360617098996,-0.00098242191154241,0.00098242856884978,-0.00098242277952951,0.00098242943714729,1.0521736503466e-09,-3.713106090393e-09,4.2165412456769e-09,-6.7906114002477e-09,-0.0020278155959501,0.0020278130153325,-0.0022763936140426,0.0022763963006915,-0.0022763967776679,0.0022763921634256,-0.0022763950623702,0.0022763945836408,-0.0022763982258608,0.002276390446244,-0.0016998088694062,0.0016998155354988,-0.0016998203483482,0.0016998053676701,-0.0017802210035075,0.0017802193886056,-0.0017802266010606,0.0017802156113213,1.2347737138985e-09,1.2348642864556e-09,-0.00083298852952467,0.00083299091089809,-4.2220115672683e-09,6.773211367043e-09,-0.00098901587701303,0.00098901655024262,-0.00098901222415017,0.0009890202010135,-0.00098901599884661,0.0009890166720001,-0.00098901235368894,0.0009890203304807,-0.00085521233294178,0.00085521860814181,-0.0008552124299482,0.0008552187056347,0.71680103599005,122718,2924,0.0044354265799521,0.0084122484405942,0.0034687982017749,33.571633164901,0.00018377306531921,0.00018377306531921,0.00018377306531921,2737245.5970883,0.016451027178358
35419200,0.99999495860136,0.017489436161295,0.0054411939645846,0.0075782303316445,0.0044700118650655,-0.0010704090902942,0.0010704133054898,2.3967302410455e-09,2.3968228647752e-09,-1.014020901659e-10,4.5586411878762e-09,-0.0012408102095608,0.0012408136728296,-0.0012408101419064,0.0012408136050964,-0.0012408086597615,0.0012408152474809,-0.0012408085995208,0.0012408151871503,-0.00098648593450944,0.00098649211178714,-0.00098648679671189,0.0009864929742995,9.7076422658394e-10,-3.5379978410651e-09,3.9845132834425e-09,-6.4686581969912e-09,-0.0020332074905519,0.0020332050001925,-0.0022812253257483,0.0022812278317112,-0.0022812283742584,0.0022812239481035,-0.0022812267372732,0.0022812262489903,-0.002281229785648,0.0022812223652517,-0.0017058058294646,0.0017058121277957,-0.0017058167958018,0.0017058025337954,-0.0017859481330386,0.0017859465428347,-0.0017859535067432,0.001785943047177,9.2935366788522e-10,9.2944415278963e-10,-0.0008380060737533,0.00083800768145477,-4.2576011786477e-09,6.1813393184712e-09,-0.000994693632871,0.00099469381368578,-0.0009946901654161,0.00099469727955829,-0.00099469378741168,0.00099469396815004,-0.00099469032721007,0.00099469744127971,-0.00085989142900223,0.00085989687327763,-0.00085989153480232,0.00085989697956249,0.67521870466614,122718,2924,0.0044520719469103,0.0084345080067193,0.0034896301270233,35.927437598956,0.00020261950079165,0.00020261950079165,0.00020261950079165,2707310.9607965,0.016511755365637
35919200,0.99999627461166,0.017489458316947,0.0054412003964313,0.0075782394393828,0.0044700184811331,-0.001073708817433,0.0010737142371029,2.8307949731218e-09,2.8308878197205e-09,3.6420801268419e-10,4.9807732762659e-09,-0.001242331124697,0.0012423356105431,-0.0012423309094002,0.0012423353951685,-0.0012423295847981,0.0012423371710752,-0.0012423293803196,0.0012423369665078,-0.00098994135519449,0.00098994845096669,-0.00098994222509108,0.00098994932117375,9.4597754903522e-10,-3.5083611227995e-09,3.8319477619792e-09,-6.3119147328082e-09,-0.0020343359660087,0.0020343334799638,-0.0022838574708518,0.0022838598780675,-0.0022838602621307,0.0022838559196698,-0.0022838587501941,0.0022838581866794,-0.0022838615413377,0.0022838542281506,-0.0017056254404629,0.0017056314508507,-0.0017056360467392,0.0017056221130119,-0.0017858110649352,0.001785809522214,-0.001785816315691,0.0017858060164101,1.6460069371841e-09,1.6460976077446e-09,-0.00084100786689028,0.00084101133487354,-3.3946225030833e-09,6.7543328138709e-09,-0.00099604842158998,0.00099605031416656,-0.00099604504622964,0.00099605368656183,-0.000996048490551,0.00099605038305069,-0.00099604512390316,0.00099605376416231,-0.00086309459629668,0.00086310146911259,-0.00086309468469333,0.00086310155799581,0.70236606496818,122718,2924,0.0044657451456297,0.0084392177344268,0.0035020845246479,37.534957244908,0.00021547965795926,0.00021547965795926,0.00021547965795926,2729153.1772149,0.016543085190053
36419200,0.99999724522354,0.01748947442541,0.005441205066258,0.0075782460749844,0.0044700232841679,-0.0010728042036534,0.0010728123710808,3.8207734914135e-09,3.820866159631e-09,1.234185352856e-09,6.1607860468034e-09,-0.0012427929295453,0.0012427996153891,-0.0012427923704311,0.0012427990561964,-0.0012427912824494,0.0012428012802841,-0.0012427907400874,0.0012428007378326,-0.00098891270774465,0.00098892202964895,-0.00098891357908367,0.00098892290129792,1.0434079415448e-09,-3.6963219017855e-09,4.0139397358964e-09,-6.5807344383742e-09,-0.0020360553112792,0.0020360527381204,-0.0022846533833614,0.0022846559809748,-0.0022846559464621,0.002284651453393,-0.0022846544842984,0.0022846538990189,-0.0022846570472639,0.0022846493713062,-0.0017082225892896,0.0017082288480907,-0.0017082334919788,0.0017082189389245,-0.0017881675312511,0.0017881660191337,-0.0017881728748745,0.0017881620528487,3.3605232980608e-09,3.3606137464815e-09,-0.00084093546704199,0.00084094334223894,-1.9173297629213e-09,8.7208343340111e-09,-0.00099728054046749,0.000997286116939,-0.00099727699365038,0.00099728965762016,-0.00099728041829349,0.00099728599468843,-0.00099727688331183,0.00099728954720877,-0.00086258317017617,0.00086259383712569,-0.00086258320869851,0.00086259387613288,0.6928123392371,122718,2924,0.0044620174905503,0.0084462871201515,0.003501802282905,37.488422002518,0.00021510737602014,0.00021510737602014,0.00021510737602014,2698356.1443365,0.016546209551717
36919200,0.99999794447343,0.01748948558576,0.0054412082897017,0.0075782506886488,0.0044700266074097,-0.0010709727156694,0.0010709819078905,4.1959564495651e-09,4.1960491904654e-09,1.4542200274036e-09,6.7164712454727e-09,-0.0012407093745471,0.0012407168210766,-0.0012407086940136,0.0012407161404648,-0.0012407076175311,0.0012407185984428,-0.001240706955052,0.0012407179358742,-0.00098720205333011,0.00098721228858879,-0.00098720292880083,0.00098721316436955,1.1474058635385e-09,-3.9173686200188e-09,4.2506394878226e-09,-6.9297935388583e-09,-0.0020346464274743,0.0020346437415628,-0.0022836853397041,0.0022836881361994,-0.0022836879570405,0.0022836832634269,-0.0022836864473753,0.0022836858396089,-0.0022836890645763,0.0022836809667054,-0.0017063980095717,0.0017064046197045,-0.0017064094301372,0.0017063940828847,-0.0017863184109947,0.0017863169057794,-0.0017863240107005,0.0017863125566281,3.9890005094766e-09,3.9890910125767e-09,-0.00083917757797629,0.00083918705893944,-1.5803678846401e-09,9.6560883392379e-09,-0.00099529138853081,0.00099529817740121,-0.00099528764034222,0.00099530191826461,-0.00099529119631692,0.00099529798511069,-0.00099528746109823,0.00099530173894772,-0.00086089492134951,0.00086090711745236,-0.00086089494219945,0.00086090713878784,0.66632587123713,122718,2924,0.0044544227595082,0.008440472639911,0.0034945082175279,36.862167310422,0.00021009733848338,0.00021009733848338,0.00021009733848338,2700793.5914557,0.016525160136005
37419200,0.99999848412439,0.017489494291759,0.0054412108093274,0.0075782542790318,0.0044700292034001,-0.0010725690623948,0.0010725759227372,3.3609702335727e-09,3.3610629546774e-09,6.0669209674128e-10,5.8394733727439e-09,-0.0012411850815363,0.0012411905908693,-0.0012411846980168,0.001241190207272,-0.0012411833413877,0.0012411923576384,-0.0012411829699542,0.0012411919861174,-0.00098887158142077,0.00098888001278805,-0.00098887245509884,0.00098888088677877,1.1391246223482e-09,-3.9170962677508e-09,4.2545594491881e-09,-6.9414100468055e-09,-0.002035111208496,0.0020351085148169,-0.0022851124797539,0.0022851152392024,-0.0022851154220171,0.0022851107215531,-0.0022851138153286,0.0022851131991329,-0.0022851167574564,0.0022851086813576,-0.0017060275647683,0.00170603419712,-0.0017060391211342,0.0017060237493465,-0.0017859561430093,0.0017859546271184,-0.0017859618927936,0.0017859504354421,2.535971215151e-09,2.5360618916603e-09,-0.0008406055255048,0.00084061125640123,-3.0251526247227e-09,8.1897940334995e-09,-0.00099570697493111,0.00099571050349985,-0.00099570324218966,0.00099571423169464,-0.00099570694763998,0.00099571047613477,-0.00099570322508182,0.00099571421451392,-0.00086240518609201,0.00086241429372631,-0.00086240524788453,0.00086241435601164,0.67334138748447,122718,2924,0.0044610300211018,0.0084424225259,0.0035004216831939,37.673312499279,0.00021658649999423,0.00021658649999423,0.00021658649999423,2713828.4464428,0.016539860066863
37919200,0.99999888214962,0.017489500501993,0.0054412126016854,0.007578256849209,0.0044700310510989,-0.0010720884114133,0.0010720965848856,3.8323621952707e-09,3.8324548612153e-09,1.0279775998208e-09,6.3932706472055e-09,-0.0012411773572375,0.0012411839232072,-0.0012411768075993,0.0012411833734909,-0.0012411755707813,0.0012411857347162,-0.0012411750360262,0.0012411851998719,-0.00098831841491163,0.00098832790222089,-0.00098831928961993,0.00098832877723928,1.1812007384224e-09,-3.9957830269243e-09,4.3695514408499e-09,-7.0915383019609e-09,-0.0020359027844937,0.0020359000555714,-0.0022856569776943,0.0022856598458757,-0.0022856598247609,0.0022856550372801,-0.0022856582219993,0.0022856576230739,-0.0022856610689305,0.0022856528143471,-0.0017070841377097,0.0017070909491492,-0.0017070958841445,0.0017070801790413,-0.0017868758997483,0.0017868743731611,-0.0017868816789203,0.0017868699773373,3.3566289839761e-09,3.3567195499769e-09,-0.00084052807645388,0.00084053592198581,-2.3420830352357e-09,9.1556043050015e-09,-0.00099610986447396,0.0009961151453328,-0.00099610603350573,0.00099611897021499,-0.00099610974514323,0.00099611502592534,-0.00099610592587673,0.00099611886251309,-0.000862084973624,0.00086209591441789,-0.00086208501200099,0.00086209595328066,0.6516195606442,122718,2924,0.004459047075236,0.0084456816420379,0.0035001079036858,37.676461539154,0.00021661169231323,0.00021661169231323,0.00021661169231323,2700134.6117603,0.016540844030873
38419200,0.99999916990957,0.017489505280266,0.0054412139906735,0.0075782588089382,0.0044700324806545,-0.0010710350757626,0.001071044086436,4.1380708895028e-09,4.1381634795865e-09,1.2545599605066e-09,6.7937319396821e-09,-0.0012392727500211,0.0012392799772007,-0.00123927209756,0.0012392793246619,-0.0012392709056061,0.0012392818472624,-0.001239270269479,0.0012392812110464,-0.00098728821708396,0.00098729841606761,-0.00098728909621579,0.00098729929550967,1.2275515038501e-09,-4.1140504776996e-09,4.5071450230487e-09,-7.2984929542854e-09,-0.0020342664914799,0.0020342636930185,-0.002284836759156,0.0022848397361504,-0.0022848396052116,0.0022848346870658,-0.0022848379755341,0.0022848373696876,-0.0022848408214541,0.0022848323204719,-0.0017047098296964,0.0017047168521246,-0.0017047218715171,0.0017047057050859,-0.0017845439458919,0.0017845423926429,-0.0017845498391204,0.0017845377887723,3.8691971774947e-09,3.869287954562e-09,-0.00083918255630484,0.00083919171746059,-2.0034899281403e-09,9.8507192991484e-09,-0.00099402330785281,0.00099402963397783,-0.00099401935599398,0.00099403357870586,-0.000994023129138,0.00099402945518662,-0.00099401919003662,0.00099403341267567,-0.00086082949732715,0.00086084164241833,-0.00086082952224683,0.00086084166782376,0.69258613218925,122718,2924,0.0044546720836257,0.0084389434865509,0.0034945205564691,37.19838603477,0.00021278708827816,0.00021278708827816,0.00021278708827816,2714310.6501449,0.016523860348651
38880000,0.99999937085678,0.017489508663694,0.0054412149749176,0.007578260195899,0.0044700334928777,-0.0010701241338875,0.0010701323623176,3.8553984244525e-09,3.8554908254633e-09,9.3888493856255e-10,6.5399520827766e-09,-0.0012402816053551,0.0012402881385783,-0.0012402810540682,0.0012402875872127,-0.0012402797440354,0.0012402900288397,-0.0012402792063594,0.0012402894910739,-0.00098623627110709,0.00098624588289547,-0.0009862371466907,0.00098624675878843,1.2677065928455e-09,-4.1449598640861e-09,4.6501614248781e-09,-7.4318935020491e-09,-0.0020366214251234,0.0020366186361539,-0.0022857702387336,0.0022857733267511,-0.0022857732789715,0.0022857683058694,-0.0022857715536114,0.0022857710215613,-0.0022857745937138,0.0022857660005486,-0.0017084139525262,0.0017084212367577,-0.0017084262997159,0.0017084098466408,-0.0017879647355578,0.0017879631745881,-0.0017879707378696,0.0017879585357065,3.4099920259373e-09,3.4100824212791e-09,-0.00083930971541364,0.00083931767591274,-2.59167092085e-09,9.5242218965983e-09,-0.00099595270196439,0.00099595787829473,-0.00099594866642522,0.00099596190783421,-0.00099595258256185,0.00099595775881571,-0.00099594855854368,0.00099596179987999,-0.00086045049132296,0.00086046174441926,-0.00086045052249712,0.00086046177607784,0.70236789196242,122718,2924,0.0044509156071182,0.0084486244400855,0.0034950572075312,37.193687633871,0.00021274950107097,0.00021274950107097,0.00021274950107097,2673417.3588624,0.016530447354963
