time,ASR_ext,ASR_strain,ASR_strain_xx,ASR_strain_yy,ASR_strain_zz,disp_x_101,disp_x_102,disp_x_103,disp_x_104,disp_x_105,disp_x_106,disp_x_p1_neg,disp_x_p1_pos,disp_x_p2_neg,disp_x_p2_pos,disp_x_p3_neg,disp_x_p3_pos,disp_x_p4_neg,disp_x_p4_pos,disp_x_p5_neg,disp_x_p5_pos,disp_x_p6_neg,disp_x_p6_pos,disp_y_101,disp_y_102,disp_y_103,disp_y_104,disp_y_105,disp_y_106,disp_y_p1_neg,disp_y_p1_pos,disp_y_p2_neg,disp_y_p2_pos,disp_y_p3_neg,disp_y_p3_pos,disp_y_p4_neg,disp_y_p4_pos,disp_y_p5_neg,disp_y_p5_pos,disp_y_p6_neg,disp_y_p6_pos,disp_y_p7_neg,disp_y_p7_pos,disp_y_p8_neg,disp_y_p8_pos,disp_z_101,disp_z_102,disp_z_103,disp_z_104,disp_z_105,disp_z_106,disp_z_p1_neg,disp_z_p1_pos,disp_z_p2_neg,disp_z_p2_pos,disp_z_p3_neg,disp_z_p3_pos,disp_z_p4_neg,disp_z_p4_pos,disp_z_p5_neg,disp_z_p5_pos,disp_z_p6_neg,disp_z_p6_pos,humidity,ndof,nelem,strain_xx,strain_yy,strain_zz,temp,thermal_strain_xx,thermal_strain_yy,thermal_strain_zz,vonmises,vstrain
2419200,0,0,0,0,0,0,0,0,0,0,0,0,0,0,0,0,0,0,0,0,0,0,0,0,0,0,0,0,0,0,0,0,0,0,0,0,0,0,0,0,0,0,0,0,0,0,0,0,0,0,0,0,0,0,0,0,0,0,0,0,0,0,0,0,0,0,0,0,0,0,0,0,0,0,0
2919200,0.076598489826899,0.0015634332970962,0.0005211444323654,0.0005211444323654,0.0005211444323654,-0.00015778520169703,0.00015776363950645,-8.3310727939375e-09,-8.3310728630971e-09,-8.0144608897506e-09,-8.2167935668762e-09,-0.00015978444496642,0.00015976610793318,-0.00015978513476673,0.00015976679773209,-0.00015978598946582,0.00015976766327915,-0.00015978667372934,0.00015976834754091,-0.00016289516338964,0.00016287758886436,-0.00016289581324029,0.00016287823871688,-8.014464387115e-09,-8.2167885581726e-09,-8.5700577078767e-09,-8.0920867015609e-09,-0.00015778520169623,0.00015776363950707,-0.00015978454449203,0.00015976603273221,-0.00015978503524375,0.00015976687293271,-0.00015978608622006,0.00015976758531301,-0.0001597865769714,0.00015976842551312,-0.00016289541161975,0.00016287737503851,-0.00016289556500083,0.00016287845254192,-0.00016065175711551,0.00016063487202332,-0.00016065250599261,0.00016063537924985,-1.8367996058932e-09,-1.8367994954039e-09,-0.00016720228001097,0.00016719614720138,-1.5604975122582e-09,-2.0675131174302e-09,-0.00016839008527981,0.00016838591433697,-0.00016839212123789,0.00016838760290222,-0.0001683919475411,0.00016838777659957,-0.00016839390551028,0.00016838938717596,-0.00016802161602977,0.00016801740160507,-0.00016802049558523,0.0001680162811624,0.81617710510397,125301,3014,0.00065717736283347,0.00065717736283307,0.00069641921087206,32.434412516029,0.00017467530012824,0.00017467530012824,0.00017467530012824,1374010.4364688,0.0020127991500461
3419200,0.15543230714677,0.0030763008681068,0.001006088757575,0.0010060887575737,0.0010641233529582,-0.00026322892917849,0.00026320829845268,-8.7013626932764e-09,-8.7015332902192e-09,-8.1362737803401e-09,-8.4160304719431e-09,-0.00027326090041559,0.00027324258189242,-0.00027326207340306,0.00027324375511445,-0.00027326293502385,0.00027324455708311,-0.00027326409319511,0.00027324571557554,-0.00027625683855222,0.00027623876997665,-0.00027625839541448,0.0002762403264258,-8.1362777012586e-09,-8.4160218751263e-09,-9.3826185137495e-09,-8.0202758384206e-09,-0.0002632289291769,0.00026320829845349,-0.00027326117535384,0.00027324236673579,-0.00027326179846668,0.00027324397026951,-0.00027326320259155,0.00027324433456417,-0.0002732638256215,0.00027324593810395,-0.00027625754519087,0.00027623815803667,-0.0002762576887619,0.00027624093836335,-0.00026773246408685,0.00026771577654538,-0.00026773386043988,0.00026771680909985,-4.0009367116004e-09,-4.0011074911626e-09,-0.00029548689359404,0.00029547688350725,-3.2146228618679e-09,-4.6606714920895e-09,-0.00030420019677896,0.00030419243944959,-0.00030420372443483,0.00030419497832629,-0.00030420322991961,0.00030419547284158,-0.00030420664209874,0.00030419789621642,-0.00029376356286546,0.00029375482113045,-0.00029376082625758,0.00029375208390781,0.78776539833478,125301,3014,0.0010961497191919,0.0010961497191902,0.001230407038284,31.91084425352,0.00017048675402816,0.00017048675402816,0.00017048675402816,2279948.6599384,0.0034285799431443
3919200,0.24174495760917,0.0046616655390197,0.0014968314414224,0.0014968314414208,0.0016680026561766,-0.00037182789398214,0.00037181970421897,-3.1552113862374e-09,-3.1553549136174e-09,-3.0108723079766e-09,-3.1669674573769e-09,-0.000395248069276,0.00039524144384177,-0.00039524875822571,0.00039524213315683,-0.00039524893078066,0.00039524223504461,-0.00039524960467624,0.00039524290945206,-0.00039656444778253,0.00039655762258343,-0.0003965650812518,0.00039655825577245,-3.0108775429615e-09,-3.1669572374759e-09,-3.8194741016655e-09,-2.4910897730318e-09,-0.00037182789398018,0.00037181970421996,-0.00039524832872425,0.00039524123471579,-0.00039524849877993,0.00039524234228046,-0.00039524918277366,0.00039524201847161,-0.0003952493526769,0.00039524312603628,-0.00039656514714713,0.00039655702952156,-0.00039656438187077,0.00039655884883397,-0.00037709641435285,0.00037709011257648,-0.00037709694343018,0.000377090421399,-3.2821770297447e-09,-3.2823199467022e-09,-0.00043906964981391,0.00043906179735312,-2.4900149348927e-09,-3.9246681038775e-09,-0.0004637365556765,0.0004637303078281,-0.00046373823782163,0.00046373100461678,-0.00046373774496988,0.00046373149746822,-0.00046373937352826,0.00046373214068098,-0.00043032751363302,0.00043032009402091,-0.0004303269133331,0.0004303194932596,0.77553103749817,125301,3014,0.0015480986323718,0.0015480986323698,0.0018277317757578,32.497096035052,0.00017517676828042,0.00017517676828042,0.00017517676828042,3131889.6618712,0.0049360961069824
4419200,0.3362492315679,0.0063577642953323,0.0020108154064774,0.002010815406475,0.00233613348238,-0.00048584608590719,0.00048584196543826,-1.6189434905347e-09,-1.6190987607178e-09,-1.4569350933242e-09,-1.4721874551985e-09,-0.00052691446518725,0.00052691209491772,-0.00052691487487461,0.00052691250475756,-0.00052691453463395,0.00052691217274411,-0.00052691493727358,0.00052691257558129,-0.00052742064298362,0.00052741704827408,-0.00052742097198243,0.00052741737716873,-1.4569393933643e-09,-1.4721771128417e-09,-1.4130218653383e-09,-1.8250159708507e-09,-0.00048584608590428,0.00048584196543988,-0.00052691441156434,0.00052691216840815,-0.00052691492849847,0.00052691243126623,-0.00052691447753423,0.00052691224276495,-0.00052691499436464,0.00052691250557141,-0.00052742047754031,0.00052741728523545,-0.00052742113740704,0.00052741714020885,-0.00049211502496819,0.00049211158258441,-0.00049211529285315,0.00049211185731599,-1.5193381635561e-09,-1.5194923401109e-09,-0.00059754840570505,0.00059754450797706,-1.6301662800391e-09,-1.3017989983754e-09,-0.00064529082105285,0.00064528787923498,-0.00064529109503126,0.00064528835000651,-0.00064529119329831,0.00064528825174047,-0.00064529148415923,0.0006452887394888,-0.00057963817695118,0.00057963493711061,-0.00057963717609215,0.00057963393604936,0.77667599685302,125301,3014,0.0020223958055691,0.0020223958055664,0.0024865861695364,33.599483354261,0.00018399586683409,0.00018399586683409,0.00018399586683409,3860635.1046773,0.0065528118944417
4919200,0.43906026840051,0.0081681556303114,0.0025505704646248,0.0025505704646218,0.0030670147010647,-0.00060514473375972,0.00060514268782257,-7.5864733396235e-10,-7.587772640519e-10,-7.2857690471097e-10,-6.4721390067725e-10,-0.00067036196595432,0.0006703616894941,-0.00067036217029725,0.00067036189398469,-0.00067036161104297,0.00067036140870681,-0.00067036181511488,0.00067036161312634,-0.0006672078863311,0.00066720604756221,-0.00066720796300793,0.00066720612408782,-7.2858380855826e-10,-6.4719931748305e-10,-3.1820428411477e-10,-1.1992141557533e-09,-0.00060514473375586,0.00060514268782491,-0.00067036181796339,0.00067036183395939,-0.00067036231828949,0.00067036174951689,-0.0006703614629733,0.00067036155310505,-0.00067036196317229,0.00067036146874252,-0.00066720746990005,0.00066720649120765,-0.00066720837941591,0.00066720568044766,-0.0006124714994136,0.00061246950629706,-0.00061247185010762,0.00061247002663069,-6.4588469898933e-10,-6.4601238282397e-10,-0.00077026418710021,0.00077026226294078,-1.0339994078955e-09,-2.0304574354779e-10,-0.00084888608649536,0.00084888479210388,-0.00084888572956959,0.00084888497635413,-0.00084888600005046,0.0008488847058744,-0.00084888570286183,0.00084888494990568,-0.00074219148028006,0.00074219010886369,-0.00074219058581541,0.00074218921414201,0.77771912807092,125301,3014,0.0025184622097352,0.002518462209732,0.0032040948312505,35.344887259595,0.00019795909807676,0.00019795909807676,0.00019795909807676,4398304.2604143,0.0082751973987315
5419200,0.5395429257739,0.0098864721492002,0.00305770047661,0.003057700476607,0.0037710711959832,-0.00071301712719253,0.00071301703027483,-7.0845375075363e-11,-7.0979105195882e-11,-6.5784996578217e-11,8.0122973356986e-11,-0.0008069460422409,0.00080694774757707,-0.00080694610554977,0.00080694781103226,-0.00080694545383213,0.0008069472724433,-0.00080694551766522,0.00080694733647501,-0.00079471263698305,0.00079471223585231,-0.00079471265973632,0.00079471225852272,-6.5789358517573e-11,8.0135096931472e-11,1.7134074103812e-09,-1.8552253665612e-09,-0.00071301712718856,0.00071301703027729,-0.0008069454469368,0.00080694833856332,-0.00080694670085356,0.00080694722004614,-0.00080694485885952,0.00080694786376968,-0.00080694611262639,0.00080694674516143,-0.00079471089905097,0.00079471399060911,-0.00079471439764693,0.00079471050377025,-0.0007209062970466,0.00072090485079881,-0.0007209068790881,0.00072090571127858,4.8822387700745e-10,4.8809366013255e-10,-0.00093259556189772,0.00093259619048984,-1.2539395998001e-09,2.2726425605504e-09,-0.001046913502264,0.0010469137634742,-0.0010469119612156,0.0010469145650732,-0.0010469131324257,0.0010469133938644,-0.0010469116792994,0.0010469142834767,-0.00089450091237385,0.00089450272506865,-0.00089449972626195,0.0008945015388708,0.76998246058061,125301,3014,0.0029668632191545,0.0029668632191514,0.00387796235462,36.27363186355,0.0002053890549084,0.0002053890549084,0.0002053890549084,4777111.2083585,0.0098602164045343
5919200,0.63085568137494,0.011324770543602,0.0034809619621636,0.0034809619621604,0.0043628466192775,-0.00079833562761831,0.00079833762853776,7.7483726537106e-10,7.7472799467979e-10,6.8812787704806e-10,8.8888559947862e-10,-0.0009231826581833,0.00092318636018249,-0.00092318256995677,0.00092318627210547,-0.00092318185818876,0.00092318569650468,-0.00092318177252255,0.00092318561112578,-0.00089373597967172,0.00089373735409413,-0.0008937358970909,0.00089373727147597,6.8812343694818e-10,8.8889772932865e-10,2.7876215806091e-09,-1.2380498029771e-09,-0.00079833562761428,0.00079833762854019,-0.00092318197679921,0.00092318702602156,-0.00092318325134043,0.00092318560626602,-0.00092318117815779,0.00092318636370599,-0.00092318245254207,0.0009231849439371,-0.00089373401109595,0.00089373932277789,-0.00089373786564525,0.00089373530279649,-0.00080381285691395,0.0008038128637545,-0.00080381363348053,0.0008038140148344,1.3325198679327e-09,1.3324151393968e-09,-0.0010648393349903,0.0010648419460938,-6.5827798526529e-10,3.3412188437637e-09,-0.0012175156448912,0.0012175175537743,-0.0012175136235406,0.0012175181962911,-0.0012175149553943,0.0012175168644389,-0.0012175130401958,0.0012175176131977,-0.0010145954780576,0.0010145991618417,-0.0010145943866367,0.0010145980703148,0.72322607388373,125301,3014,0.003321439273635,0.0033214392736317,0.0044265730920269,36.779462478214,0.00020943569982571,0.00020943569982571,0.00020943569982571,4993189.0194326,0.011131295692299
6419200,0.70835298564336,0.012504236784196,0.0038320412498522,0.003832041249849,0.0048401542844945,-0.00086421664260256,0.00086422035973282,1.4134933415134e-09,1.4133825699856e-09,1.2654508752856e-09,1.514823208779e-09,-0.0010165181497665,0.0010165235430189,-0.0010165179122333,0.0010165233056321,-0.0010165171611058,0.0010165227096138,-0.0010165169283273,0.0010165224770982,-0.00097029515249812,0.000970297896043,-0.00097029505467206,0.00097029779819485,1.2654483499281e-09,1.5148328431189e-09,3.8452949724673e-09,-1.0184129975915e-09,-0.00086421664259876,0.00086422035973499,-0.0010165173213725,0.0010165243469854,-0.0010165187406259,0.0010165225016663,-0.0010165163351705,0.0010165235160454,-0.0010165177542528,0.0010165216706771,-0.00097029276748924,0.00097030026680703,-0.00097029743966147,0.00097029542743327,-0.00086744126786799,0.0008674422709116,-0.00086744216333668,0.00086744363171368,2.0613629859228e-09,2.0612568590473e-09,-0.001166538612937,0.0011665429991464,-3.6947789963026e-10,4.485391885298e-09,-0.0013540427280458,0.0013540460410132,-0.0013540401341983,0.0013540466875913,-0.0013540417543302,0.0013540450674609,-0.0013540392794325,0.0013540458330829,-0.001105615819254,0.0011056212892539,-0.001105614687112,0.0011056201570596,0.70960752517542,125301,3014,0.0035951927633916,0.0035951927633883,0.0048482512796384,36.741495449379,0.00020913196359504,0.00020913196359504,0.00020913196359504,5158621.4225559,0.01211185730821
6919200,0.77831963387321,0.013601188633166,0.0041632858997651,0.0041632858997619,0.0052746168336386,-0.00092713849138547,0.00092713979440603,4.5557493608666e-10,4.5546739340142e-10,3.2494630970153e-10,5.7069460046581e-10,-0.0011064181912261,0.0011064216235983,-0.0011064179772952,0.0011064214098126,-0.0011064173197223,0.0011064209247852,-0.0011064171101515,0.0011064207154748,-0.0010443170010314,0.0010443177216238,-0.0010443169843121,0.0010443177048996,3.2494316924602e-10,5.7070506589794e-10,3.1307919043898e-09,-2.2197432134868e-09,-0.00092713849138152,0.00092713979440834,-0.0011064172836457,0.001106422509196,-0.0011064188848743,0.0011064205242154,-0.001106416414406,0.0011064218126545,-0.0011064180154571,0.0011064198276167,-0.0010443143772622,0.0010443203311282,-0.0010443196080612,0.0010443150953985,-0.00093074474044118,0.00093074359306835,-0.00093074579408322,0.00093074513095991,2.1161932337493e-09,2.1160918935511e-09,-0.0012590220580008,0.0012590263151556,-5.615244479018e-10,4.7836013384392e-09,-0.0014788588060133,0.0014788620628919,-0.0014788561648859,0.0014788629907453,-0.0014788579492997,0.001478861206333,-0.0014788554208737,0.0014788622469872,-0.0011922238666585,0.0011922295588567,-0.0011922225693932,0.0011922282615626,0.73388447093231,125301,3014,0.0038565967177335,0.0038565967177301,0.0052315417771554,38.625768679265,0.00022420614943412,0.00022420614943412,0.00022420614943412,5178586.9387491,0.013029504878839
7419200,0.83872872400094,0.014482426647391,0.004431489427923,0.0044314894279197,0.0056194477915478,-0.00097374013520551,0.00097374067142,1.2339702824667e-10,1.2329192675156e-10,5.6199102861867e-12,2.4669638618298e-10,-0.0011818669045385,0.0011818696402229,-0.0011818667399353,0.0011818694757635,-0.0011818661259029,0.0011818690380269,-0.0011818659648915,0.0011818688772742,-0.0010968176424953,0.0010968176820526,-0.0010968176861128,0.0010968177256777,5.618580957771e-12,2.4670604372986e-10,2.8903145256386e-09,-2.6436189651025e-09,-0.00097374013520132,0.00097374067142246,-0.001181865968227,0.001181870557344,-0.001181867676245,0.001181868558643,-0.0011818651914738,0.0011818699570379,-0.0011818668993094,0.0011818679582738,-0.0010968149305337,0.0010968203829206,-0.0010968203980556,0.0010968150248122,-0.00097621714495749,0.00097621527869247,-0.00097621829972643,0.00097621692123333,2.114689689858e-09,2.1145912569239e-09,-0.0013265420148087,0.0013265462150071,-6.5406020020397e-10,4.8743685601217e-09,-0.0015784593992519,0.0015784625710731,-0.0015784568135352,0.0015784636772207,-0.001578458659395,0.0015784618313627,-0.0015784561791092,0.001578463043047,-0.001254725388896,0.0012547311330641,-0.0012547239887654,0.0012547297329164,0.68603447171992,125301,3014,0.0040502260218689,0.0040502260218653,0.0055112674492833,40.764708396327,0.00024131766717062,0.00024131766717062,0.00024131766717062,5003501.8670568,0.013705591036606
7919200,0.88416465908413,0.015126234661723,0.0046307987202786,0.0046307987202752,0.0058646372211688,-0.0010009260803522,0.0010009301784778,1.4801683347558e-09,1.4800650922333e-09,1.29619924115e-09,1.5783899243595e-09,-0.0012300858942768,0.0012300917440368,-0.0012300855897877,0.001230091439693,-0.0012300848956624,0.0012300909234457,-0.0012300845958668,0.0012300906239078,-0.0011276940289818,0.0011276969795999,-0.0011276940631253,0.0011276970137575,1.2961967564495e-09,1.5783999037017e-09,4.5633978445677e-09,-1.6031579947873e-09,-0.0010009260803482,0.0010009301784801,-0.0012300848470384,0.0012300927661816,-0.0012300866370245,0.001230090417549,-0.0012300838508577,0.0012300919480315,-0.0012300856406609,0.0012300895993328,-0.0011276910041315,0.0011276999848757,-0.0011276970879561,0.0011276940084848,-0.0010027506356717,0.0010027513557922,-0.0010027518597213,0.0010027531277122,2.8452555591016e-09,2.8451597185001e-09,-0.0013652827175123,0.0013652889610499,-2.5276766412137e-10,5.9187640590561e-09,-0.0016410876298909,0.0016410923028016,-0.0016410845390204,0.0016410933366017,-0.0016410866012863,0.0016410912743375,-0.0016410836245726,0.0016410924224032,-0.0012900970428906,0.0012901045758533,-0.0012900956795054,0.0012901032124571,0.66517729602597,125301,3014,0.0041632119243079,0.0041632119243045,0.0056717262507116,40.956269084506,0.00024285015267605,0.00024285015267605,0.00024285015267605,4877951.7984809,0.014097516205549
8419200,0.91802890911851,0.015599901910898,0.0047793685766289,0.0047793685766256,0.0060411647576432,-0.0010188774234634,0.0010188812906992,1.3868416865855e-09,1.3867395252359e-09,1.1982237532633e-09,1.4840557354101e-09,-0.0012660472489482,0.0012660529482436,-0.0012660469346706,0.0012660526341114,-0.0012660462626181,0.001266052143582,-0.0012660459524522,0.0012660518336727,-0.0011475116743851,0.0011475144304801,-0.0011475117392991,0.0011475144954134,1.1982204207149e-09,1.4840668530944e-09,4.6912339073276e-09,-1.9176460102588e-09,-0.0010188774234592,0.0010188812907017,-0.0012660461296178,0.0012660540446884,-0.0012660480539998,0.0012660515376669,-0.0012660451454305,0.0012660532421783,-0.0012660470696283,0.0012660507350881,-0.0011475084342586,0.0011475176537277,-0.0011475149794051,0.00114751127217,-0.001020629446487,0.0010206298153871,-0.001020630719111,0.0010206316486872,2.9808778402281e-09,2.9807834412296e-09,-0.001388401121393,0.0013884076443036,-3.3676091627341e-10,6.2758569900534e-09,-0.001683430406752,0.0016834352475752,-0.0016834271709032,0.0016834364304524,-0.0016834293801988,0.0016834342211584,-0.0016834262559088,0.0016834355157064,-0.001312280677392,0.0013122886305748,-0.001312279279041,0.0013122872322163,0.6539224342993,125301,3014,0.0042378350451574,0.004237835045154,0.0057674658881526,41.432725149013,0.00024666180119211,0.00024666180119211,0.00024666180119211,4689638.8961333,0.014346114272269
8919200,0.94273448494089,0.015932999023547,0.0048850772461335,0.0048850772461301,0.0061628445312832,-0.0010293459102428,0.0010293499988495,1.4697013681909e-09,1.4695994116585e-09,1.2717075300902e-09,1.5630236885227e-09,-0.0012913444126542,0.0012913503323331,-0.0012913440798113,0.0012913499996352,-0.0012913434142363,0.001291349517732,-0.001291343085149,0.0012913491888999,-0.0011582784440343,0.0011582813818729,-0.0011582785285624,0.0011582814664232,1.2717080462302e-09,1.5630297349226e-09,4.9544723642242e-09,-2.015165919606e-09,-0.0010293459102392,0.0010293499988515,-0.0012913432339749,0.0012913514893108,-0.0012913452584874,0.0012913488426598,-0.0012913422375249,0.0012913506766804,-0.0012913442618527,0.0012913480299592,-0.0011582750281519,0.0011582847825188,-0.0011582819444283,0.0011582780657775,-0.001031070001543,0.0010310704144578,-0.0010310713079561,0.0010310722937223,3.138155602971e-09,3.1380626403404e-09,-0.0013995911675481,0.0013995980717756,-3.5908142730888e-10,6.6136257896248e-09,-0.0017098152706771,0.0017098203573349,-0.0017098118893877,0.0017098216349218,-0.0017098142187598,0.0017098193055513,-0.0017098109478246,0.0017098206936069,-0.0013236117897573,0.0013236201924433,-0.0013236103794146,0.0013236187820935,0.62734197802463,125301,3014,0.0042813777581344,0.0042813777581309,0.0058138093330876,41.891736354802,0.00025033389083841,0.00025033389083841,0.00025033389083841,4488570.2149585,0.014481581266984
9419200,0.95965267216907,0.016158346730905,0.0049573634809238,0.0049573634809204,0.0062436197690605,-0.0010325408730189,0.0010325477086363,2.5286996642257e-09,2.5285985033161e-09,2.2728898436872e-09,2.5989493885272e-09,-0.0013043454434599,0.0013043538240242,-0.0013043449721884,0.0013043533528986,-0.0013043442528664,0.0013043528203937,-0.0013043437864349,0.0013043523542169,-0.0011616243633263,0.0011616295676632,-0.0011616244521203,0.0011616296564824,2.2728874903597e-09,2.5989591554256e-09,6.3237786691336e-09,-1.2664741254757e-09,-0.0010325408730149,0.0010325477086386,-0.0013043441564019,0.0013043550839554,-0.0013043462592446,0.0013043520929682,-0.0013043429683162,0.0013043540828398,-0.0013043450709745,0.0013043510917814,-0.0011616206409561,0.0011616332675772,-0.0011616281744711,0.0011616259565715,-0.0010345447477113,0.0010345471180999,-0.0010345461112669,0.001034549106351,3.8009404829361e-09,3.8008481426983e-09,-0.0014017801546033,0.0014017888648416,-1.7616942961544e-11,7.5845695326953e-09,-0.0017220753863291,0.0017220818398435,-0.0017220715342241,0.0017220830695602,-0.0017220740750699,0.001722080528716,-0.0017220703417206,0.0017220818773044,-0.0013263685144752,0.0013263785498141,-0.0013263671383408,0.0013263771736738,0.61541999778691,125301,3014,0.0042947067547938,0.0042947067547904,0.005822879214183,41.150612062128,0.00024440489649703,0.00024440489649703,0.00024440489649703,4347787.3849591,0.014517900517806
9919200,0.97103584156147,0.016310045195757,0.0050063803959036,0.0050063803959002,0.0062972844039534,-0.0010322532739391,0.0010322616121423,3.1118245424845e-09,3.1117234687781e-09,2.8233712086535e-09,3.1684932058252e-09,-0.0013117819431175,0.0013117916861002,-0.0013117813901204,0.0013117911332491,-0.0013117806461673,0.0013117905784069,-0.0013117800980052,0.0013117900304989,-0.0011611017361014,0.001161108186653,-0.0011611018383886,0.0011611082889672,2.823368013761e-09,3.1685040634677e-09,7.2580969301306e-09,-1.0345423354387e-09,-0.001032253273935,0.0010322616121447,-0.0013117805386923,0.0013117930631755,-0.0013117827945443,0.001311789756174,-0.0013117792442467,0.0013117919579954,-0.0013117814999143,0.0013117886509218,-0.0011610976700016,0.0011611122301025,-0.0011611059044681,0.0011611042455217,-0.0010346094079338,0.0010346127329322,-0.0010346108160076,0.001034614795203,4.2261080770639e-09,4.2260163916883e-09,-0.0013995782794525,0.0013995881140101,5.5488425160818e-11,8.36036141358e-09,-0.001727422172608,0.0017274293942362,-0.0017274179400283,0.0017274307123415,-0.0017274207153064,0.001727427937065,-0.0017274166055271,0.0017274293780881,-0.0013251620966537,0.0013251732731296,-0.0013251607311813,0.0013251719076508,0.61191532053666,125301,3014,0.0042935664919056,0.0042935664919021,0.0058137666265731,39.827093463116,0.00023381674770493,0.00023381674770493,0.00023381674770493,4222117.3793639,0.014506412476135
10419200,0.97868672554592,0.016414074633466,0.0050401835043426,0.0050401835043392,0.0063337076247845,-0.0010299248390617,0.0010299342505521,3.5299858087096e-09,3.5298851837248e-09,3.2193114433923e-09,3.5766318778512e-09,-0.0013154447916751,0.0013154555056392,-0.0013154441794747,0.0013154548935856,-0.001315443419598,0.001315454324156,-0.0013154428124671,0.0013154537172783,-0.0011584783007914,0.0011584856443058,-0.0011584784172377,0.0011584857607784,3.2193080382731e-09,3.576642635666e-09,7.8629252385497e-09,-8.0304802181098e-10,-0.0010299248390578,0.0010299342505548,-0.0013154433237936,0.0013154569448913,-0.0013154456473516,0.0013154534543334,-0.0013154419543389,0.001315455766036,-0.0013154442777132,0.0013154522754076,-0.001158474051506,0.0011584898694258,-0.0011584826664973,0.0011584815356548,-0.0010327173600674,0.0010327214145425,-0.0010327188048573,0.0010327235321255,4.5278405888133e-09,4.5277489846706e-09,-0.001395131533654,0.0013951421716354,1.6779982930099e-10,8.8481047211802e-09,-0.0017286401966809,0.0017286480057545,-0.0017286357357426,0.0017286493466455,-0.0017286386365911,0.0017286464457971,-0.0017286343008536,0.0017286479120016,-0.0013218682922676,0.0013218802396651,-0.0013218669314095,0.0013218788788027,0.62047456218105,125301,3014,0.0042839453367965,0.0042839453367941,0.0057953568540805,38.098640396575,0.0002199891231726,0.0002199891231726,0.0002199891231726,4117471.0543394,0.014468277741317
10919200,0.984298267845,0.016487825290767,0.0050642440435645,0.0050642440435611,0.006359337203641,-0.0010301606521952,0.0010301666856446,2.2278630200493e-09,2.2277624574744e-09,1.9811417218333e-09,2.3002427883676e-09,-0.0013210498804022,0.0013210575957683,-0.0013210494312868,0.0013210571467991,-0.0013210487487779,0.0013210566535551,-0.0013210483019242,0.0013210562069551,-0.0011580171011768,0.0011580216620749,-0.0011580172288052,0.001158021789734,1.9811380296784e-09,2.300254221171e-09,6.6442056783108e-09,-2.1885735509202e-09,-0.001030160652191,0.001030166685647,-0.0013210483963979,0.0013210590642483,-0.00132105091529,0.001321055678319,-0.0013210472659914,0.0013210581232621,-0.0013210497846988,0.0013210547372599,-0.0011580127769236,0.0011580259795163,-0.0011580215530377,0.0011580174722969,-0.0010332411195262,0.0010332424478417,-0.00103324251378,0.0010332444630337,3.8667027918839e-09,3.8666111973291e-09,-0.0013926788303859,0.0013926875795144,-5.5186671849763e-10,8.2744029387288e-09,-0.0017311341762332,0.0017311403373097,-0.0017311299824669,0.0017311420355573,-0.0017311329284104,0.0017311390896155,-0.0017311288472805,0.0017311409006187,-0.0013205536242958,0.0013205641854311,-0.001320552218385,0.0013205627795138,0.59839955056878,125301,3014,0.0042849480222153,0.0042849480222119,0.0057852085313313,37.94610122336,0.00021876880978688,0.00021876880978688,0.00021876880978688,4008669.6105867,0.014460078532656
11419200,0.9883874287666,0.016541511063834,0.0050818264360514,0.005081826436048,0.0063778581917342,-0.0010291234734194,0.0010291298896254,2.3720866534987e-09,2.3719865507626e-09,2.1156609114526e-09,2.4415667968103e-09,-0.0013220885437695,0.0013220966088645,-0.0013220880717835,0.0013220961370257,-0.0013220873849845,0.0013220956408764,-0.0013220869153514,0.001322095171497,-0.0011570463061634,0.0011570511793064,-0.0011570464377486,0.0011570513109236,2.115657668602e-09,2.4415776494806e-09,6.8722558145274e-09,-2.1281760690803e-09,-0.0010291234734152,0.0010291298896278,-0.0013220870312738,0.0013220981052488,-0.0013220895842778,0.0013220946406416,-0.0013220858737523,0.0013220971385326,-0.0013220884265722,0.0013220936738521,-0.0011570418995381,0.0011570555783107,-0.0011570508443536,0.0011570469119232,-0.0010326587500449,0.0010326603174044,-0.0010326601535488,0.001032662353091,3.9959097649937e-09,3.9958183978437e-09,-0.0013900560031289,0.0013900650902393,-5.0775928030253e-10,8.4871552341158e-09,-0.0017306207694761,0.0017306271828262,-0.0017306164815058,0.0017306288996983,-0.0017306194838638,0.0017306258973419,-0.0017306153096445,0.0017306277280845,-0.0013186513546989,0.0013186622473573,-0.0013186499506722,0.0013186608433246,0.59529610024303,125301,3014,0.0042806549694858,0.0042806549694824,0.0057743483582498,37.628291453259,0.00021622633162607,0.00021622633162607,0.00021622633162607,3961673.8115821,0.014440363452058
11919200,0.99135121256634,0.016581326943625,0.0050948911711348,0.0050948911711315,0.0063915446013591,-0.0010278968951403,0.0010279038337864,2.5756577748347e-09,2.5755579845597e-09,2.3090122832303e-09,2.6403647253759e-09,-0.001323607101245,0.001323615635337,-0.0013236066026795,0.0013236151369186,-0.0013236059077238,0.0013236146329913,-0.0013236054117435,0.0013236141372657,-0.0011554913222684,0.0011554966300531,-0.001155491460167,0.001155496767986,2.309009443042e-09,2.6403766682335e-09,7.129528200142e-09,-1.9783058401483e-09,-0.0010278968951361,0.0010279038337893,-0.0013236055697465,0.0013236171495371,-0.0013236081341766,0.0013236136227207,-0.0013236043776043,0.0013236161485807,-0.0013236069418505,0.00132361262169,-0.0011554868625608,0.0011555010806886,-0.0011554959198543,0.0011554923173552,-0.0010317092653578,0.0010317112136183,-0.0010317106854268,0.0010317132738843,4.1296866816125e-09,4.1295951426442e-09,-0.0013870660795548,0.0013870755296369,-4.3001670931412e-10,8.674220292789e-09,-0.0017301364288412,0.0017301431231681,-0.0017301320568791,0.001730144829606,-0.0017301350960157,0.0017301417904691,-0.0017301308388448,0.0017301436118196,-0.0013164372502017,0.0013164484673352,-0.0013164358493525,0.0013164470664784,0.60696177605789,125301,3014,0.004275580507026,0.0042755805070233,0.0057619731125957,37.104697576958,0.00021203758061566,0.00021203758061566,0.00021203758061566,3902578.6430288,0.014417548028197
12419200,0.99353333857452,0.016610981394578,0.0051046408355563,0.0051046408355529,0.0064016997234684,-0.0010271406578928,0.0010271471546565,2.408039547633e-09,2.4079396438026e-09,2.150581398391e-09,2.4752189622304e-09,-0.0013259727674217,0.0013259809045938,-0.0013259722922123,0.0013259804295321,-0.0013259716081591,0.0013259799358518,-0.00132597113506,0.0013259794630047,-0.0011541793366798,0.001154184285116,-0.0011541794791008,0.0011541844275712,2.1505785589006e-09,2.4752293606682e-09,6.9968952351516e-09,-2.1809097026717e-09,-0.0010271406578885,0.0010271471546585,-0.0013259712262249,0.0013259824307067,-0.0013259738334073,0.0013259789034188,-0.0013259700681045,0.0013259814631137,-0.0013259726751022,0.0013259779357534,-0.001154174843897,0.0011541887718495,-0.0011541839718642,0.001154179940841,-0.0010311797406148,0.001031181322286,-0.0010311811580405,0.0010311833702735,4.041896962587e-09,4.0418053990901e-09,-0.0013842559589411,0.0013842651593951,-5.4849741131e-10,8.6221059483759e-09,-0.0017301039460825,0.0017301104012222,-0.0017300995963318,0.0017301121728374,-0.0017301026569514,0.001730109112219,-0.0017300984195598,0.0017301109963136,-0.0013144892936545,0.0013145003438159,-0.0013144878879392,0.0013144989380961,0.61229629922506,125301,3014,0.0042724587498966,0.0042724587498919,0.0057503461643986,36.802237063313,0.00020961789650651,0.00020961789650651,0.00020961789650651,3833088.8818136,0.014399464202168
12919200,0.99512093655379,0.01663189636808,0.0051115323481594,0.005111532348156,0.0064088316717641,-0.0010252052597035,0.0010252126061968,2.73795346196e-09,2.7378535448359e-09,2.4648710458227e-09,2.7977087153015e-09,-0.0013262009050815,0.0013262097939678,-0.0013262003881688,0.0013262092772025,-0.0013261996886954,0.0013262087683255,-0.0013261991743231,0.0013262082542069,-0.0011519462609283,0.0011519519146663,-0.001151946408353,0.0011519520621255,2.4648681865518e-09,2.7977200293787e-09,7.3833652687229e-09,-1.9075517367763e-09,-0.0010252052596994,0.0010252126061995,-0.0013261993431157,0.0013262113387607,-0.0013262019501326,0.0013262077324094,-0.0013261981280869,0.0013262103144843,-0.0013262007349197,0.0013262067080595,-0.0011519417118336,0.0011519564550859,-0.0011519509574283,0.0011519475217122,-0.0010295413316403,0.0010295435538231,-0.0010295427701144,0.0010295456338795,4.2394288786519e-09,4.2393374393865e-09,-0.001380628913374,0.0013806386618547,-4.115447985889e-10,8.8754941057181e-09,-0.0017284557386769,0.0017284626221392,-0.0017284512740102,0.001728464357655,-0.0017284543740386,0.0017284612576274,-0.0017284500237827,0.0017284631076757,-0.0013116088725033,0.0013116203891928,-0.0013116074748884,0.0013116189915709,0.59298587122268,125301,3014,0.0042644426913408,0.0042644426913379,0.0057353322294045,36.13639905619,0.00020429119244952,0.00020429119244952,0.00020429119244952,3782053.7398612,0.014367999267823
13419200,0.99625206880537,0.016646639491365,0.0051163980229604,0.005116398022957,0.0064138434454475,-0.0010214137769702,0.0010214226682807,3.3336486711743e-09,3.3335490478942e-09,3.0295221427369e-09,3.3815238774432e-09,-0.0013226467996401,0.0013226570714644,-0.0013226462029631,0.0013226564749356,-0.0013226454747495,0.0013226559390876,-0.0013226448815181,0.0013226553461105,-0.00114842654059,0.001148433469513,-0.0011484266922985,0.0011484336212564,3.0295190616147e-09,3.3815324371394e-09,8.0795510335345e-09,-1.4123483736385e-09,-0.0010214137769669,0.0010214226682823,-0.0013226452002595,0.0013226586493275,-0.0013226478023433,0.0013226548970724,-0.0013226438771793,0.0013226575187681,-0.0013226464790786,0.001322653766439,-0.0011484218909456,0.0011484381047272,-0.0011484313419241,0.0011484289860446,-0.0010261363985141,0.0010261397746479,-0.0010261378681575,0.0010261419134003,4.6136163804806e-09,4.6135250937399e-09,-0.001376180670351,0.00137619144379,-1.4637243183445e-10,9.3486732189209e-09,-0.0017243105945312,0.0017243183023035,-0.0017243059164198,0.001724319965546,-0.0017243090870348,0.0017243167949333,-0.0017243045285718,0.0017243185779449,-0.0013075984711334,0.0013076108624295,-0.001307597086416,0.0013076094777055,0.58571222635454,125301,3014,0.0042487149431599,0.0042487149431566,0.0057169046159693,34.795130293187,0.0001935610423455,0.0001935610423455,0.0001935610423455,3772222.6764418,0.014317395996323
13919200,0.99708504274417,0.016657364433451,0.0051199394096948,0.0051199394096915,0.0064174856140647,-0.0010187308499483,0.0010187389300379,3.0203494558091e-09,3.0202498385583e-09,2.7309746288938e-09,3.0746693143748e-09,-0.0013208411596555,0.0013208507163221,-0.0013208406023634,0.0013208501591782,-0.0013208398920091,0.0013208496411336,-0.0013208393373556,0.0013208490867341,-0.0011456618558652,0.0011456681151515,-0.0011456620100339,0.0011456682693557,2.7309723295602e-09,3.0746777236877e-09,7.8330493396542e-09,-1.7924441777379e-09,-0.0010187308499447,0.0010187389300398,-0.0013208395414306,0.0013208523168049,-0.0013208422205867,0.0013208485586963,-0.0013208382751907,0.0013208512430288,-0.0013208409541636,0.0013208474848472,-0.0011456571426486,0.0011456728188116,-0.0011456667232324,0.0011456635656985,-0.0010236386917452,0.0010236413793941,-0.0010236401487206,0.0010236434946125,4.4609744199407e-09,4.4608832119623e-09,-0.0013726699480931,0.0013726802779512,-3.5848885814675e-10,9.2639181059256e-09,-0.0017215846598605,0.0017215919561541,-0.0017215800146655,0.001721593735023,-0.001721583226635,0.0017215905230556,-0.0017215786982855,0.0017215924188905,-0.001304470137591,0.0013044822378102,-0.0013044687412331,0.0013044808414458,0.57829084614887,125301,3014,0.0042375845305222,0.0042375845305189,0.0057023633022911,33.828476915209,0.00018582781532167,0.00018582781532167,0.00018582781532167,3750779.8235264,0.014280079753893
14419200,0.99769937104177,0.016665102479099,0.0051224965363487,0.0051224965363453,0.0064201094064048,-0.0010155524992542,0.0010155610831174,3.2151926542185e-09,3.2150930757311e-09,2.9160433038199e-09,3.2655107494176e-09,-0.0013183654118929,0.0013183754201189,-0.0013183648290241,0.0013183748373986,-0.0013183641095967,0.0013183743107975,-0.001318363529525,0.0013183737309792,-0.0011424402009904,0.0011424468766945,-0.0011424403586138,0.0011424470343538,2.9160412222093e-09,3.2655209850828e-09,8.0993984607859e-09,-1.6691055613776e-09,-0.00101555249925,0.0010155610831203,-0.0013183637691302,0.0013183770443597,-0.0013183664717856,0.0013183732131592,-0.0013183624683202,0.001318375936532,-0.0013183651707901,0.0013183721052568,-0.0011424354174202,0.0011424516497261,-0.0011424451421644,0.0011424422613283,-0.001020631871877,0.0010206349114241,-0.0010206333415942,0.0010206370476975,4.5906114854408e-09,4.5905202449341e-09,-0.0013688377400797,0.0013688484201198,-3.0184523795282e-10,9.4647291007875e-09,-0.0017183716361917,0.0017183791912414,-0.0017183668968089,0.0017183809724603,-0.0017183701570474,0.0017183777122234,-0.0017183655359708,0.0017183796118699,-0.0013009658488055,0.0013009782750939,-0.001300964455182,0.0013009768814641,0.56553166773382,125301,3014,0.0042244003824171,0.0042244003824145,0.005686490315268,32.642223951364,0.00017633779161091,0.00017633779161091,0.00017633779161091,3734166.0087598,0.014237246012164
14919200,0.99814001354602,0.0166707084869,0.0051243499656366,0.0051243499656333,0.0064220085556301,-0.0010104407143142,0.0010104512770877,3.9811213449463e-09,3.9810218413684e-09,3.643710110422e-09,4.0159512184469e-09,-0.0013135099438141,0.0013135217221139,-0.0013135092613234,0.0013135210397713,-0.0013135085032136,0.0013135204761494,-0.0013135078246524,0.0013135197978423,-0.001137470955285,0.0011374792671997,-0.0011374711187687,0.0011374794307189,3.6437078126615e-09,4.0159615022504e-09,8.9885799219817e-09,-1.0264298795601e-09,-0.0010104407143099,0.0010104512770902,-0.0013135082551345,0.0013135233869004,-0.0013135109500006,0.0013135193749851,-0.0013135068165861,0.0013135221429956,-0.0013135095112687,0.0013135181310064,-0.0011374660484318,0.0011374841564959,-0.0011374760256015,0.0011374745414269,-0.0010157171563499,0.0010157216832812,-0.0010157186683139,0.0010157238938973,5.052611100258e-09,5.0525199839239e-09,-0.0013635058593452,0.0013635178096558,2.6482895201024e-11,1.0048135262189e-08,-0.0017132619886575,0.0017132705607336,-0.0017132569810502,0.001713272246824,-0.0017132603278364,0.0017132689000387,-0.0017132554450622,0.0017132707110838,-0.0012958644317663,0.001295877937722,-0.0012958630545598,0.0012958765605093,0.5702752353385,125301,3014,0.0042031949592769,0.0042031949592735,0.00566440145937,30.578507117259,0.00015982805693807,0.00015982805693807,0.00015982805693807,3731489.501632,0.014171833054326
15419200,0.99844024859562,0.016674807960266,0.0051257049849298,0.0051257049849264,0.0064233979904094,-0.0010024945707897,0.0010025083477943,5.2300041324344e-09,5.2299045386239e-09,4.8343181586928e-09,5.2387245410319e-09,-0.00130703998984,0.0013070546255475,-0.0013070391501937,0.0013070537860492,-0.001307038328459,0.0013070531597404,-0.0013070374943592,0.0013070523258949,-0.0011294020342237,0.0011294130106988,-0.0011294022103692,0.0011294131868796,4.8343159207918e-09,5.2387345175322e-09,1.0452842381742e-08,7.073152076338e-12,-0.0010024945707854,0.0010025083477966,-0.0013070382224592,0.0013070563614081,-0.0013070409175736,0.0013070520501892,-0.0013070365639379,0.0013070548984699,-0.0013070392588687,0.0013070505871768,-0.0011293969129106,0.0011294181045091,-0.0011294073316608,0.0011294080930728,-0.0010078973750701,0.0010079043221077,-0.0010078989626697,0.001007906651431,5.7821299552518e-09,5.7820386988632e-09,-0.001355092416233,0.0013551063831278,5.2605330813842e-10,1.0990317893979e-08,-0.0017061271186394,0.0017061372715053,-0.0017061216726227,0.0017061388185705,-0.0017061251691013,0.001706135322093,-0.0017061198574334,0.0017061370036298,-0.0012877977729244,0.00128781299971,-0.0012877964213455,0.0012878116481236,0.60998274769308,125301,3014,0.0041702406172685,0.0041702406172645,0.0056295519570493,27.069356061359,0.00013175484849087,0.00013175484849087,0.00013175484849087,3713138.8057805,0.014069678473526
15919200,0.99867097641412,0.016678205457238,0.0051268281595161,0.0051268281595127,0.0064245491382088,-0.0009987376827161,0.00099874752368626,3.7124765333608e-09,3.7123766338539e-09,3.3952756210133e-09,3.7510589287246e-09,-0.0013065586202394,0.0013065697308529,-0.0013065579816127,0.0013065690923737,-0.0013065572398481,0.0013065685420317,-0.0013065566034291,0.0013065679058663,-0.0011248522270914,0.0011248599597495,-0.0011248524027155,0.0011248601354098,3.395271523818e-09,3.7510707882667e-09,9.0096877119225e-09,-1.5848279250174e-09,-0.00099873768271193,0.0009987475236887,-0.001306556842352,0.0013065714929886,-0.0013065597594992,0.0013065673302377,-0.0013065554631512,0.0013065703053674,-0.0013065583801138,0.0013065661425426,-0.001124847040784,0.0011248651394333,-0.001124857589002,0.0011248549557308,-0.0010041482255873,0.0010041520177093,-0.0010041497416392,0.0010041542061773,4.9122236899382e-09,4.912132187557e-09,-0.0013495835546402,0.0013495950977919,-3.8727965201953e-10,1.019968066011e-08,-0.0017035029533931,0.0017035109655435,-0.0017034978394349,0.0017035129171543,-0.0017035013721572,0.0017035093844335,-0.0017034963780241,0.0017035114559918,-0.0012829377570251,0.0012829511479838,-0.0012829363661198,0.0012829497570707,0.65577892348325,125301,3014,0.0041546649722127,0.0041546649722094,0.0056067442212135,25.353298539564,0.00011802638831651,0.00011802638831651,0.00011802638831651,3648908.5576813,0.014015022339835
16419200,0.99885819938552,0.016680724403808,0.0051276626988713,0.0051276626988679,0.0064253990060687,-0.00099632318533675,0.00099633130830049,3.0482644463783e-09,3.0481641538539e-09,2.7645243732957e-09,3.0991679933981e-09,-0.0013071438880531,0.0013071534516269,-0.0013071433374509,0.0013071529011712,-0.0013071426302573,0.001307152383808,-0.0013071420807841,0.0013071518345883,-0.0011218051706515,0.0011218114856748,-0.0011218053436434,0.0011218116587028,2.7645223994728e-09,3.0991771793399e-09,8.2930284212143e-09,-2.1965936706139e-09,-0.00099632318533281,0.00099633130830269,-0.0013071421323264,0.0013071551967166,-0.0013071450931756,0.0013071511560823,-0.0013071408751836,0.0013071541295572,-0.0013071438358476,0.0013071500888492,-0.0011218000381557,0.0011218166184473,-0.0011218104761203,0.001121806525933,-0.0010019343731948,0.001001936840837,-0.0010019358539049,0.0010019389638846,4.5089559440204e-09,4.5088644504625e-09,-0.0013450535992525,0.0013450640425414,-7.2819778764568e-10,9.7457862869775e-09,-0.0017017585896285,0.0017017656742225,-0.0017017536753483,0.0017017677471026,-0.0017017571688663,0.0017017642535861,-0.0017017523678772,0.0017017664398801,-0.0012792262822541,0.0012792387718182,-0.0012792248807695,0.0012792373703247,0.60060694958118,125301,3014,0.0041446643107473,0.0041446643107439,0.0055879970475194,24.411719353293,0.00011049375482634,0.00011049375482634,0.00011049375482634,3581754.0995198,0.013975783216513
16919200,0.99901379908653,0.016683073738802,0.0051284419197075,0.0051284419197041,0.0064261898993908,-0.00099331232010227,0.00099331972046904,2.7588574953855e-09,2.7587579562499e-09,2.4825910190191e-09,2.8171403930595e-09,-0.0013015942083712,0.0013016031501633,-0.0013015936852524,0.0013016026271928,-0.0013015929954402,0.0013016021294493,-0.0013015924731586,0.0013016016074211,-0.0011199673997144,0.0011199731041824,-0.0011199675649307,0.001119973269435,2.4825885381141e-09,2.8171496839117e-09,7.9660067099819e-09,-2.4483848993612e-09,-0.00099331232009835,0.00099331972047104,-0.0013015924662772,0.0013016048828562,-0.0013015954273443,0.0013016008945001,-0.0013015912538523,0.0013016038626553,-0.0013015942147361,0.001301599874225,-0.0011199623045509,0.0011199782010208,-0.0011199726600731,0.0011199681725986,-0.00099965890158872,0.00099966079620322,-0.000999660355991,0.0009996628958551,4.403221061325e-09,4.4031299706959e-09,-0.0013423781972596,0.0013423883185829,-7.9407629066146e-10,9.6028225027171e-09,-0.0016969704309132,0.0016969772985443,-0.0016969655999587,0.0016969794028719,-0.0016969690675378,0.0016969759352944,-0.0016969643493627,0.0016969781525243,-0.0012769066329989,0.0012769188617507,-0.001276905224353,0.0012769174530982,0.66895809789272,125301,3014,0.0041321541419381,0.0041321541419343,0.005576888850087,23.779557733898,0.00010543646187119,0.00010543646187119,0.00010543646187119,3617710.506082,0.013939086225718
17419200,0.99913585852425,0.016684806763806,0.0051290165267442,0.0051290165267408,0.006426773710321,-0.00098994401593566,0.0009899539814296,3.764161723502e-09,3.7640608700536e-09,3.4497252601436e-09,3.7999736263259e-09,-0.0013027723548137,0.0013027835286776,-0.0013027717167724,0.0013027828907823,-0.0013027709753624,0.0013027823388856,-0.0013027703395624,0.0013027817033387,-0.0011152201303528,0.0011152279758223,-0.0011152203108773,0.0011152281563822,3.4497237631609e-09,3.7999822269915e-09,9.0384894699888e-09,-1.510260810026e-09,-0.00098994401593177,0.00098995398143176,-0.0013027705843604,0.0013027852832247,-0.0013027734872235,0.0013027811362363,-0.0013027692061185,0.001302784094648,-0.0013027721087964,0.0013027799475859,-0.0011152149665391,0.0011152331331183,-0.0011152254746725,0.0011152229990885,-0.00099593874786304,0.00099594267355473,-0.00099594027068203,0.00099594485806205,4.9152318294533e-09,4.9151408118221e-09,-0.0013368802177915,0.0013368918021745,-3.6164450121461e-10,1.0179927718343e-08,-0.0016955100100372,0.0016955180236771,-0.0016955049140337,0.0016955199629988,-0.0016955084316341,0.0016955164453999,-0.0016955034533255,0.0016955185025399,-0.0012718615469608,0.0012718749416877,-0.001271860162603,0.0012718735573193,0.63180125044338,125301,3014,0.0041182110427826,0.0041182110427792,0.0055541490579998,21.98231354103,9.1058508328239e-05,9.1058508328239e-05,9.1058508328239e-05,3536560.825588,0.013887854255747
17919200,0.99922911038012,0.016686033287113,0.005129424168827,0.0051294241688236,0.0064271849494625,-0.00098305295872571,0.00098306439797271,4.3289897269824e-09,4.3288893377257e-09,3.9822715216621e-09,4.3539206339486e-09,-0.0012945857398684,0.0012945982243067,-0.0012945850240165,0.0012945975086022,-0.0012945842577028,0.0012945969342978,-0.0012945835449973,0.0012945962218454,-0.0011093200979778,0.0011093291577665,-0.0011093202719811,0.0011093293318062,3.9822695956496e-09,4.3539294875292e-09,9.6924706996549e-09,-1.0345839231646e-09,-0.00098305295872101,0.00098306439797461,-0.0012945839357752,0.0012946000081651,-0.0012945868281057,0.0012945957247435,-0.0012945824552712,0.0012945987198221,-0.0012945853474181,0.0012945944363271,-0.0011093148446204,0.0011093343986332,-0.0011093255253169,0.0011093240909434,-0.00098978826165123,0.00098979328600828,-0.00098978979985597,0.00098979551658376,5.2930943755413e-09,5.2930038055435e-09,-0.001330018315975,0.0013300309277738,-8.1520839770774e-11,1.0645372080543e-08,-0.0016876655433624,0.0016876743888985,-0.0016876602489547,0.0016876762559407,-0.0016876638296179,0.0016876726752806,-0.0016876586588592,0.0016876746660951,-0.0012655370887941,0.0012655513580543,-0.0012655357252789,0.0012655499945292,0.5858413311655,125301,3014,0.0040896141558089,0.0040896141558033,0.0055257014824441,19.501902921269,7.1215223370149e-05,7.1215223370149e-05,7.1215223370149e-05,3556886.298895,0.013800982579692
18419200,0.99930323918714,0.016687036676021,0.0051297574658535,0.0051297574658501,0.0064275217443176,-0.00097761027423596,0.00097762074197597,3.9458146549826e-09,3.9457150945829e-09,3.6106223226724e-09,3.9799642035902e-09,-0.0012871464740584,0.0012871581349908,-0.001287145797957,0.0012871574590383,-0.0012871450521943,0.0012871569075685,-0.0012871443785678,0.0012871562342002,-0.0011046960380515,0.0011047042819907,-0.0011046962096283,0.0011047044536052,3.6106164741402e-09,3.9799757574487e-09,9.3610593441092e-09,-1.4695221945003e-09,-0.0009776102742304,0.00097762074197699,-0.0012871446555875,0.0012871599363155,-0.0012871476164247,0.0012871556577134,-0.0012871432350449,0.0012871587102288,-0.0012871461956997,0.0012871544315528,-0.0011046907352985,0.0011047095760365,-0.0011047015123516,0.0011046991595695,-0.00098469595535889,0.00098470014819581,-0.00098469746974982,0.0009847023558774,5.1308123546163e-09,5.1307214965096e-09,-0.0013254382063672,0.0013254503301884,-2.8972938093688e-10,1.0535739625181e-08,-0.0016812993258175,0.0016813077693033,-0.0016812940760526,0.0016813097449241,-0.0016812976886876,0.0016813061323029,-0.0016812925614409,0.0016813082305596,-0.0012609147985792,0.0012609287399469,-0.0012609134197125,0.0012609273610671,0.60198894816475,125301,3014,0.0040670135272899,0.0040670135272808,0.0055067026133806,17.478776133005,5.5030209064039e-05,5.5030209064039e-05,5.5030209064039e-05,3599382.1268792,0.013735857654347
18919200,0.99936793590987,0.016687962069055,0.0051300644433679,0.0051300644433645,0.0064278331823227,-0.00097623183473972,0.00097623923758228,2.7612162287102e-09,2.7611163988776e-09,2.4854837697358e-09,2.8192016444132e-09,-0.0012875461986229,0.0012875551434744,-0.0012875456753506,0.0012875546203504,-0.0012875449890303,0.0012875541258993,-0.0012875444661302,0.0012875536032523,-0.0011027328694252,0.0011027385793174,-0.0011027330447637,0.0011027387546922,2.48547926295e-09,2.8192145776449e-09,8.1163839939355e-09,-2.5940436404714e-09,-0.000976231834735,0.00097623923758482,-0.0012875444091878,0.0012875569256736,-0.001287547464784,0.0012875528381508,-0.0012875431998668,0.0012875559083801,-0.0012875462552798,0.0012875518207834,-0.0011027276303993,0.0011027438228652,-0.0011027382837653,0.001102733511151,-0.00098317419318769,0.00098317599602132,-0.00098317565772536,0.00098317810478382,4.4359353309265e-09,4.4358442691789e-09,-0.0013230722839369,0.0013230824808845,-9.0515030025024e-10,9.784097825851e-09,-0.001680475879202,0.0016804827194723,-0.0016804709553106,0.0016804849243521,-0.0016804745196343,0.0016804813600294,-0.0016804697076312,0.0016804836769221,-0.0012587577311298,0.001258770126834,-0.0012587563142023,0.0012587687098989,0.63537815674573,125301,3014,0.0040612951306269,0.0040612951306226,0.0054969094385142,16.874815974567,5.0198527796537e-05,5.0198527796537e-05,5.0198527796537e-05,3564337.0996233,0.013714375111184
19419200,0.99942895750968,0.016688877992689,0.0051303684697971,0.0051303684697937,0.0064281410530986,-0.00097753398363427,0.00097753862977867,1.6936532787608e-09,1.6935532759335e-09,1.4688108746595e-09,1.7726677591285e-09,-0.0012911108339324,0.0012911173383698,-0.0012911104465144,0.0012911169510989,-0.0012911098131261,0.0012911165082153,-0.0012911094251266,0.0012911161204691,-0.00110330391252,0.0011033073398618,-0.0011033040870282,0.0011033075144067,1.4688079918558e-09,1.7726780895023e-09,6.7601491815562e-09,-3.372936209313e-09,-0.00097753398363022,0.00097753862978099,-0.0012911091448559,0.0012911190247424,-0.0012911121355893,0.0012911152647268,-0.0012911081238462,0.0012911181943923,-0.0012911111143953,0.0012911144343029,-0.0011032989582515,0.0011033123048287,-0.0011033090412769,0.0011033025494435,-0.00098440533239237,0.00098440513230333,-0.00098440674494324,0.0009844071487982,3.7737489722064e-09,3.7736577669926e-09,-0.0013227164290447,0.0013227248195886,-1.2702600345161e-09,8.8352463418478e-09,-0.0016821803159187,0.0016821857993133,-0.0016821758342873,0.0016821880546851,-0.001682179202727,0.0016821846862471,-0.0016821748239163,0.0016821870445629,-0.001258821263648,0.0012588320416945,-0.0012588198197062,0.0012588305977433,0.66499876400801,125301,3014,0.004066704807253,0.0040667048072496,0.0054954536602916,17.545999809502,5.5567998476015e-05,5.5567998476015e-05,5.5567998476015e-05,3509879.3714099,0.013723911811594
19919200,0.99948779987276,0.016689746888087,0.0051306573209847,0.0051306573209814,0.0064284322461214,-0.00097949151284018,0.00097949514731982,1.3010881066809e-09,1.3009880574726e-09,1.0940912140291e-09,1.3873035874453e-09,-0.0012947738915491,0.0012947795029479,-0.0012947735528661,0.0012947791644116,-0.0012947729388232,0.0012947787404435,-0.0012947726000491,0.0012947784019226,-0.0011048180494979,0.001104820637909,-0.0011048182238791,0.0011048208123273,1.0940877923747e-09,1.3873146100645e-09,6.0143080737906e-09,-3.4122253536604e-09,-0.00097949151283606,0.0009794951473222,-0.0012947723180593,0.0012947810714284,-0.0012947751263546,0.0012947775959312,-0.001294771365375,0.0012947803089742,-0.0012947741734857,0.0012947768334033,-0.0011048134399528,0.0011048252552353,-0.0011048228334037,0.0011048161950053,-0.00098651728598795,0.00098651651139918,-0.00098651867914018,0.00098651849428697,3.4986849789284e-09,3.4985937403039e-09,-0.0013228862844365,0.0013228939492742,-1.1969530979045e-09,8.2067126456796e-09,-0.0016840246894943,0.0016840297779862,-0.0016840205299145,0.0016840318890633,-0.0016840236651811,0.0016840287537983,-0.0016840196051047,0.0016840309645026,-0.0012595688990506,0.0012595788575856,-0.001259567446932,0.0012595774054568,0.65387749228072,125301,3014,0.0040748358506369,0.0040748358506335,0.0054961759015442,18.682229911408,6.4657839291261e-05,6.4657839291261e-05,6.4657839291261e-05,3459524.8666624,0.013741157049795
20419200,0.99954034054395,0.016690554638418,0.0051309261151907,0.0051309261151873,0.0064287024080402,-0.00097832597133338,0.00097833220291066,2.3073478627243e-09,2.3072478943371e-09,2.0550815430225e-09,2.3730096045972e-09,-0.0012934210583134,0.0012934289460589,-0.0012934205937352,0.0012934284816278,-0.0012934199315839,0.0012934280095246,-0.001293419468665,0.0012934275468588,-0.0011039576463687,0.0011039623893158,-0.0011039578205029,0.0011039625634866,2.0550785631123e-09,2.3730208740765e-09,7.0209258211702e-09,-2.4063228005409e-09,-0.00097832597132909,0.00097833220291358,-0.0012934194770266,0.0012934305140442,-0.0012934221750202,0.0012934269136437,-0.0012934183512136,0.0012934295784349,-0.0012934210490234,0.0012934259779609,-0.0011039530326737,0.0011039670000854,-0.0011039624341772,0.0011039579527227,-0.00098575867278314,0.00098575997577978,-0.00098576011198712,0.00098576203615996,4.0795000062516e-09,4.0794088952702e-09,-0.0013209901512653,0.0013209994385433,-6.3248493919573e-10,8.785094106376e-09,-0.0016820918888793,0.0016820983358247,-0.0016820874958403,0.0016821002277557,-0.0016820906382635,0.0016820970853341,-0.0016820863522276,0.001682099084392,-0.0012581418937821,0.0012581531169514,-0.0012581404726615,0.001258151695821,0.67876341910625,125301,3014,0.0040700037611649,0.0040700037611622,0.0054883208822771,18.601885369737,6.4015082957894e-05,6.4015082957894e-05,6.4015082957894e-05,3450862.5143358,0.013723381528577
20919200,0.99958403843424,0.016691202004655,0.0051311416701803,0.005131141670177,0.0064289186642976,-0.00097509902140428,0.00097510796657781,3.3623021857997e-09,3.3622022133244e-09,3.0632772148073e-09,3.405998060656e-09,-0.0012919305979794,0.0012919408570168,-0.0012919300049823,0.0012919402641682,-0.0012919292910853,0.0012919397404986,-0.0012919287012574,0.0012919391509216,-0.0011003965784826,0.0011004035750403,-0.0011003967604995,0.0011004037570886,3.0632726442942e-09,3.4060091874889e-09,8.1574434641075e-09,-1.4329337104618e-09,-0.00097509902140136,0.00097510796658037,-0.0012919289829619,0.0012919424516551,-0.0012919316199985,0.0012919386695305,-0.0012919276777404,0.0012919413368164,-0.001291930314592,0.0012919375546178,-0.0011003918816226,0.0011004082595331,-0.0011004014573396,0.001100399072598,-0.00098262747077865,0.0009826308914569,-0.00098262896874135,0.0009826330421695,4.6706393446447e-09,4.6705479464956e-09,-0.0013165380223247,0.0013165489694009,-1.3678074667737e-10,9.4555052132769e-09,-0.0016793256240033,0.0016793333954798,-0.001679320937416,0.001679335114454,-0.0016793241401332,0.0016793319117358,-0.0016793195676149,0.0016793337449007,-0.0012541003206768,0.001254112884686,-0.0012540989274699,0.0012541114914614,0.65510000898165,125301,3014,0.0040566299608005,0.0040566299608,0.0054698917753926,17.277027178285,5.3416217426284e-05,5.3416217426284e-05,5.3416217426284e-05,3416273.8190004,0.013677618651969
21419200,0.99961910762559,0.016691722870982,0.0051313152488078,0.0051313152488044,0.0064290923733695,-0.00096967136005723,0.00096968188070288,3.9698229399871e-09,3.9697232039163e-09,3.6399614405589e-09,4.001412618503e-09,-0.0012858959315739,0.0012859075809791,-0.0012858952592926,0.0012859069088452,-0.0012858945175534,0.0012859063585198,-0.0012858938491225,0.001285905690342,-0.001095500109765,0.0010955084094897,-0.0010955002899569,0.0010955085897185,3.6399579515606e-09,4.0014237311892e-09,8.9226559652019e-09,-9.8310327653842e-10,-0.00096967136005312,0.00096968188070527,-0.0012858942610792,0.0012859092278522,-0.001285896929786,0.0012859052619722,-0.0012858928490706,0.0012859080074135,-0.0012858955175936,0.0012859040414598,-0.0010954952567373,0.0010955132455317,-0.0010955051429641,0.0010955037536808,-0.00097760806139214,0.00097761262679119,-0.00097760958427573,0.0009776148281029,5.0551661367916e-09,5.0550749535184e-09,-0.0013110914712835,0.0013111034722617,8.3655135951843e-11,9.9963866541907e-09,-0.0016734017275518,0.0016734102950429,-0.0016733967929251,0.0016734119814011,-0.0016734001033558,0.0016734086709719,-0.0016733952881407,0.0016734104768655,-0.0012489669010661,0.0012489804012398,-0.0012489655268999,0.0012489790270641,0.65600721497359,125301,3014,0.0040341068230709,0.0040341068230675,0.0054473140875232,15.230824624594,3.7046596996755e-05,3.7046596996755e-05,3.7046596996755e-05,3428251.3671709,0.013609049287108
21919200,0.99964893024921,0.016692160081644,0.0051314609354911,0.0051314609354877,0.0064292382106651,-0.00096650998453306,0.00096651877713058,3.3001096370041e-09,3.3000098624639e-09,3.0010834763716e-09,3.3455474262344e-09,-0.0012833451401613,0.0012833552774315,-0.001283344550964,0.0012833546883814,-0.0012833438427028,0.0012833541712489,-0.0012833432559701,0.0012833535847693,-0.0010922834842755,0.0010922903513822,-0.0010922836674442,0.0010922905345881,3.0010799527417e-09,3.3455581596546e-09,8.3108519893089e-09,-1.7107260522551e-09,-0.00096650998452908,0.00096651877713289,-0.0012833434563517,0.0012833569441174,-0.0012833462347726,0.0012833530216957,-0.0012833421602122,0.0012833558392625,-0.0012833449384493,0.0012833519167669,-0.0010922785776844,0.001092295249596,-0.0010922885740148,0.001092285636378,-0.0009745555054083,0.00097455865322981,-0.00097455700029994,0.00097456080466314,4.6883854036324e-09,4.6882941905365e-09,-0.0013073888885382,0.0013073998537428,-3.2826674294104e-10,9.6895827664565e-09,-0.0016702895899167,0.0016702972585864,-0.0016702847737017,0.0016702991295822,-0.0016702881172455,0.0016702957860402,-0.0016702834151978,0.0016702977713271,-0.001245485909858,0.0012454986479282,-0.0012454845107873,0.0012454972488479,0.64802896218657,125301,3014,0.0040209870801001,0.0040209870800968,0.0054319731971183,13.995690329344,2.7165522634749e-05,2.7165522634749e-05,2.7165522634749e-05,3416656.4748984,0.013566914732525
22419200,0.99967786581376,0.016692594075302,0.0051316055671332,0.0051316055671299,0.0064293829410388,-0.00096774550576168,0.00096774977490426,1.5451626640766e-09,1.5450629489757e-09,1.3262994628442e-09,1.6271338272373e-09,-0.0012845225451766,0.0012845287191789,-0.0012845221730497,0.0012845283471996,-0.0012845215510942,0.0012845279160855,-0.0012845211786268,0.0012845275438711,-0.0010934962555578,0.0010934993699951,-0.0010934964384188,0.0010934995528933,1.3262960222879e-09,1.6271447790755e-09,6.4589347107415e-09,-3.3687026423361e-09,-0.00096774550575761,0.00096774977490664,-0.0012845209057621,0.0012845303546372,-0.0012845238124629,0.0012845267117412,-0.0012845199115961,0.0012845295514688,-0.0012845228181134,0.001284525908499,-0.0010934914502153,0.0010935041843715,-0.0010935012437411,0.001093494738521,-0.00097590379921148,0.00097590339745815,-0.00097590521116959,0.00097590540980097,3.6987761903969e-09,3.6986850037708e-09,-0.0013080392021104,0.0013080473946685,-1.1953234538066e-09,8.6074845279326e-09,-0.0016709030148338,0.0016709084328636,-0.0016708986691329,0.001670910623462,-0.0016709019372209,0.0016709073553757,-0.0016708976924127,0.0016709096469907,-0.0012463246906289,0.0012463352104096,-0.0012463232344568,0.0012463337542279,0.66209702351285,125301,3014,0.0040261016943842,0.0040261016943809,0.0054346645584802,14.850213173792,3.4001705390333e-05,3.4001705390333e-05,3.4001705390333e-05,3406816.4329562,0.013580006839426
22919200,0.99970523162528,0.01669298344604,0.0051317354238605,0.0051317354238571,0.0064295125983223,-0.0009685245207604,0.00096852951686958,1.8264126710819e-09,1.8263128013093e-09,1.5951314390648e-09,1.9021259271527e-09,-0.0012863981769224,0.0012864049827542,-0.0012863977708024,0.0012864045767808,-0.0012863971344577,0.0012864041310204,-0.0012863967287285,0.0012864037255435,-0.0010938984246779,0.0010939021404957,-0.001093898607613,0.0010939023234676,1.5951281891283e-09,1.9021368921946e-09,6.6711556549054e-09,-3.0184234140213e-09,-0.00096852452075616,0.000968529516872,-0.0012863965573644,0.0012864065949347,-0.0012863993903589,0.0012864029646006,-0.0012863955151818,0.0012864057434915,-0.0012863983479927,0.0012864021130834,-0.0010938936853276,0.0010939068845318,-0.0010939033469427,0.0010938975794359,-0.00097666624072424,0.00097666646491254,-0.00097666766587064,0.00097666849811919,3.8373777425676e-09,3.8372864684736e-09,-0.001307775487761,0.0013077840863892,-9.9444270413447e-10,8.6760708719904e-09,-0.0016716797925427,0.0016716855845716,-0.0016716754267192,0.0016716876688666,-0.001671678651717,0.0016716844438702,-0.0016716743885954,0.0016716866309922,-0.0012462929980237,0.0012463037785736,-0.0012462915531871,0.0012463023337276,0.62916625254873,125301,3014,0.0040293402311169,0.0040293402311133,0.0054335859454382,15.357580608844,3.8060644870752e-05,3.8060644870752e-05,3.8060644870752e-05,3377485.042464,0.013585500579441
23419200,0.99973079519783,0.016693354379168,0.0051318591913932,0.0051318591913898,0.0064296359963846,-0.00096839696641802,0.00096840228692583,1.949444374636e-09,1.9493448623525e-09,1.7113641150304e-09,2.023490051062e-09,-0.0012849216703261,0.001284928765396,-0.0012849212457908,0.0012849283410084,-0.0012849206049831,0.0012849278914912,-0.0012849201812078,0.0012849274679691,-0.0010941976382157,0.0010942016196636,-0.0010941978211599,0.0010942018026458,1.7113616194775e-09,2.0235000218383e-09,6.7531006379616e-09,-2.854304856051e-09,-0.00096839696641401,0.00096840228692819,-0.0012849200627752,0.0012849303637697,-0.0012849228533398,0.0012849267426353,-0.0012849189978995,0.0012849294903396,-0.0012849217882809,0.0012849258691314,-0.001094192938196,0.0010942063218609,-0.001094202521161,0.0010941971004522,-0.00097678923147745,0.00097678973683685,-0.00097679066104433,0.00097679178203889,3.9252445494146e-09,3.9251534537269e-09,-0.0013078338773945,0.0013078427143336,-8.6915267562943e-10,8.7222905114533e-09,-0.0016704744140957,0.0016704804426517,-0.0016704700444714,0.0016704824716029,-0.0016704732436977,0.0016704792723786,-0.0016704689781168,0.0016704814054973,-0.0012464447051275,0.0012464556477919,-0.0012464432610512,0.001246454203707,0.64041034250229,125301,3014,0.0040288007644366,0.0040288007644333,0.0054338158592156,15.705842416542,4.0846739332337e-05,4.0846739332337e-05,4.0846739332337e-05,3395020.032836,0.013584606821402
23919200,0.99975598968812,0.016693748181501,0.0051319904581293,0.0051319904581259,0.0064297672652459,-0.00097101070913087,0.00097101399688466,1.1634608321879e-09,1.1633611051462e-09,9.6225921517091e-10,1.2533995493277e-09,-0.0012885018117104,0.0012885071220548,-0.0012885014866724,0.0012885067971643,-0.0012885008841736,0.001288506385415,-0.0012885005588113,0.0012885060603056,-0.0010963485649784,0.0010963508638545,-0.0010963487486765,0.00109635104759,9.6225604971624e-10,1.2534092698965e-09,5.8661627324115e-09,-3.5393349553967e-09,-0.00097101070912702,0.00097101399688663,-0.0012885002425068,0.0012885086872188,-0.0012885030558746,0.001288505232,-0.0012884993148948,0.0012885079505118,-0.001288502128079,0.0012885044952189,-0.0010963439662381,0.0010963554715569,-0.0010963533473971,0.0010963464398903,-0.00097929846588195,0.00097929741918139,-0.0009792998594411,0.00097929940072721,3.4611482900015e-09,3.4610570479065e-09,-0.0013094551602623,0.0013094627080905,-1.2224387732464e-09,8.1590873390412e-09,-0.0016729765072493,0.0016729815166983,-0.0016729723887039,0.0016729836538445,-0.0016729755164883,0.0016729805260617,-0.0016729714956326,0.0016729827610221,-0.0012482064749903,0.0012482163439079,-0.0012482050070223,0.0012482148759298,0.68827843007492,125301,3014,0.0040396451608117,0.004039645160808,0.0054405451619226,17.004878496287,5.1239027970298e-05,5.1239027970298e-05,5.1239027970298e-05,3365902.010799,0.013613433312845
24419200,0.99978001467487,0.016694112607561,0.0051321120612495,0.0051321120612461,0.0064298884850649,-0.00097297209361471,0.00097297631299162,1.5266682408332e-09,1.5265680368355e-09,1.3093420399406e-09,1.6078378512455e-09,-0.001292988024485,0.0012929941478611,-0.0012929876570205,0.0012929937805432,-0.0012929870350234,0.0012929933487967,-0.0012929866681999,0.0012929929822259,-0.0010974451276292,0.0010974482010238,-0.0010974453130391,0.001097448386471,1.3093307255756e-09,1.6078585448358e-09,6.1358280871325e-09,-3.08258379744e-09,-0.00097297209360987,0.00097297631299475,-0.0012929864823535,0.0012929956814673,-0.0012929891991549,0.0012929922469327,-0.0012929854932938,0.0012929948828248,-0.0012929882099109,0.0012929914482163,-0.0010974406183309,0.0010974527135481,-0.0010974498223097,0.0010974438739583,-0.00098107686478755,0.00098107662594443,-0.00098107827768862,0.00098107863583636,3.6251661542506e-09,3.6250746822803e-09,-0.0013096317665948,0.0013096398019866,-9.7370816956027e-10,8.2283019801991e-09,-0.0016755663816582,0.0016755718441759,-0.0016755622406101,0.0016755738416755,-0.0016755653098225,0.0016755707724647,-0.0016755612686443,0.0016755728699592,-0.001248673419534,0.0012486835913555,-0.0012486719673129,0.0012486821391236,0.66831886056904,125301,3014,0.0040477993769062,0.0040477993769028,0.0054413085315901,17.882064067448,5.8256512539588e-05,5.8256512539588e-05,5.8256512539588e-05,3308027.3622512,0.013630792595086
24919200,0.99980226592371,0.016694433345914,0.0051322192729578,0.0051322192729544,0.0064299948000015,-0.00097301123010515,0.00097301630455473,1.8560293234606e-09,1.8559294370414e-09,1.6232546978009e-09,1.9309074551909e-09,-0.0012923164053792,0.0012923232782898,-0.0012923159947963,0.0012923228678547,-0.0012923153581798,0.0012923224218591,-0.0012923149488601,0.0012923220127921,-0.0010978830693394,0.0010978868498398,-0.0010978832558183,0.0010978870363562,1.6232457827744e-09,1.9309252379546e-09,6.4505201918687e-09,-2.7385539649261e-09,-0.00097301123010074,0.00097301630455777,-0.001292314865346,0.0012923248068005,-0.0012923175348313,0.0012923213393414,-0.0012923138188611,0.0012923239511006,-0.0012923164881627,0.0012923204835674,-0.0010978785729762,0.0010978913454145,-0.0010978877521563,0.0010978825407909,-0.00098151832968526,0.00098151878140222,-0.0009815197586262,0.00098152081936971,3.8268468510438e-09,3.8267556417125e-09,-0.0013092067507039,0.001309215346955,-7.6325685202709e-10,8.4143282809586e-09,-0.0016745800096342,0.0016745859548723,-0.0016745758011378,0.0016745878705052,-0.001674578863141,0.0016745848085035,-0.0016745747570843,0.0016745868267008,-0.0012486520600981,0.0012486626604341,-0.0012486506147251,0.0012486612150508,0.63528369288634,125301,3014,0.0040479585104834,0.0040479585104808,0.0054395419967186,18.352108089483,6.2016864715864e-05,6.2016864715864e-05,6.2016864715864e-05,3307658.2477651,0.013629296120601
25419200,0.9998241209938,0.016694779299702,0.0051323348153798,0.0051323348153764,0.0064301096689457,-0.0009756111861224,0.00097561387232273,9.2935454629772e-10,9.2925523644922e-10,7.3908891184107e-10,1.024436764513e-09,-0.0012934939505107,0.0012934987335456,-0.0012934936531689,0.0012934984363521,-0.0012934930635575,0.0012934980375721,-0.0012934927662519,0.0012934977405194,-0.0011008018966872,0.0011008036957581,-0.0011008020837932,0.001100803882902,7.3908376933241e-10,1.024450002002e-09,5.3959171166047e-09,-3.5373003597603e-09,-0.00097561118611808,0.00097561387232534,-0.0012934924583273,0.0012935002199282,-0.0012934951453519,0.0012934969499688,-0.0012934915714772,0.001293499524069,-0.0012934942583189,0.0012934962540357,-0.0011007975283016,0.0011008080708292,-0.0011008064521567,0.0011007995078369,-0.00098431505658992,0.00098431368576264,-0.0009843164415235,0.00098431565125683,3.3122103450123e-09,3.3121189849797e-09,-0.0013118304641524,0.0013118376133286,-1.1390255237874e-09,7.7738074969289e-09,-0.0016758497367535,0.0016758545637742,-0.0016758458275446,0.0016758565990646,-0.0016758487997329,0.0016758536268779,-0.001675844986115,0.001675855757884,-0.0012513563418268,0.0012513657356124,-0.0012513548622491,0.0012513642560257,0.69486038735251,125301,3014,0.0040587308383426,0.0040587308383392,0.0054504006752312,19.920594842323,7.4564758738586e-05,7.4564758738586e-05,7.4564758738586e-05,3321359.2451862,0.013662108617762
25919200,0.99984446113743,0.01669509809411,0.005132441286249,0.0051324412862456,0.0064302155216156,-0.00097782066828815,0.00097782501655776,1.5764049097944e-09,1.5763047880296e-09,1.3568694279233e-09,1.656382339333e-09,-0.001298891855497,0.001298898090625,-0.0012988914817881,0.0012988977170628,-0.0012988908578321,0.0012988972833444,-0.0012988904853835,0.0012988969111485,-0.0011018193448654,0.0011018225249885,-0.0011018195327097,0.0011018227128705,1.3568674420056e-09,1.6563915425702e-09,6.0135049231705e-09,-2.8607889981821e-09,-0.00097782066828422,0.00097782501656,-0.001298890367928,0.0012988995667203,-0.0012988929693551,0.0012988962409683,-0.0012988893709812,0.0012988987601644,-0.0012988919722241,0.0012988954343386,-0.0011018150026471,0.0011018268665818,-0.0011018238749091,0.00110181837128,-0.00098611301109601,0.00098611298894176,-0.00098611442805736,0.00098611500421157,3.6328355539557e-09,3.6327439971645e-09,-0.001312150787123,0.0013121588625997,-8.0000174534876e-10,8.0632198025522e-09,-0.0016791799163275,0.0016791855185256,-0.0016791758769144,0.001679187393688,-0.0016791788341408,0.0016791844364633,-0.001679174894594,0.0016791864116172,-0.001251797325571,0.0012518074057222,-0.0012517958741321,0.0012518059542722,0.68893728017081,125301,3014,0.0040679188132198,0.0040679188132164,0.0054517685915141,20.734716390217,8.1077731121736e-05,8.1077731121736e-05,8.1077731121736e-05,3255535.8742835,0.013682198952309
26419200,0.99986211746602,0.016695388915038,0.0051325385173571,0.0051325385173537,0.0064303118803276,-0.0009762313635149,0.00097623817607769,2.5300064194523e-09,2.529906497799e-09,2.2674566804607e-09,2.5904228414486e-09,-0.001297263904457,0.0012972722910046,-0.0012972634113466,0.0012972717980413,-0.0012972627422115,0.00129727131915,-0.0012972622517832,0.0012972708289742,-0.001100526663757,0.0011005318870328,-0.0011005268533605,0.001100532076674,2.2674543891981e-09,2.5904320713467e-09,7.0332193620268e-09,-1.973299999931e-09,-0.00097623136351095,0.00097623817607987,-0.0012972623886179,0.0012972737886165,-0.0012972649271841,0.0012972703004302,-0.0012972612278012,0.0012972728181972,-0.0012972637661833,0.0012972693299368,-0.0011005222536362,0.001100536287624,-0.0011005312634621,0.0011005276760861,-0.00098492419472382,0.00098492609830197,-0.00098492565801594,0.00098492818969391,4.1862570232509e-09,4.186165672571e-09,-0.0013098550181978,0.0013098646428969,-3.2579166293539e-10,8.6804109984907e-09,-0.0016769901307654,0.0016769969803306,-0.0016769858281306,0.0016769986915167,-0.0016769888349804,0.0016769956846691,-0.0016769846391152,0.0016769975027508,-0.0012499880725725,0.001249999401847,-0.0012499866490534,0.0012499979783167,0.72144036446661,125301,3014,0.0040613290351576,0.0040613290351541,0.0054422575898123,20.398785774837,7.8390286198699e-05,7.8390286198699e-05,7.8390286198699e-05,3245829.3383619,0.013659182875078
26919200,0.99987855666071,0.016695651122663,0.0051326262383847,0.0051326262383813,0.0064303986458973,-0.00097786212132199,0.00097786633848102,1.5266015473412e-09,1.5265009089157e-09,1.3090710553661e-09,1.6073626603211e-09,-0.0013004147354428,0.0013004208587968,-0.0013004143678367,0.001300420491337,-0.0013004137470411,0.0013004200608837,-0.0013004133805264,0.0013004196946211,-0.0011017253639983,0.001101728437534,-0.0011017255556668,0.0011017286292391,1.3090691550262e-09,1.6073717865221e-09,5.9928544000997e-09,-2.9397457065812e-09,-0.00097786212131805,0.00097786633848327,-0.0013004132388734,0.0013004223446617,-0.001300415864404,0.001300419005473,-0.0013004122511054,0.0013004215473886,-0.0013004148764519,0.0013004182081261,-0.001101720993601,0.0011017328083614,-0.0011017299260452,0.0011017242584145,-0.00098660234805776,0.00098660220336844,-0.0009866037664007,0.00098660421839987,3.6106485362245e-09,3.6105576210607e-09,-0.0013099136113533,0.0013099216221753,-8.4985700951055e-10,8.0704666413133e-09,-0.0016786368077362,0.0016786423393736,-0.0016786327618034,0.0016786442456365,-0.0016786357378397,0.0016786412696018,-0.0016786317910597,0.0016786432751429,-0.0012504183888647,0.0012504284400182,-0.0012504169323209,0.0012504269834619,0.69956235258039,125301,3014,0.0040680988050829,0.0040680988050796,0.0054425193916997,21.287380927096,8.5499047416769e-05,8.5499047416769e-05,8.5499047416769e-05,3204496.8724293,0.013673202333629
27419200,0.99989381688733,0.016695892712715,0.0051327071443499,0.0051327071443465,0.0064304784240188,-0.00097903339526332,0.00097903739922969,1.4412614042475e-09,1.4411610256376e-09,1.2271354763241e-09,1.5243601349325e-09,-0.0013008252024313,0.0013008311391348,-0.0013008248434259,0.0013008307802764,-0.0013008242277065,0.0013008303552592,-0.0013008238697315,0.0013008299975363,-0.0011032142094946,0.0011032171029761,-0.0011032144004097,0.0011032172939277,1.2271329285125e-09,1.524369600136e-09,5.883395964023e-09,-3.000967362062e-09,-0.00097903339525943,0.00097903739923185,-0.0013008237141031,0.0013008326169966,-0.0013008263317525,0.0013008293024153,-0.0013008227399806,0.0013008318337301,-0.0013008253574468,0.001300828519075,-0.0011032098627894,0.0011032214503488,-0.0011032187470956,0.0011032129465579,-0.00098810573958406,0.00098810543714454,-0.00098810715270106,0.00098810744595696,3.5760199679858e-09,3.5759292536983e-09,-0.0013105954282301,0.0013106033385897,-8.6000412208205e-10,8.011829862509e-09,-0.001678682092945,0.0016786875606274,-0.0016786780813344,0.0016786894688523,-0.0016786810411908,0.0016786865089975,-0.0016786771282351,0.0016786885160027,-0.001251446647514,0.0012514566063819,-0.0012514451862925,0.0012514551451488,0.69373346225998,125301,3014,0.0040729525673801,0.0040729525673767,0.0054453386491271,22.251380718205,9.321104574564e-05,9.321104574564e-05,9.321104574564e-05,3204585.8606109,0.013685872840186
27919200,0.9999076479525,0.016696118553904,0.0051327827617947,0.0051327827617914,0.0064305530303174,-0.00097996460976511,0.00097996924526114,1.6851529897329e-09,1.6850526066525e-09,1.4599080744575e-09,1.7633301887378e-09,-0.0013017734787746,0.00130177996584,-0.0013017730890919,0.0013017795763041,-0.0013017724620699,0.0013017791399998,-0.0013017720738425,0.0013017787520252,-0.0011041055111282,0.0011041089273401,-0.0011041057021205,0.0011041091183686,1.4599067170218e-09,1.763338963115e-09,6.1265685962614e-09,-2.7563560412815e-09,-0.00097996460976103,0.00097996924526346,-0.0013017719888165,0.0013017814433133,-0.0013017745790456,0.0013017780988312,-0.0013017709729281,0.0013017806182946,-0.0013017735629749,0.0013017772737393,-0.0011041011641732,0.0011041132723053,-0.0011041100490569,0.0011041047734086,-0.00098913386092658,0.00098913406283308,-0.00098913528494312,0.0009891360905592,3.7159427720873e-09,3.7158520643877e-09,-0.0013109426713679,0.001310950975631,-7.2333983064117e-10,8.1503634914312e-09,-0.0016790732173012,0.0016790790125328,-0.0016790691498576,0.0016790808673557,-0.0016790721109307,0.0016790779062851,-0.0016790681439131,0.0016790798616613,-0.0012519712914796,0.0012519815552385,-0.0012519698378849,0.0012519801016319,0.71478776829292,125301,3014,0.0040768160886309,0.0040768160886274,0.0054467814414421,22.91884064446,9.8550725155682e-05,9.8550725155682e-05,9.8550725155682e-05,3195616.7124403,0.013695166095825
28419200,0.99992001795562,0.016696329211682,0.0051328532900453,0.0051328532900419,0.0064306226315948,-0.00098088406091162,0.00098088902675367,1.8142854602363e-09,1.8141849197195e-09,1.5836361775018e-09,1.8893588935592e-09,-0.0013038794220425,0.0013038861958455,-0.0013038790177077,0.0013038857916573,-0.0013038783839873,0.0013038853483983,-0.0013038779812725,0.001303884945935,-0.001104622808152,0.0011046264999929,-0.0011046230007129,0.0011046266925905,1.583634372943e-09,1.8893682578834e-09,6.2647489137904e-09,-2.6362721571332e-09,-0.00098088406090749,0.00098088902675592,-0.0013038779283631,0.001303887676281,-0.0013038805113843,0.0013038843112226,-0.0013038768912062,0.0013038868297378,-0.0013038794740432,0.0013038834646059,-0.0011046184520003,0.0011046308531784,-0.0011046273568456,0.0011046223394081,-0.00099001419119598,0.00099001465302781,-0.00099001562311735,0.00099001669132688,3.7793739995421e-09,3.779283190081e-09,-0.0013107456690903,0.0013107541573014,-6.7044123771569e-10,8.2226044042562e-09,-0.0016800703712182,0.0016800763085541,-0.001680066269366,0.0016800781422635,-0.0016800692370853,0.001680075174546,-0.0016800652362578,0.0016800771094053,-0.0012519674086483,0.0012519778185158,-0.0012519659599061,0.0012519763697616,0.74447175247214,125301,3014,0.004080637068069,0.0040806370680653,0.0054459824539029,23.441669768551,0.00010273335814841,0.00010273335814841,0.00010273335814841,3165734.2780339,0.01370212853465
28919200,0.99993104322684,0.016696509086172,0.0051329135825844,0.005132913582581,0.0064306819210069,-0.00098172862449743,0.00098173355982666,1.8034737522031e-09,1.8033733188595e-09,1.5736774148528e-09,1.8783099948013e-09,-0.0013060794328904,0.0013060861777032,-0.0013060790311639,0.0013060857761231,-0.0013060783975415,0.0013060853327641,-0.0013060779973656,0.0013060849328403,-0.0011051101113992,0.0011051137795671,-0.0011051103054976,0.0011051139737027,1.57367477713e-09,1.878320029583e-09,6.2625296291091e-09,-2.6556761749458e-09,-0.00098172862449341,0.00098173355982898,-0.0013060779366545,0.0013060876610302,-0.001306080527398,0.0013060842927966,-0.0013060769021683,0.0013060868169612,-0.0013060794927279,0.0013060834486538,-0.0011051057470332,0.0011051181414904,-0.0011051146698439,0.001105109611783,-0.00099091366759896,0.0009909141012555,-0.00099091510075404,0.0009909161390892,3.7655330998427e-09,3.7654419742736e-09,-0.0013101875857831,0.0013101960405266,-6.921978045381e-10,8.2175018781936e-09,-0.0016809541491185,0.0016809600479493,-0.0016809500454071,0.0016809618906796,-0.0016809530185667,0.0016809589175217,-0.0016809490154169,0.0016809608609395,-0.0012517359395183,0.0012517463267564,-0.0012517344910374,0.0012517448782629,0.71381039832817,125301,3014,0.0040841481263839,0.0040841481263805,0.0054436898912648,23.983951261639,0.00010707161009311,0.00010707161009311,0.00010707161009311,3129794.7391418,0.013706948158307
29419200,0.99994095316583,0.016696655817955,0.0051329628536002,0.0051329628535968,0.0064307301107585,-0.00098251479581806,0.00098251915598755,1.5785843086271e-09,1.5784841947149e-09,1.3580361774564e-09,1.6588569591468e-09,-0.0013057778849776,0.0013057841325233,-0.0013057775086824,0.0013057837563753,-0.0013057768872523,0.0013057833257968,-0.0013057765121893,0.0013057829509859,-0.0011062761656016,0.0011062793542418,-0.0011062763596349,0.0011062795483123,1.3580339029149e-09,1.6588667478588e-09,6.0288985189973e-09,-2.8718234058363e-09,-0.00098251479581389,0.00098251915598989,-0.001305776393,0.0013057856130482,-0.001305779000658,0.0013057822758511,-0.0013057753959778,0.0013057848070321,-0.0013057780034526,0.0013057814697611,-0.0011062718103974,0.0011062837087733,-0.0011062807148188,0.0011062751937841,-0.00099201675620874,0.0009920167323346,-0.00099201817811044,0.00099201875475923,3.6579989968181e-09,3.6579080820072e-09,-0.0013107826174359,0.0013107907600732,-7.882882618347e-10,8.1017162387184e-09,-0.0016805338967112,0.0016805395520857,-0.0016805298491065,0.0016805414370342,-0.0016805328153217,0.0016805384708205,-0.0016805288669357,0.0016805404551134,-0.0012526118263844,0.0012526219705876,-0.0012526103670502,0.0012526205112417,0.6493552625033,125301,3014,0.0040874005524938,0.0040874005524902,0.0054461437340113,24.778855397069,0.00011343084317655,0.00011343084317655,0.00011343084317655,3138113.3379549,0.013715995078415
29919200,0.99994974631497,0.016696793914969,0.0051330091855027,0.0051330091854993,0.0064307755439665,-0.0009830511216691,0.00098305566670459,1.6458569377297e-09,1.6457570218997e-09,1.4212438649461e-09,1.7262081468496e-09,-0.0013035364452818,0.0013035428578266,-0.0013035360563372,0.0013035424690302,-0.0013035354340886,0.0013035420383284,-0.0013035350465488,0.0013035416510406,-0.0011074806469855,0.0011074839831383,-0.0011074808394963,0.0011074841756859,1.421241867654e-09,1.7262173615239e-09,6.0982828036579e-09,-2.8066625960288e-09,-0.00098305112166514,0.00098305566670683,-0.0013035349517773,0.0013035443389894,-0.0013035375498397,0.0013035409878683,-0.0013035339413734,0.0013035435202871,-0.0013035365392537,0.001303540169092,-0.0011074762891796,0.0011074883388757,-0.0011074851972832,0.0011074798199513,-0.00099277959644522,0.00099277971249189,-0.00099278101795338,0.00099278174090715,3.7280623950764e-09,3.7279719260166e-09,-0.0013124634760564,0.0013124717995575,-7.2223151779348e-10,8.1735144124511e-09,-0.001679367345428,0.0016793731645517,-0.0016793632783052,0.0016793750344215,-0.0016793662467401,0.0016793720659882,-0.0016793622799714,0.0016793740363376,-0.0012541768867204,0.0012541871805601,-0.0012541754256409,0.0012541857194696,0.68704430295307,125301,3014,0.0040896069021668,0.0040896069021634,0.0054530785528896,25.465439473946,0.00011892351579157,0.00011892351579157,0.00011892351579157,3185759.9488743,0.013727437917157
30419200,0.99995748971854,0.016696903521084,0.0051330459683845,0.0051330459683811,0.006430811584318,-0.00098484466610404,0.00098484930335493,1.6853356567114e-09,1.6852353805689e-09,1.4600477163386e-09,1.7637365373536e-09,-0.0013076898900182,0.0013076963807983,-0.0013076895002257,0.0013076959911529,-0.0013076888742513,0.0013076955559829,-0.0013076884858702,0.001307695167854,-0.0011083422392929,0.0011083456563809,-0.0011083424337665,0.0011083458508913,1.4600451561605e-09,1.7637467044786e-09,6.1372405087321e-09,-2.7666626034832e-09,-0.00098484466610008,0.00098484930335758,-0.0013076883967164,0.0013076978617962,-0.0013076909935257,0.0013076945101558,-0.0013076873817424,0.0013076970377813,-0.0013076899783685,0.0013076936860669,-0.0011083378821254,0.0011083500117159,-0.001108346790915,0.0011083414955596,-0.00099420375956103,0.00099420395526969,-0.00099420518609887,0.0009942059863559,3.7210273379926e-09,3.720936402947e-09,-0.0013128691905346,0.0013128775079443,-7.2858996287088e-10,8.166015419452e-09,-0.0016820255367091,0.0016820313392127,-0.001682021463481,0.001682033202098,-0.0016820244314763,0.0016820302341042,-0.001682020458285,0.001682032197152,-0.0012545743959355,0.0012545846778461,-0.0012545729393051,0.0012545832212032,0.6219290776384,125301,3014,0.004097059213354,0.0040970592133514,0.0054547891675154,26.130741590196,0.00012424593272157,0.00012424593272157,0.00012424593272157,3137583.1883456,0.013744340311665
30919200,0.99996437620259,0.016697010432764,0.0051330818367712,0.0051330818367678,0.0064308467592249,-0.00098605149710875,0.00098605536994934,1.3859975846958e-09,1.3858978392429e-09,1.1739857119541e-09,1.4722275231362e-09,-0.0013058836654298,0.0013058894895154,-0.0013058833091975,0.0013058891334317,-0.0013058827004311,0.0013058887161601,-0.0013058823452273,0.0013058883612083,-0.0011102871331692,0.0011102899127429,-0.0011102873267274,0.0011102901063382,1.1739822771821e-09,1.4722385933716e-09,5.8069573924561e-09,-3.0350553628674e-09,-0.00098605149710462,0.00098605536995176,-0.001305882184009,0.0013058909603579,-0.001305884790617,0.0013058876625894,-0.0013058812196104,0.0013058901876113,-0.0013058838260363,0.0013058868897686,-0.0011102828070372,0.0011102942390998,-0.001110291652839,0.0011102857799857,-0.00099566538901701,0.00099566499135064,-0.0009956667988726,0.00099566699952928,3.5845886379836e-09,3.5844979611066e-09,-0.0013153596987613,0.0013153676149201,-8.308935237732e-10,7.9991750121942e-09,-0.001681432703302,0.0016814382059393,-0.0016814287189075,0.0016814401137943,-0.0016814316649709,0.0016814371677325,-0.0016814277788613,0.0016814391739978,-0.0012569534082928,0.0012569633673381,-0.0012569519369434,0.0012569618959781,0.67884301204249,125301,3014,0.0041020440441181,0.0041020440441147,0.0054650755533976,27.120029795057,0.00013216023836046,0.00013216023836046,0.00013216023836046,3187779.1168557,0.013764808629364
31419200,0.99997053717532,0.016697106969642,0.0051331141904094,0.005133114190406,0.0064308785888265,-0.00098948620347813,0.00098948941051756,1.1329967170515e-09,1.132896565464e-09,9.3299506855285e-10,1.2228232713531e-09,-0.0013125105849406,0.0013125158245627,-0.0013125102653805,0.0013125155051499,-0.0013125096663289,0.0013125150969215,-0.0013125093475454,0.0013125147783901,-0.0011124693613187,0.0011124715947824,-0.0011124695546264,0.0011124717881277,9.3299021741683e-10,1.2228360607419e-09,5.4851962094456e-09,-3.2192960882554e-09,-0.00098948620347389,0.00098948941052011,-0.0013125091276351,0.0013125172725885,-0.0013125117226855,0.0013125140571234,-0.0013125082094972,0.0013125165454318,-0.0013125108043642,0.0013125133298925,-0.001112465103203,0.0011124758550627,-0.0011124738127204,0.0011124675278531,-0.00099860368031251,0.00099860280177665,-0.00099860507875714,0.00099860478706768,3.3965714501325e-09,3.3964801783326e-09,-0.0013169312188054,0.0013169386291406,-9.4765092332655e-10,7.7429981230753e-09,-0.0016860738752635,0.0016860789851667,-0.001686069997087,0.0016860809054418,-0.0016860728962516,0.0016860780062789,-0.0016860691138968,0.0016860800225018,-0.0012585181960635,0.0012585277062289,-0.0012585167243556,0.0012585262345091,0.68615601964896,125301,3014,0.0041163086240829,0.0041163086240795,0.0054716266341411,28.437380446758,0.00014269904357406,0.00014269904357406,0.00014269904357406,3120767.7897246,0.013800449687488
31919200,0.99997584363645,0.016697191394201,0.0051331425198617,0.0051331425198584,0.006430906354481,-0.00099082681699609,0.000990831071704,1.5374738830224e-09,1.5373737411993e-09,1.3191136203667e-09,1.6186986041629e-09,-0.0013142145723764,0.001314220727054,-0.0013142142018447,0.001314220356668,-0.0013142135830136,0.0013142199285436,-0.0013142132139471,0.0013142195597294,-0.0011137646931301,0.0011137677933098,-0.0011137648885873,0.0011137679888084,1.3191104064111e-09,1.6187073629119e-09,5.8900985985093e-09,-2.8152451486003e-09,-0.00099082681699278,0.00099083107170585,-0.0013142131118774,0.0013142221749738,-0.0013142156623448,0.0013142189087496,-0.0013142121233321,0.0013142213772903,-0.0013142146736178,0.001314218110991,-0.0011137604330837,0.0011137720512777,-0.0011137691486172,0.0011137637308436,-0.0010001147837975,0.0010001147401601,-0.0010001162040052,0.001000116759632,3.6231219532878e-09,3.6230307370156e-09,-0.0013174191905138,0.0013174272433645,-7.2789143026939e-10,7.968905176064e-09,-0.0016869987553974,0.0016870043980796,-0.0016869947821552,0.0016870062293089,-0.0016869976843317,0.0016870033271381,-0.0016869938097505,0.0016870052571542,-0.0012593260897378,0.0012593360955705,-0.0012593246292288,0.0012593346350524,0.69501902683777,125301,3014,0.0041218745033514,0.0041218745033485,0.0054736570414211,29.269481726302,0.00014935585381042,0.00014935585381042,0.00014935585381042,3101139.7608225,0.013813793827355
32419200,0.99998020063612,0.016697264209502,0.0051331669524642,0.0051331669524608,0.006430930304577,-0.00099052599485164,0.00099053201696386,2.2207111640924e-09,2.220611030122e-09,1.9716928473428e-09,2.2872541647494e-09,-0.0013144453605675,0.0013144530580337,-0.0013144449044802,0.0013144526020937,-0.0013144442524769,0.0013144521403196,-0.0013144437988156,0.0013144516869103,-0.0011133902311796,0.0011133947952013,-0.0011133904292442,0.0011133949933037,1.9716900672814e-09,2.2872644405899e-09,6.6333868714911e-09,-2.1920581662869e-09,-0.00099052599484756,0.00099053201696623,-0.0013144438758498,0.0013144545256145,-0.0013144463891961,0.0013144511345134,-0.0013144427690591,0.001314453609208,-0.0013144452822222,0.0013144502180328,-0.0011133859101784,0.0011133991080843,-0.0011133947502256,0.0011133906804246,-0.00099994176965188,0.00099994309716404,-0.00099994322572848,0.00099994517247943,4.0102135252001e-09,4.0101223375741e-09,-0.0013163576915395,0.0013163668362422,-4.0961128721517e-10,8.4143890551314e-09,-0.0016865272963823,0.0016865338060429,-0.0016865231250582,0.0016865355265622,-0.0016865260709188,0.0016865325807033,-0.0016865220030638,0.0016865344048179,-0.0012585324846427,0.0012585433753376,-0.0012585310446216,0.0012585419353044,0.72871757724898,125301,3014,0.004120632512737,0.0041206325127337,0.0054692685053616,29.299131555848,0.00014959305244679,0.00014959305244679,0.00014959305244679,3083979.5034734,0.013806833004366
32919200,0.99998375030754,0.01669731927684,0.0051331854535027,0.0051331854534993,0.0064309483698376,-0.00099009052706048,0.00099009691017375,2.362234787437e-09,2.3621345590283e-09,2.1076455331698e-09,2.4255306324982e-09,-0.001315501061521,0.0013155090681496,-0.0013155005898449,0.0013155085966203,-0.0013154999305113,0.0013155081273966,-0.0013154994612635,0.0013155076584008,-0.0011126080313155,0.0011126128978311,-0.0011126082320348,0.0011126130985883,2.1076426358074e-09,2.4255408907106e-09,6.8287208545181e-09,-2.1043451756143e-09,-0.00099009052705649,0.00099009691017605,-0.0013154995588566,0.0013155105536764,-0.0013155020925079,0.0013155071110938,-0.001315498429148,0.0013155096142324,-0.0013155009626158,0.0013155061715758,-0.001112603657716,0.0011126172633958,-0.0011126126056145,0.0011126087330271,-0.00099954424841405,0.00099954583277977,-0.00099954571384332,0.00099954791998995,4.0848989683758e-09,4.0848076652239e-09,-0.0013146306901106,0.0013146400481593,-3.8871108411379e-10,8.5429256799552e-09,-0.0016863908866063,0.0016863975305865,-0.0016863866501949,0.0016863992577129,-0.0016863896319027,0.0016863962760067,-0.001686385499411,0.0016863981071793,-0.0012570970378682,0.0012571081285162,-0.0012570956023252,0.0012571066929607,0.67786409660093,125301,3014,0.0041188348347919,0.0041188348347885,0.0054621336036902,29.174570887313,0.00014859656709851,0.00014859656709851,0.00014859656709851,3049554.5662049,0.013795984630155
33419200,0.99998668363374,0.016697367856053,0.0051332017729382,0.0051332017729348,0.0064309643101801,-0.00098944957323235,0.00098945534991556,2.123880344031e-09,2.1237805812846e-09,1.8777133629398e-09,2.1931632199867e-09,-0.0013129270749669,0.0013129345617103,-0.00131292662879,0.0013129341156813,-0.0013129259829462,0.0013129336609805,-0.0013129255387196,0.001312933217006,-0.0011126276959769,0.0011126320551327,-0.0011126278938679,0.0011126322530618,1.8777109641982e-09,2.1931729547077e-09,6.649874322189e-09,-2.4022070554994e-09,-0.00098944957322835,0.00098945534991785,-0.0013129255545545,0.001312936067199,-0.0013129281492006,0.0013129326101933,-0.0013129244635957,0.0013129351675384,-0.0013129270580593,0.0013129317104586,-0.0011126232649725,0.0011126364807718,-0.0011126323248529,0.001112627827426,-0.00099928901637403,0.00099929006877731,-0.00099929046616483,0.000999292138657,3.9875511195799e-09,3.9874599700115e-09,-0.0013145088051206,0.0013145178673377,-5.4138913093367e-10,8.505708600382e-09,-0.0016843394027268,0.0016843457814588,-0.0016843351786783,0.0016843475966791,-0.0016843381982516,0.0016843445771073,-0.0016843340772034,0.0016843464954541,-0.0012572005378647,0.0012572114496104,-0.0012571990923442,0.0012572100040786,0.72119043746697,125301,3014,0.0041161616029462,0.0041161616029429,0.005461603746687,29.316149323503,0.00014972919458802,0.00014972919458802,0.00014972919458802,3078779.2526291,0.013789975053344
33919200,0.99998917612765,0.016697408672311,0.005133215480875,0.0051332154808716,0.006430977710564,-0.00099130440663067,0.00099130886578793,1.6178402810017e-09,1.6177399982123e-09,1.3959719264276e-09,1.6968717090282e-09,-0.0013168420396779,0.0013168483733989,-0.0013168416604544,0.0013168479943224,-0.0013168410377234,0.0013168475622163,-0.0013168406596312,0.0013168471843759,-0.0011137190318198,0.0011137223037935,-0.0011137192315158,0.0011137225035273,1.3959688603388e-09,1.6968822592022e-09,6.1119001680657e-09,-2.8763134250905e-09,-0.00099130440662661,0.00099130886579029,-0.0013168405335306,0.0013168498685516,-0.0013168431666002,0.00131684649917,-0.0013168395322285,0.0013168490580294,-0.0013168421651147,0.0013168456885738,-0.0011137146340628,0.0011137267015797,-0.0011137236292527,0.001113718105745,-0.0010008952145235,0.0010008952425015,-0.0010008966430181,0.0010008972717661,3.6786503844618e-09,3.6785591778363e-09,-0.0013149194724291,0.0013149276747255,-8.1063752125664e-10,8.1662913705513e-09,-0.0016868248169285,0.0016868304923102,-0.0016868207344679,0.0016868324000202,-0.001686823729492,0.0016868294049977,-0.0016868197456707,0.0016868314114734,-0.0012576705591459,0.001257680778602,-0.0012576690991149,0.0012576793185583,0.7142672015197,125301,3014,0.0041238648573864,0.004123864857383,0.0054633336680515,30.07001086704,0.00015576008693632,0.00015576008693632,0.00015576008693632,3034280.6022453,0.013807399628592
34419200,0.99999134132255,0.01669744342156,0.0051332271646042,0.0051332271646008,0.0064309890923548,-0.00099375066413663,0.00099375364979479,1.0472629654235e-09,1.0471628181594e-09,8.5078471031698e-10,1.1384683346327e-09,-0.0013190282781451,0.0013190333288786,-0.001319027969388,0.0013190330202689,-0.0013190273747587,0.0013190326166721,-0.0013190270663658,0.001319032308531,-0.0011162531336512,0.0011162551841271,-0.0011162533327496,0.0011162553832637,8.5078179555562e-10,1.1384790479102e-09,5.4832882995232e-09,-3.3888556403617e-09,-0.0009937506641324,0.00099375364979729,-0.0013190267946613,0.0013190348049757,-0.0013190294528701,0.0013190315441726,-0.0013190258915437,0.0013190340930456,-0.0013190285495693,0.0013190308321688,-0.0011162487943824,0.0011162595281363,-0.0011162576719975,0.0011162510392583,-0.0010035540695486,0.0010035529582265,-0.0010035554703682,0.0010035549432785,3.3624279813097e-09,3.362336835153e-09,-0.0013166774733187,0.0013166847818075,-1.0619010685924e-09,7.7933306946557e-09,-0.0016884084365748,0.0016884134123186,-0.0016884045239924,0.0016884154067958,-0.001688407477461,0.0016884124533286,-0.0016884036594149,0.0016884145424688,-0.0012597372304859,0.0012597467207026,-0.0012597357506881,0.0012597452408922,0.69956540050858,125301,3014,0.0041340087883737,0.0041340087883703,0.005470617783695,31.479832289036,0.00016703865831229,0.00016703865831229,0.00016703865831229,3024339.4819952,0.013835338852109
34919200,0.99999324713696,0.016697474796695,0.0051332377134182,0.0051332377134149,0.0064309993698623,-0.00099775779707056,0.00099775922157624,4.4347406878926e-10,4.4337400369912e-10,2.7482109046315e-10,5.4770564226271e-10,-0.0013224590938191,0.0013224627826983,-0.0013224588603583,0.0013224625493848,-0.0013224582955244,0.0013224621757676,-0.001322458061667,0.001322461942162,-0.0011202784295198,0.0011202791866831,-0.0011202786286078,0.0011202793858088,2.7481752584564e-10,5.4771552964448e-10,4.7901074230518e-09,-3.9032532561957e-09,-0.00099775779706655,0.0009977592215783,-0.0013224576433969,0.0013224642293125,-0.0013224603107796,0.0013224611027706,-0.0013224568449896,0.0013224636222777,-0.0013224595121894,0.0013224604956625,-0.0011202741794739,0.0011202834461532,-0.0011202828786331,0.001120275126341,-0.001007670142856,0.0010076678457005,-0.0010076715151632,0.0010076697833356,3.0238085162549e-09,3.0237174603895e-09,-0.0013202063047895,0.0013202126574661,-1.3042689022156e-09,7.3666195015074e-09,-0.0016913794798705,0.001691383722685,-0.001691375766886,0.0016913857919477,-0.0016913786579493,0.0016913829008868,-0.0016913750350045,0.0016913850603174,-0.001263431672576,0.0012634403640182,-0.0012634301710142,0.0012634388624442,0.71680104860471,125301,3014,0.0041506260300598,0.0041506260300559,0.0054852371543911,33.573431367139,0.00018378745093711,0.00018378745093711,0.00018378745093711,3019935.5372226,0.013883840065416
35419200,0.99999489485983,0.016697500303105,0.0051332462970884,0.005133246297085,0.0064310077089316,-0.0010027041725917,0.0010027049880549,2.0856455908412e-10,2.0846439867336e-10,4.9892892100512e-11,3.1738450426832e-10,-0.0013281438542224,0.0013281470140015,-0.0013281436508163,0.0013281468107425,-0.0013281430965736,0.0013281464478781,-0.0013281428927456,0.0013281462443017,-0.0011247860389987,0.0011247862918884,-0.0011247862363494,0.0011247864892769,4.9889850559676e-11,3.1739514650754e-10,4.4509030342125e-09,-4.0338676759583e-09,-0.0010027041725878,0.0010027049880573,-0.001328142438697,0.0013281484258661,-0.0013281450663405,0.0013281453988784,-0.0013281416809239,0.0013281478596264,-0.0013281443083843,0.0013281448325645,-0.0011247818911185,0.0011247904494831,-0.0011247903842096,0.0011247823316867,-0.0010125275465159,0.0010125248311207,-0.0010125289052079,0.0010125267485635,2.8733427641156e-09,2.8732515884304e-09,-0.0013239944822795,0.0013240004215535,-1.3503026972971e-09,7.1120962568707e-09,-0.0016959524249912,0.0016959563899581,-0.0016959488338869,0.0016959584420615,-0.0016959516554296,0.0016959556205203,-0.0016959481526797,0.001695957761105,-0.0012673367334833,0.0012673450305976,-0.0012673352277932,0.0012673435248948,0.67521871740958,125301,3014,0.0041711491710538,0.0041711491710506,0.005500950439278,35.929489433346,0.00020263591546676,0.00020263591546676,0.00020263591546676,2990647.0898141,0.013941407013774
35919200,0.99999622758672,0.01669752181374,0.0051332535362525,0.0051332535362492,0.0064310147412382,-0.0010054562112977,0.0010054586320057,8.2654250987016e-10,8.2644290120725e-10,6.4084238358743e-10,9.2330534662603e-10,-0.0013292225956768,0.0013292271475702,-0.0013292223130685,0.0013292268651101,-0.0013292217306243,0.0013292264738849,-0.00132922144879,0.0013292261923026,-0.0011278850082693,0.0011278865881735,-0.0011278852066447,0.0011278867865873,6.4084139462382e-10,9.233133631054e-10,5.0155975719251e-09,-3.3626060458156e-09,-0.0010054562112938,0.0010054586320078,-0.0013292211925709,0.0013292285412828,-0.0013292237161719,0.0013292254713991,-0.001329220327993,0.0013292278680773,-0.0013292228514117,0.0013292247981194,-0.0011278809098076,0.0011278906886494,-0.0011278893050882,0.0011278826861134,-0.001015473876845,0.0010154724780205,-0.001015475265172,0.0010154744439077,3.2280089665419e-09,3.2279177151531e-09,-0.0013270625931059,0.0013270695367374,-9.5367473597968e-10,7.4115803313966e-09,-0.001697278800657,0.0016972836301703,-0.0016972751017814,0.0016972855131487,-0.0016972778926474,0.0016972827222843,-0.0016972742865611,0.0016972846981785,-0.0012705012707479,0.0012705103080173,-0.0012704997816568,0.001270508818915,0.70236607711558,125301,3014,0.0041825585559828,0.0041825585559794,0.0055136478410654,37.536382539125,0.000215491060313,0.000215491060313,0.000215491060313,3010574.3246927,0.013977377877587
36419200,0.99999721044997,0.016697537444467,0.0051332587961253,0.005133258796122,0.0064310198522196,-0.0010054585316608,0.0010054647022665,2.2759926724273e-09,2.2758927707146e-09,2.0237407250806e-09,2.341816098361e-09,-0.0013307193352718,0.0013307271592108,-0.0013307188715855,0.001330726695672,-0.0013307182175347,0.0013307262325469,-0.0013307177568247,0.0013307257720888,-0.0011273652456003,0.0011273699300028,-0.0011273654466123,0.0011273701310534,2.0237389534584e-09,2.3418250496537e-09,6.5463754800881e-09,-1.9944838941262e-09,-0.0010054585316569,0.0010054647022688,-0.0013307178954549,0.0013307285792148,-0.0013307203114004,0.001330725275669,-0.0013307167792934,0.0013307276541329,-0.0013307191950559,0.0013307243505129,-0.0011273610626538,0.0011273741013997,-0.0011273696295405,0.0011273659596597,-0.0010153009790116,0.0010153025155542,-0.0010153024381363,0.001015304598071,4.0281506827029e-09,4.0280592391435e-09,-0.0013261249586259,0.0013261341728966,-2.5508651731141e-10,8.289570966356e-09,-0.0016978317877347,0.0016978384418069,-0.0016978276967765,0.0016978400581454,-0.0016978305503639,0.0016978372045596,-0.0016978265627246,0.0016978389243439,-0.0012695854178978,0.0012695962594269,-0.0012695839779125,0.0012695948194297,0.69281235107431,125301,3014,0.0041825824197533,0.0041825824197502,0.0055097872485678,37.488410030454,0.00021510728024363,0.00021510728024363,0.00021510728024363,2981185.9955052,0.013973548566881
36919200,0.9999979185107,0.0166975482721,0.005133262443458,0.0051332624434547,0.0064310233851875,-0.001003673884202,0.0010036813759662,2.7860236595367e-09,2.7859238407037e-09,2.5099729335204e-09,2.8410946408619e-09,-0.00132877594449,0.0013287849259351,-0.0013287754155127,0.0013287843971055,-0.0013287747375585,0.0013287839099597,-0.0013287742120973,0.0013287833847503,-0.0011257121835688,0.0011257179618448,-0.0011257123860041,0.0011257181643184,2.5099706434379e-09,2.8411041347189e-09,7.1721755211811e-09,-1.6002217313698e-09,-0.001003673884198,0.0010036813759685,-0.0013287744637576,0.0013287863842855,-0.0013287768962433,0.0013287829387559,-0.001328773258671,0.0013287853701619,-0.0013287756909741,0.0013287819245582,-0.0011257078859467,0.0011257222443615,-0.001125716683607,0.001125713881805,-0.0010136629545418,0.0010136654670384,-0.0010136644393356,0.0010136675920295,4.3321544954774e-09,4.3320631458563e-09,-0.0013242201385462,0.001324230199889,-7.1790461762437e-11,8.7082566154145e-09,-0.001695755657277,0.0016957629465767,-0.0016957513708102,0.0016957645256906,-0.0016957543035396,0.0016957615929629,-0.0016957501242965,0.0016957632794271,-0.0012678432478465,0.0012678548272593,-0.0012678418227071,0.0012678534021081,0.66632588296094,125301,3014,0.004175178624488,0.0041751786244847,0.0055018926018905,36.861628904189,0.00021009303123352,0.00021009303123352,0.00021009303123352,2982664.2341508,0.013950521452298
37419200,0.99999846499312,0.016697556721144,0.0051332652888695,0.0051332652888661,0.0064310261434084,-0.0010049548921915,0.0010049591527719,1.5361383119996e-09,1.5360386141924e-09,1.3162658287766e-09,1.6171466147222e-09,-0.0013290670961729,0.0013290732658185,-0.0013290667225015,0.0013290728922981,-0.001329066105979,0.0013290724671131,-0.0013290657336504,0.0013290720950361,-0.0011271730595333,0.0011271761560037,-0.0011271732692828,0.0011271763657951,1.3162642502444e-09,1.6171546270785e-09,5.929973164303e-09,-2.8577909470366e-09,-0.0010049548921874,0.0010049591527731,-0.001329065622286,0.0013290747275857,-0.0013290681963856,0.001329071430532,-0.0013290646328519,0.0013290739296409,-0.0013290672067664,0.0013290706325136,-0.0011271687589772,0.0011271804541098,-0.001127177569827,0.0011271720676853,-0.0010150530585795,0.0010150529784169,-0.0010150544967054,0.0010150550182453,3.6506960000373e-09,3.6506047120613e-09,-0.0013256854503296,0.0013256935728296,-7.4119833569374e-10,8.0377060973019e-09,-0.0016961547155556,0.0016961604048173,-0.0016961507149963,0.0016961622634815,-0.0016961536445468,0.0016961593339336,-0.0016961497420603,0.0016961612907923,-0.0012693662680244,0.001269376355721,-0.001269364790086,0.0012693748777766,0.6733413985559,125301,3014,0.0041804789824707,0.0041804789824648,0.0055079495862485,37.674000995157,0.00021659200796126,0.00021659200796126,0.00021659200796126,2994723.0182604,0.013967388838576
37919200,0.99999886804194,0.016697562744801,0.0051332673179058,0.0051332673179025,0.0064310281089932,-0.0010048859634689,0.0010048920318487,2.235184643114e-09,2.2350848788676e-09,1.9842790753128e-09,2.3017691670025e-09,-0.0013296095684396,0.0013296173113209,-0.0013296091083311,0.0013296168513605,-0.0013296084574842,0.0013296163912365,-0.0013296079997389,0.001329615933743,-0.0011268516610755,0.0011268562589536,-0.0011268518634083,0.0011268564613249,1.9842771076432e-09,2.3017783356985e-09,6.6890389828651e-09,-2.2187632313151e-09,-0.0010048859634649,0.0010048920318509,-0.0013296080701866,0.0013296187926412,-0.0013296106065821,0.001329615370041,-0.0013296069604999,0.001329617873832,-0.0013296094967129,0.0013296144511575,-0.0011268472997548,0.0011268606123119,-0.0011268562247101,0.0011268521079695,-0.0010149066345685,0.001014907965547,-0.0010149080940268,0.0010149100477303,4.0401795407001e-09,4.0400881987258e-09,-0.0013251610162576,0.0013251702393023,-4.207169134165e-10,8.4856150721667e-09,-0.0016962051983901,0.0016962117563492,-0.0016962009956929,0.0016962135002859,-0.001696203968949,0.0016962105270314,-0.0016961998694743,0.0016962123743176,-0.0012688597171666,0.0012688706994611,-0.0012688582724679,0.0012688692547507,0.65161957153678,125301,3014,0.0041801981929121,0.0041801981929087,0.0055057867946563,37.676477904003,0.00021661182323202,0.00021661182323202,0.00021661182323202,2981567.1810044,0.013964641955586
38419200,0.9999991594286,0.016697567384384,0.0051332688796907,0.0051332688796873,0.0064310296250065,-0.0010034725627884,0.001003479721252,2.654943869699e-09,2.6548442103906e-09,2.38311860898e-09,2.7134014845648e-09,-0.0013275096004776,0.0013275183040234,-0.0013275090853305,0.001327517789026,-0.0013275084144208,0.0013275173096448,-0.0013275079022129,0.0013275167976899,-0.0011256328880838,0.0011256383861169,-0.0011256330909529,0.0011256385890214,2.3831157918826e-09,2.7134103663082e-09,7.1794149451927e-09,-1.8696230306716e-09,-0.001003472562785,0.0010034797212533,-0.0013275080762063,0.0013275198086156,-0.0013275106096021,0.0013275162844311,-0.0013275068917039,0.0013275188158006,-0.0013275094249179,0.0013275152915426,-0.0011256284562536,0.0011256428063406,-0.001125637522764,0.0011256341687974,-0.0010135921672442,0.0010135943152447,-0.0010135936457124,0.0010135964342402,4.2923405142966e-09,4.2922492647901e-09,-0.001324077272646,0.0013240871968273,-2.4460379590429e-10,8.8074951946558e-09,-0.001694346908462,0.0016943540147498,-0.0016943425582551,0.001694355709849,-0.0016943455808454,0.0016943526872577,-0.0016943413374417,0.0016943544892836,-0.0012678082032834,0.0012678197799184,-0.0012678067702742,0.0012678183468967,0.69258614280678,125301,3014,0.0041743307672716,0.0041743307672675,0.0055012872918152,37.197975004484,0.00021278380003587,0.00021278380003587,0.00021278380003587,2994966.3312968,0.013948165106736
38880000,0.99999936291291,0.016697570669376,0.0051332699851062,0.0051332699851028,0.0064310306991674,-0.0010037278799019,0.0010037340079711,2.2612263772334e-09,2.2611265114901e-09,2.0100730698534e-09,2.3271354420802e-09,-0.0013297524181762,0.0013297602127455,-0.0013297519573648,0.0013297597520818,-0.0013297513045398,0.0013297592899009,-0.0013297508456536,0.0013297588312666,-0.0011252333784505,0.0011252380299692,-0.001125233584955,0.0011252382365126,2.01007147029e-09,2.3271441752454e-09,6.8445609200754e-09,-2.3222018676886e-09,-0.001003727879898,0.0010037340079733,-0.001329750878707,0.0013297617373782,-0.0013297534968317,0.0013297582274502,-0.0013297497661208,0.0013297608155897,-0.0013297523840626,0.0013297573055875,-0.0011252288914719,0.0011252425118502,-0.001125238071915,0.0011252337546341,-0.0010136200461296,0.0010136213440941,-0.0010136215114762,0.0010136234314798,4.0584929707668e-09,4.0584013047436e-09,-0.0013231579408333,0.0013231672071438,-5.2768764426939e-10,8.6340632330596e-09,-0.0016954453036027,0.0016954518124049,-0.0016954410131061,0.0016954536375003,-0.0016954440708413,0.0016954505797668,-0.0016954398832175,0.001695452507862,-0.0012669058419661,0.0012669169477902,-0.0012669043959416,0.0012669155017538,0.70236790231266,125301,3014,0.00417539738854,0.0041753973885367,0.0054975029756685,37.193674450908,0.00021274939560726,0.00021274939560726,0.00021274939560726,2955834.6106964,0.01394653909969
