time,ASR_ext,ASR_strain,ASR_strain_xx,ASR_strain_yy,ASR_strain_zz,disp_x_101,disp_x_102,disp_x_103,disp_x_104,disp_x_105,disp_x_106,disp_x_p1_neg,disp_x_p1_pos,disp_x_p2_neg,disp_x_p2_pos,disp_x_p3_neg,disp_x_p3_pos,disp_x_p4_neg,disp_x_p4_pos,disp_x_p5_neg,disp_x_p5_pos,disp_x_p6_neg,disp_x_p6_pos,disp_y_101,disp_y_102,disp_y_103,disp_y_104,disp_y_105,disp_y_106,disp_y_p1_neg,disp_y_p1_pos,disp_y_p2_neg,disp_y_p2_pos,disp_y_p3_neg,disp_y_p3_pos,disp_y_p4_neg,disp_y_p4_pos,disp_y_p5_neg,disp_y_p5_pos,disp_y_p6_neg,disp_y_p6_pos,disp_y_p7_neg,disp_y_p7_pos,disp_y_p8_neg,disp_y_p8_pos,disp_z_101,disp_z_102,disp_z_103,disp_z_104,disp_z_105,disp_z_106,disp_z_p1_neg,disp_z_p1_pos,disp_z_p2_neg,disp_z_p2_pos,disp_z_p3_neg,disp_z_p3_pos,disp_z_p4_neg,disp_z_p4_pos,disp_z_p5_neg,disp_z_p5_pos,disp_z_p6_neg,disp_z_p6_pos,humidity,ndof,nelem,strain_xx,strain_yy,strain_zz,temp,thermal_strain_xx,thermal_strain_yy,thermal_strain_zz,vonmises,vstrain
2419200,0,0,0,0,0,0,0,0,0,0,0,0,0,0,0,0,0,0,0,0,0,0,0,0,0,0,0,0,0,0,0,0,0,0,0,0,0,0,0,0,0,0,0,0,0,0,0,0,0,0,0,0,0,0,0,0,0,0,0,0,0,0,0,0,0,0,0,0,0,0,0,0,0,0,0
3419200,0.15985851961041,0.0026637872422433,0.00088792908074776,0.00088792908074776,0.00088792908074776,-0.00023499831493576,0.00023499830698632,-2.6809120705647e-12,-2.6809639292746e-12,-2.575959486353e-12,-2.6345273442039e-12,-0.00024343784908313,0.00024343784291717,-0.00024343784951896,0.000243437843353,-0.00024343785001114,0.00024343784384753,-0.00024343785044334,0.00024343784427976,-0.000241121525736,0.00024112151973615,-0.00024112152592423,0.00024112151992429,-2.5767392679942e-12,-2.6334557262058e-12,-2.9027878029833e-12,-2.4588390604241e-12,-0.00023499831493563,0.00023499830698645,-0.00024343784917035,0.00024343784284584,-0.00024343784943211,0.00024343784342396,-0.00024343785009594,0.00024343784377505,-0.0002434378503577,0.00024343784435314,-0.00024112152596217,0.00024112151953246,-0.00024112152569721,0.00024112152012888,-0.00023630871193681,0.00023630870624994,-0.00023630871214032,0.00023630870638613,-1.2013769899341e-12,-1.2013251606351e-12,-0.00025419469386548,0.00025419469020004,-9.547388775003e-13,-1.4179121506689e-12,-0.0002613679224371,0.00026136791982511,-0.00026136792364327,0.00026136792071626,-0.00026136792348575,0.00026136792087377,-0.00026136792466993,0.00026136792174291,-0.00025146697018676,0.00025146696734071,-0.00025146696981278,0.00025146696696656,0.75746877217741,125301,3014,0.00097868255117594,0.00097868255117593,0.0010585789479123,31.882660336265,0.00017026128269012,0.00017026128269012,0.00017026128269012,2161631.7971031,0.0030205003689413
4419200,0.35007606634306,0.0056110279679764,0.0018004627232855,0.0018004627232855,0.0020101025214054,-0.00043570304241522,0.00043570302855501,-5.2673783646184e-12,-5.2673885260727e-12,-4.8392850528693e-12,-5.027745589647e-12,-0.00046712791675463,0.00046712790448776,-0.00046712791850551,0.00046712790623865,-0.00046712791941483,0.00046712790708798,-0.00046712792115202,0.00046712790882524,-0.00046602464459658,0.00046602463336067,-0.00046602464570351,0.00046602463446762,-4.8399289590659e-12,-5.0266267322832e-12,-6.1661231333069e-12,-4.3682463438011e-12,-0.00043570304241501,0.00043570302855521,-0.00046712791709313,0.0004671279041998,-0.00046712791816716,0.00046712790652639,-0.00046712791974591,0.00046712790679382,-0.00046712792081996,0.00046712790912037,-0.00046602464551958,0.00046602463253202,-0.00046602464477959,0.00046602463529738,-0.00043970247225559,0.00043970246228114,-0.00043970247274101,0.00043970246249137,-3.4909498538783e-12,-3.4909332808551e-12,-0.00052153542880458,0.00052153541967318,-2.4857129161179e-12,-4.369380606657e-12,-0.00055716858409052,0.0005571685770168,-0.0005571685884733,0.00055716858011823,-0.00055716858783262,0.00055716858075889,-0.00055716859213478,0.00055716858377964,-0.00050684036815321,0.00050684036021017,-0.00050684036637395,0.00050684035843081,0.73992840791513,125301,3014,0.0018138353631814,0.0018138353631814,0.0021706489532416,33.60744993243,0.00018405959945944,0.00018405959945944,0.00018405959945944,3739744.4136627,0.0058151977287826
5419200,0.54950536390508,0.0085157118800802,0.0026614369075023,0.0026614369075023,0.0031928380650756,-0.00062131652143933,0.00062131652088961,6.5611998539659e-13,6.5607895723821e-13,4.5663096200226e-13,3.3776562266855e-13,-0.0006912883539525,0.00069128835404341,-0.00069128835476291,0.00069128835485378,-0.00069128835498924,0.00069128835496347,-0.00069128835579144,0.00069128835576568,-0.00068481093290611,0.00068481093409508,-0.00068481093300086,0.00068481093418977,4.5839874152263e-13,3.3525258179317e-13,1.8218810385569e-13,1.1293168300518e-12,-0.00062131652143969,0.00062131652088927,-0.00069128835412327,0.00069128835389342,-0.00069128835459142,0.00069128835500452,-0.00069128835515727,0.00069128835480798,-0.00069128835562541,0.00069128835591908,-0.00068481093341453,0.00068481093367578,-0.00068481093249453,0.000684810934607,-0.00062760995938334,0.00062760995977272,-0.00062760995903035,0.00062760995918491,-1.498483487064e-12,-1.4984314298307e-12,-0.00079806132452484,0.00079806132036963,-9.1075883870735e-13,-1.9570775214486e-12,-0.00088220427296787,0.0008822042699081,-0.00088220427388632,0.00088220427009754,-0.00088220427352181,0.00088220427046205,-0.00088220427439196,0.00088220427060319,-0.00076833093680122,0.00076833093324137,-0.00076833093793515,0.00076833093437516,0.72499638738019,125301,3014,0.0025856944310926,0.0025856944310927,0.0033195231897408,36.279054089227,0.00020543243271382,0.00020543243271382,0.00020543243271382,4447073.2217984,0.0085272020336864
6419200,0.70574403337459,0.010333367309933,0.0031938138427958,0.0031938138427959,0.0039457396243413,-0.00072215757468154,0.00072215757394188,6.3670407853922e-15,6.3891283459265e-15,6.2965899964389e-14,2.0097488976684e-14,-0.00083283032417877,0.00083283032390688,-0.00083283032473858,0.00083283032446671,-0.00083283032470955,0.00083283032439086,-0.00083283032526944,0.0008328303249508,-0.00080407072192082,0.00080407072219968,-0.00080407072203691,0.00080407072231585,6.4212175569145e-14,1.803141790256e-14,-1.8355600737968e-13,1.955782503738e-13,-0.00072215757468192,0.00072215757394153,-0.00083283032424152,0.00083283032384282,-0.00083283032467548,0.00083283032453119,-0.00083283032477336,0.00083283032432578,-0.00083283032520733,0.00083283032501413,-0.00080407072213443,0.00080407072203742,-0.00080407072182514,0.00080407072247632,-0.00072597051101966,0.00072597051101863,-0.00072597051075349,0.00072597051067399,-8.4327979720458e-13,-8.4329173801626e-13,-0.00096190538054394,0.00096190537816293,-5.8338132515979e-13,-1.0253218830026e-12,-0.0010958956804219,0.0010958956789043,-0.0010958956809456,0.0010958956791106,-0.0010958956807869,0.0010958956792693,-0.0010958956813016,0.0010958956794665,-0.0009175803984119,0.00091758039651622,-0.00091758039856081,0.00091758039666511,0.59839168540088,125301,3014,0.0030049162967685,0.0030049162967686,0.003999561422727,36.740630765573,0.00020912504612459,0.00020912504612459,0.00020912504612459,4556686.0114467,0.010059932056815
7419200,0.83146819486048,0.011606005472034,0.0035759522191455,0.0035759522191456,0.0044541010337426,-0.00079225277957823,0.00079225277803362,-1.7391448114963e-13,-1.7392753957423e-13,-1.8823333783603e-13,-2.1434809887154e-13,-0.0009358913991416,0.00093589139845204,-0.00093589139966666,0.00093589139897708,-0.00093589139975021,0.00093589139903621,-0.00093589140027574,0.00093589139956176,-0.0008858896419946,0.00088588964179235,-0.00088588964204132,0.00088588964183906,-1.862915150055e-13,-2.1728218938415e-13,-1.8890558889849e-13,-1.5980476343837e-13,-0.00079225277957868,0.0007922527780332,-0.0009358913991468,0.00093589139844544,-0.00093589139966071,0.00093589139898449,-0.00093589139975716,0.00093589139902828,-0.00093589140027109,0.0009358913995673,-0.0008858896420339,0.00088588964179822,-0.00088588964200446,0.00088588964183072,-0.00079456091734269,0.00079456091662605,-0.00079456091728465,0.00079456091652234,-7.9349881797932e-13,-7.9347425990602e-13,-0.001068795961409,0.0010687959589716,-7.152831044745e-13,-8.0078069846405e-13,-0.0012428376992663,0.0012428376977379,-0.0012428376996508,0.0012428376980445,-0.0012428376996119,0.0012428376980835,-0.001242837699992,0.0012428376983857,-0.0010154660195915,0.0010154660178684,-0.0010154660197619,0.0010154660180387,0.52694121020036,125301,3014,0.0032962695098979,0.003296269509898,0.0044429433979363,40.779745467219,0.00024143796373775,0.00024143796373775,0.00024143796373775,4460637.5639654,0.011097015329576
8419200,0.90740776825798,0.012294670252405,0.0037876112824443,0.0037876112824443,0.0047194476875165,-0.00081856366474778,0.00081856366550079,5.8247388229331e-13,5.8247370582811e-13,5.1378815706566e-13,5.0941921700437e-13,-0.00098585287813942,0.00098585287927291,-0.00098585287849282,0.00098585287962629,-0.00098585287850681,0.00098585287962261,-0.00098585287886167,0.00098585287997752,-0.00091756267531332,0.00091756267685006,-0.00091756267535343,0.0009175626768902,5.1525752214712e-13,5.0712274304242e-13,8.1130210360484e-13,3.5293154421185e-13,-0.00081856366474814,0.00081856366550045,-0.00098585287806,0.00098585287934671,-0.0009858528785717,0.00098585287955311,-0.00098585287842928,0.00098585287969595,-0.00098585287894099,0.00098585287990233,-0.00091756267511062,0.00091756267709032,-0.00091756267555809,0.00091756267664803,-0.00082150233131433,0.00082150233209374,-0.00082150233139622,0.00082150233216421,-2.3218873032308e-13,-2.3217808358951e-13,-0.0011093656623886,0.0011093656615996,-4.0727023464448e-13,2.4744244080328e-15,-0.0013089370417183,0.0013089370413662,-0.0013089370416203,0.0013089370415232,-0.0013089370417478,0.0013089370413957,-0.0013089370416522,0.001308937041555,-0.001054666810744,0.0010546668104485,-0.0010546668109277,0.0010546668106321,0.47156008474719,125301,3014,0.0034056853950568,0.0034056853950568,0.0046111458959862,41.436352883281,0.00024669082306625,0.00024669082306625,0.00024669082306625,4178981.9948454,0.011488551564957
9419200,0.94946657112179,0.012625644444218,0.0038915103519048,0.0038915103519048,0.0048426237404085,-0.00082454249729351,0.00082454249899621,9.0068136715543e-13,9.0067486735399e-13,8.0278151969327e-13,8.0815088507461e-13,-0.0010068190643972,0.0010068190663184,-0.0010068190646514,0.0010068190665725,-0.0010068190646564,0.0010068190665632,-0.0010068190649123,0.001006819066819,-0.00092514377302756,0.00092514377529336,-0.00092514377307492,0.00092514377534074,8.0394306881065e-13,8.0626553642072e-13,1.3369218142063e-12,4.6380952478505e-13,-0.00082454249729383,0.00082454249899592,-0.0010068190642481,0.0010068190664611,-0.0010068190648001,0.0010068190664303,-0.0010068190645091,0.0010068190667058,-0.0010068190650611,0.0010068190666749,-0.00092514377262107,0.00092514377573575,-0.00092514377348303,0.00092514377489677,-0.0008284671553179,0.00082846715664499,-0.00082846715548106,0.00082846715681331,6.9740045960056e-14,6.975683956467e-14,-0.0011176993849407,0.001117699385011,-3.1518870943658e-13,5.112155738916e-13,-0.0013323277499397,0.0013323277501759,-0.0013323277495432,0.001332327750313,-0.00133232774981,0.0013323277500462,-0.0013323277494184,0.0013323277501882,-0.0010642750497879,0.0010642750503038,-0.0010642750499776,0.0010642750504934,0.40621133923259,125301,3014,0.0034306050522511,0.0034306050522512,0.0046456789760388,41.144138655946,0.00024435310924757,0.00024435310924757,0.00024435310924757,3905503.4526409,0.011573992573879
10419200,0.97050368415837,0.012805949113971,0.0039490753462066,0.0039490753462066,0.0049077984215577,-0.00082161393080272,0.00082161393471051,1.6381741607862e-12,1.6381683080239e-12,1.4953120251264e-12,1.5193889219467e-12,-0.001011479823739,0.001011479827456,-0.001011479823803,0.0010114798275199,-0.0010114798237408,0.0010114798274451,-0.0010114798238072,0.0010114798275115,-0.00092339916900364,0.00092339917295359,-0.00092339916907108,0.00092339917302105,1.4962012222842e-12,1.5178552463729e-12,2.3587521706006e-12,9.1704134393187e-13,-0.000821613930803,0.00082161393471025,-0.001011479823492,0.001011479827693,-0.0010114798240497,0.0010114798272832,-0.0010114798234957,0.0010114798276826,-0.0010114798240534,0.0010114798272728,-0.00092339916831678,0.00092339917367131,-0.00092339916975929,0.00092339917230205,-0.0008267840391295,0.00082678404188105,-0.00082678403939034,0.00082678404217439,6.416737208377e-13,6.4168733806877e-13,-0.0011148346214144,0.0011148346231626,-3.4512916242335e-14,1.3659210220504e-12,-0.0013368205044834,0.00133682050591,-0.0013368205035691,0.001336820505914,-0.0013368205040283,0.0013368205054549,-0.0013368205031245,0.0013368205054695,-0.0010630871139184,0.0010630871159146,-0.0010630871141235,0.0010630871161195,0.43665130715676,125301,3014,0.003418490386222,0.003418490386222,0.0046337830575707,38.08634296075,0.000219890743686,0.000219890743686,0.000219890743686,3773018.5081595,0.011537508749111
11419200,0.98266208383523,0.01290279748904,0.0039801946863965,0.0039801946863965,0.0049424081162467,-0.00081986132713889,0.00081986132926124,1.0439653134586e-12,1.0439759307813e-12,9.2546603647138e-13,9.3357636223591e-13,-0.0010179927455921,0.0010179927478461,-0.0010179927457864,0.0010179927480403,-0.0010179927458115,0.001017992748052,-0.0010179927460064,0.001017992748247,-0.0009214113446862,0.00092141134728698,-0.00092141134474076,0.0009214113473416,9.2634133906283e-13,9.320925049932e-13,1.883706296437e-12,2.037171501735e-13,-0.00081986132713916,0.000819861329261,-0.0010179927453126,0.0010179927481238,-0.0010179927460656,0.001017992747763,-0.0010179927455331,0.0010179927483293,-0.0010179927462861,0.0010179927479685,-0.00092141134388679,0.00092141134812798,-0.00092141134554144,0.00092141134649935,-0.00082617197460079,0.00082617197596322,-0.00082617197483099,0.00082617197620399,2.8431437321459e-13,2.8431434380372e-13,-0.0011098326997676,0.0011098327004253,-4.9587713070581e-13,1.1300515806411e-12,-0.0013393014550239,0.0013393014554821,-0.001339301454284,0.0013393014558065,-0.0013393014548162,0.0013393014552744,-0.0013393014540817,0.0013393014556042,-0.0010605400267081,0.0010605400279683,-0.0010605400269083,0.0010605400281684,0.40445605707229,125301,3014,0.003411261797212,0.003411261797212,0.0046130368069887,37.625922124051,0.00021620737699241,0.00021620737699241,0.00021620737699241,3572035.8043164,0.011501970857497
12419200,0.98963607160413,0.012965626531056,0.0040005603290933,0.0040005603290933,0.004964505872869,-0.0008183287835607,0.00081832878600517,1.1479749301539e-12,1.1479791064969e-12,1.0213946794466e-12,1.0328781374584e-12,-0.0010195217966376,0.0010195217991532,-0.0010195217967985,0.001019521799314,-0.0010195217968198,0.0010195217993224,-0.0010195217969812,0.0010195217994839,-0.00092022501294234,0.00092022501578569,-0.000920225013003,0.0009202250158464,1.0222223845146e-12,1.0314554364356e-12,2.0907355393909e-12,2.0470925879564e-13,-0.00081832878356096,0.00081832878600493,-0.0010195217963241,0.0010195217994652,-0.0010195217971117,0.0010195217990023,-0.0010195217965073,0.001019521799634,-0.0010195217972949,0.0010195217991711,-0.00092022501204218,0.00092022501672784,-0.00092022501390441,0.00092022501490307,-0.00082537834538752,0.00082537834691292,-0.00082537834564004,0.00082537834718141,3.8438996303284e-13,3.8439634519081e-13,-0.0011069743201149,0.0011069743210671,-4.9818397199809e-13,1.3331531554392e-12,-0.0013393945285378,0.0013393945291717,-0.0013393945276789,0.0013393945295139,-0.0013393945282795,0.0013393945289134,-0.0013393945274268,0.0013393945292618,-0.0010587908700976,0.0010587908716537,-0.0010587908702972,0.0010587908718531,0.45322610794666,125301,3014,0.0034049139405679,0.0034049139405679,0.0046011806525668,36.800418768349,0.00020960335014679,0.00020960335014679,0.00020960335014679,3501976.7883722,0.011477162464849
13419200,0.99353081980937,0.012997773278624,0.0040110084227084,0.0040110084227084,0.0049757564332069,-0.0008121520882715,0.00081215209166166,1.4641666824776e-12,1.4641612120565e-12,1.3185616159066e-12,1.334724695665e-12,-0.0010184869871301,0.0010184869903665,-0.0010184869872124,0.0010184869904487,-0.0010184869872132,0.0010184869904355,-0.0010184869872963,0.0010184869905187,-0.00091369445601559,0.00091369445958908,-0.00091369445608428,0.0009136944596578,1.3193135779128e-12,1.3334050337739e-12,2.5225318414169e-12,4.0530829038706e-13,-0.00081215208827175,0.00081215209166144,-0.0010184869867771,0.0010184869907169,-0.0010184869875653,0.0010184869900986,-0.0010184869868612,0.0010184869907858,-0.0010184869876494,0.0010184869901674,-0.00091369445500175,0.00091369446064351,-0.00091369445709929,0.00091369445860228,-0.00081998450093299,0.00081998450308085,-0.00081998450122753,0.00081998450339641,6.2167062603617e-13,6.2168894900582e-13,-0.001097746123363,0.0010977461250416,-3.7835761790508e-13,1.6855000091317e-12,-0.0013348993258707,0.0013348993269786,-0.0013348993248077,0.0013348993272722,-0.001334899325486,0.0013348993265939,-0.0013348993244307,0.0013348993268952,-0.0010512986071333,0.0010512986093161,-0.0010512986073487,0.0010512986095313,0.4150894025916,125301,3014,0.0033792948085549,0.003379294808555,0.004562913108517,34.785275958528,0.00019348220766822,0.00019348220766822,0.00019348220766822,3375037.5164644,0.011386682308786
14419200,0.99578010671959,0.013014965833926,0.0040166226010439,0.0040166226010439,0.0049817206318379,-0.00080691649297541,0.00080691649648201,1.4981230863092e-12,1.4981031163311e-12,1.3495921679445e-12,1.3684251661387e-12,-0.0010137318997919,0.0010137319031398,-0.0010137318998583,0.0010137319032061,-0.0010137318998571,0.0010137319031919,-0.0010137318999241,0.0010137319032589,-0.00090875824080154,0.00090875824445554,-0.00090875824087756,0.00090875824453157,1.3504085501163e-12,1.367042360956e-12,2.6572133666946e-12,3.3853916840192e-13,-0.00080691649297565,0.00080691649648178,-0.0010137318994062,0.0010137319035239,-0.0010137319002437,0.0010137319028224,-0.0010137318994724,0.0010137319035756,-0.0010137319003099,0.001013731902874,-0.00090875823968951,0.00090875824560933,-0.00090875824199078,0.00090875824337664,-0.0008150203107093,0.00081502031286783,-0.00081502031101621,0.00081502031320026,6.6986333025272e-13,6.6989415284052e-13,-0.0010923130283784,0.0010923130301912,-4.2909240622741e-13,1.8346298209654e-12,-0.0013300069024321,0.0013300069036023,-0.0013300069012793,0.0013300069039389,-0.001330006902024,0.0013300069031942,-0.0013300069008795,0.001330006903539,-0.0010461003089823,0.0010461003113378,-0.0010461003091889,0.0010461003115443,0.38312450045663,125301,3014,0.0033575538626172,0.0033575538626172,0.0045403763606271,32.63396929281,0.00017627175434248,0.00017627175434248,0.00017627175434248,3367439.1994125,0.011319915659231
15419200,0.99695080259114,0.013026963147888,0.0040205427056922,0.0040205427056922,0.004985877736504,-0.00079503489475225,0.00079503490079074,2.339053514109e-12,2.3390423673907e-12,2.1467328305503e-12,2.1848234610253e-12,-0.0010023849204244,0.0010023849257972,-0.0010023849202821,0.0010023849256549,-0.0010023849201953,0.0010023849255552,-0.0010023849200548,0.0010023849254148,-0.00089731197780064,0.00089731198338228,-0.00089731197790457,0.00089731198348623,2.1475290575474e-12,2.1834561792655e-12,3.6808765797802e-12,9.9669794962591e-13,-0.00079503489475252,0.00079503490079051,-0.0010023849199726,0.0010023849262416,-0.0010023849207337,0.0010023849252108,-0.0010023849197451,0.0010023849259998,-0.0010023849205061,0.001002384924969,-0.00089731197650694,0.00089731198471026,-0.00089731197919953,0.00089731198215706,-0.00080336533192529,0.00080336533582031,-0.00080336533232161,0.00080336533626764,1.2794804421625e-12,1.2795042355533e-12,-0.0010811603273852,0.0010811603310351,-1.2764345352129e-14,2.624932251298e-12,-0.0013193398269937,0.0013193398295144,-0.0013193398253588,0.0013193398296212,-0.0013193398262296,0.0013193398287503,-0.0013193398246088,0.0013193398288712,-0.0010350590450794,0.0010350590489498,-0.0010350590453002,0.0010350590491705,0.51103778709309,125301,3014,0.0033082165953337,0.0033082165953338,0.0044941111115899,27.044461047595,0.00013155568838076,0.00013155568838076,0.00013155568838076,3385219.381717,0.011173353034398
16419200,0.99770308291919,0.013033959826925,0.0040228273812012,0.0040228273812013,0.0049883050645225,-0.00078609192022639,0.00078609192412887,1.6319318220736e-12,1.6319673209892e-12,1.4737860650827e-12,1.4915318317852e-12,-0.00099987342660623,0.0009998734302109,-0.0009998734266396,0.00099987343024428,-0.00099987342664212,0.00099987343023196,-0.00099987342667558,0.00099987343026549,-0.0008876098183209,0.00088760982229162,-0.00088760981839988,0.0008876098223707,1.474553315153e-12,1.4902046995341e-12,3.0233973211107e-12,2.4000828021648e-13,-0.00078609192022663,0.00078609192412864,-0.00099987342614542,0.00099987343067264,-0.00099987342710016,0.00099987342978282,-0.000999873426182,0.00099987343069311,-0.00099987342713674,0.00099987342980327,-0.00088760981698275,0.00088760982367517,-0.00088760981973926,0.00088760982098603,-0.00079533981388422,0.00079533981618865,-0.00079533981421759,0.00079533981654399,7.9506215257346e-13,7.950417414323e-13,-0.0010675716697055,0.0010675716719026,-5.3086854703617e-13,2.1927604244389e-12,-0.0013117861126366,0.0013117861139123,-0.0013117861112887,0.0013117861143588,-0.0013117861121859,0.0013117861134616,-0.0013117861108458,0.0013117861139159,-0.0010237219349051,0.0010237219377098,-0.0010237219351266,0.0010237219379312,0.46538451425637,125301,3014,0.0032711153386399,0.00327111533864,0.004437763353325,24.406322702781,0.00011045058162225,0.00011045058162225,0.00011045058162225,3219891.4943605,0.011041419718621
17419200,0.99820839434756,0.013039301539521,0.0040245814675244,0.0040245814675245,0.0049901386044717,-0.00077989949589811,0.0007798994996508,1.5744833123803e-12,1.5745171642873e-12,1.4185269149765e-12,1.4381179194259e-12,-0.0009928189695811,0.00099281897310199,-0.00099281896961834,0.00099281897313924,-0.00099281896962535,0.00099281897313257,-0.00099281896966249,0.00099281897316977,-0.00088188132478661,0.00088188132862805,-0.00088188132487293,0.00088188132871446,1.4193177321549e-12,1.4367381380479e-12,2.9998792119074e-12,1.48615127735e-13,-0.00077989949589837,0.00077989949965057,-0.00099281896910972,0.0009928189735751,-0.00099281897008947,0.00099281897266641,-0.00099281896915458,0.00099281897360497,-0.00099281897013434,0.00099281897269626,-0.00088188132341556,0.00088188133004542,-0.00088188132624521,0.00088188132729594,-0.00078933964815546,0.00078933965031396,-0.0007893396484923,0.00078933965067695,7.7438616656358e-13,7.7436328490966e-13,-0.0010618179845393,0.0010618179866651,-5.8411200872026e-13,2.206219513273e-12,-0.0013052728727828,0.0013052728740154,-0.0013052728714223,0.0013052728744933,-0.0013052728723416,0.0013052728735741,-0.0013052728709891,0.00130527287406,-0.0010178984115709,0.0010178984143456,-0.0010178984117757,0.0010178984145504,0.52521873377382,125301,3014,0.0032453891671077,0.0032453891671077,0.0044138895482744,21.96928987936,9.0954319034878e-05,9.0954319034878e-05,9.0954319034878e-05,3240476.8796843,0.010965251217298
18419200,0.99852233466661,0.013042486615273,0.0040256268159754,0.0040256268159754,0.0049912329833219,-0.00076809861836521,0.00076809862364449,2.0806122916639e-12,2.0806188796979e-12,1.8979945028649e-12,1.9259575897883e-12,-0.00098435417115751,0.00098435417584951,-0.00098435417106892,0.00098435417576094,-0.00098435417103541,0.00098435417571253,-0.00098435417094749,0.00098435417562462,-0.00086985369021621,0.00086985369522782,-0.00086985369031926,0.00086985369533087,1.898625892196e-12,1.924849614445e-12,3.5935688512913e-12,5.6714936049978e-13,-0.00076809861836545,0.00076809862364428,-0.00098435417065386,0.00098435417635146,-0.00098435417157241,0.00098435417525915,-0.00098435417053265,0.00098435417621431,-0.00098435417145119,0.00098435417512193,-0.0008698536887578,0.00086985369672804,-0.00086985369177874,0.00086985369382945,-0.0007780813872029,0.00077808139042998,-0.00077808138759817,0.00077808139086142,1.1410293776299e-12,1.1410315834448e-12,-0.0010478474888488,0.0010478474921092,-3.1131604833195e-13,2.6592034837472e-12,-0.001294457824407,0.0012944578264438,-0.001294457822782,0.0012944578267791,-0.0012944578237622,0.0012944578257989,-0.0012944578221478,0.001294457826145,-0.0010050817290333,0.0010050817327195,-0.0010050817292543,0.0010050817329403,0.50516361584657,125301,3014,0.0031963959702287,0.0031963959702288,0.0043559440183999,17.466071131072,5.4928569048577e-05,5.4928569048577e-05,5.4928569048577e-05,3166093.1654792,0.010807658681958
19419200,0.99878248556677,0.013045918474953,0.0040267557682555,0.0040267557682555,0.0049924069384423,-0.00076725486857957,0.0007672548705291,9.7544587726861e-13,9.7545525933494e-13,8.4844660995023e-13,8.5468365470691e-13,-0.00098329122933462,0.00098329123143059,-0.0009832912295153,0.00098329123161127,-0.00098329122958973,0.00098329123167217,-0.0009832912297691,0.00098329123185158,-0.0008690926868975,0.00086909268936575,-0.00086909268697184,0.00086909268944014,8.4912143117486e-13,8.534599237087e-13,2.4041505396858e-12,-4.5372365579894e-13,-0.00076725486857981,0.00076725487052888,-0.00098329122886747,0.00098329123190524,-0.00098329122998226,0.00098329123113683,-0.0009832912291225,0.00098329123214559,-0.0009832912302373,0.00098329123137716,-0.00086909268552595,0.00086909269079123,-0.00086909268834449,0.00086909268801361,-0.0007774059333458,0.00077740593417524,-0.00077740593363633,0.00077740593447534,3.6854391770688e-13,3.6854515296326e-13,-0.0010465333667985,0.0010465333676832,-9.8222064089247e-13,1.805645294658e-12,-0.0012929314484211,0.0012929314486767,-0.0012929314473131,0.0012929314494023,-0.00129293144823,0.0012929314484855,-0.0012929314471258,0.0012929314492149,-0.001003955960676,0.0010039559625189,-0.001003955960862,0.0010039559627049,0.65325215552177,125301,3014,0.00319288594344,0.00319288594344,0.0043504927183936,17.551719730009,5.5613757840072e-05,5.5613757840072e-05,5.5613757840072e-05,3156143.3876066,0.010795048408632
20419200,0.99900891969384,0.013049117491335,0.0040278084154716,0.0040278084154717,0.004993500660392,-0.00076598338891369,0.00076598339018313,7.5295179195725e-13,7.5294773325771e-13,6.3425671212811e-13,6.3329330038321e-13,-0.0009875352507802,0.00098753525232174,-0.00098753525101725,0.00098753525255877,-0.00098753525112093,0.00098753525264782,-0.00098753525135665,0.00098753525288357,-0.00086686293578068,0.00086686293773915,-0.00086686293584633,0.00086686293780481,6.3471351361719e-13,6.3233836264414e-13,2.0793272220064e-12,-5.7386474671538e-13,-0.00076598338891391,0.00076598339018293,-0.00098753525034753,0.00098753525276215,-0.00098753525144986,0.00098753525211846,-0.00098753525068801,0.00098753525308716,-0.00098753525179035,0.00098753525244344,-0.00086686293450929,0.00086686293906489,-0.00086686293711857,0.00086686293647817,-0.00077696560241024,0.00077696560280858,-0.00077696560268865,0.00077696560308687,1.9142144632386e-13,1.914320342357e-13,-0.0010394935969748,0.0010394935973476,-1.0562892016782e-12,1.5264476621894e-12,-0.0012913966966051,0.0012913966964967,-0.0012913966956635,0.0012913966972518,-0.0012913966965118,0.0012913966964034,-0.001291396695572,0.0012913966971603,-0.00099905207482337,0.00099905207620232,-0.00099905207501255,0.0009990520763914,0.70012779305903,125301,3014,0.0031876313162458,0.0031876313162459,0.0043213210704816,18.600074113097,6.4000592904779e-05,6.4000592904779e-05,6.4000592904779e-05,2986833.2857829,0.010755000091781
21419200,0.99916286477632,0.013051143009833,0.0040284783468121,0.0040284783468122,0.0049941863162084,-0.00075585443119287,0.00075585443573667,1.8279143349424e-12,1.8279475398104e-12,1.6542533607542e-12,1.6758290251619e-12,-0.00097942837717674,0.00097942838125795,-0.00097942837713656,0.00097942838121777,-0.00097942837714866,0.00097942838121456,-0.00097942837710898,0.00097942838117494,-0.0008566747839479,0.00085667478839639,-0.00085667478405586,0.00085667478850444,1.6549315092051e-12,1.6746059412027e-12,3.2345909331695e-12,4.2081194187604e-13,-0.00075585443119311,0.00075585443573646,-0.00097942837670904,0.00097942838172455,-0.00097942837760405,0.00097942838075138,-0.0009794283766818,0.00097942838168085,-0.00097942837757683,0.00097942838070767,-0.00085667478259385,0.00085667478979321,-0.00085667478541105,0.00085667478710666,-0.0007674505386256,0.00076745054137509,-0.00076745053902397,0.0007674505418008,9.760626525442e-13,9.7603041823482e-13,-0.001026914145865,0.0010269141486717,-3.6896572835027e-13,2.3882700694005e-12,-0.0012808528285102,0.001280852830226,-0.0012808528270621,0.0012808528305958,-0.001280852827971,0.0012808528296868,-0.0012808528265312,0.0012808528300648,-0.00098751040476631,0.00098751040802489,-0.00098751040497351,0.00098751040823207,0.64990944923706,125301,3014,0.003145566490724,0.0031455664907241,0.0042691419011579,15.216724421745,3.6933795373957e-05,3.6933795373957e-05,3.6933795373957e-05,2927487.7689738,0.010617252932289
22419200,0.99929036863043,0.013052867000547,0.0040290495587761,0.0040290495587761,0.0049947678829945,-0.00075401189572972,0.0007540118980573,1.0945798848653e-12,1.0946123250507e-12,9.5795523512513e-13,9.6663592581835e-13,-0.00097626496734066,0.00097626496972569,-0.00097626496748085,0.00097626496986589,-0.00097626496755928,0.00097626496993067,-0.00097626496769867,0.00097626497007012,-0.0008549967373224,0.00085499674007536,-0.00085499673741254,0.00085499674016559,9.5868503286995e-13,9.6533256857619e-13,2.4641082034248e-12,-2.7541118495272e-13,-0.00075401189572997,0.00075401189805707,-0.00097626496689107,0.0009762649701804,-0.00097626496793023,0.00097626496941144,-0.00097626496710991,0.00097626497038437,-0.00097626496814908,0.00097626496961537,-0.00085499673600758,0.00085499674144088,-0.00085499673872853,0.00085499673879894,-0.00076565529878697,0.00076565529992595,-0.00076565529911645,0.00076565530026804,4.6319476148269e-13,4.6317190923964e-13,-0.0010254388173421,0.0010254388185492,-8.3298414114157e-13,1.8404291438e-12,-0.0012778997188652,0.0012778997193997,-0.0012778997177433,0.0012778997200363,-0.0012778997186226,0.0012778997191571,-0.0012778997175048,0.0012778997197978,-0.00098594086852144,0.00098594087055742,-0.00098594086869994,0.00098594087073588,0.66642562144511,125301,3014,0.0031378992854041,0.0031378992854042,0.0042630141726373,14.857990881821,3.4063927054568e-05,3.4063927054568e-05,3.4063927054568e-05,2943284.0672861,0.010595547008943
23419200,0.99940361507342,0.013054309422533,0.0040295273470977,0.0040295273470978,0.0049952547283371,-0.00075463348662636,0.00075463348806617,8.0249351378577e-13,8.0254354166922e-13,6.8031783440421e-13,6.8220074747074e-13,-0.00097782821581114,0.00097782821749676,-0.00097782821602563,0.00097782821771127,-0.00097782821613339,0.00097782821780536,-0.00097782821634673,0.00097782821801878,-0.00085529404142034,0.00085529404349978,-0.00085529404149939,0.00085529404357895,6.809899148463e-13,6.8100364065918e-13,2.1003135726157e-12,-4.9573910327034e-13,-0.00075463348662659,0.00075463348806597,-0.00097782821538696,0.00097782821792767,-0.0009778282164496,0.00097782821728058,-0.00097782821570921,0.00097782821823514,-0.00097782821677185,0.00097782821758803,-0.00085529404017648,0.00085529404479651,-0.00085529404274436,0.00085529404228118,-0.00076645909211912,0.00076645909265462,-0.00076645909241957,0.00076645909295911,2.4901933380676e-13,2.4897912915263e-13,-0.0010244813425511,0.001024481343104,-9.7226973900334e-13,1.5551254625728e-12,-0.0012778006182741,0.0012778006183407,-0.0012778006173248,0.0012778006190516,-0.001277800618155,0.0012778006182215,-0.0012778006172077,0.0012778006189345,-0.00098551289144241,0.00098551289293711,-0.00098551289161747,0.00098551289311217,0.62875729639221,125301,3014,0.0031404813047476,0.0031404813047476,0.0042590513549757,15.707951104407,4.0863608835256e-05,4.0863608835256e-05,4.0863608835256e-05,2900753.0724803,0.010596773101391
24419200,0.99951053583731,0.013055747558844,0.004030004186141,0.004030004186141,0.0049957391865617,-0.00075890214025312,0.0007589021407015,4.7388546430082e-13,4.7392190436408e-13,3.6898597773166e-13,3.6437732440521e-13,-0.00098117447030408,0.00098117447121137,-0.00098117447060087,0.00098117447150817,-0.00098117447073935,0.00098117447163351,-0.0009811744710346,0.00098117447192883,-0.00085951500288616,0.00085951500420876,-0.0008595150029529,0.0008595150042756,3.6967019108952e-13,3.6314539512804e-13,1.6778870280082e-12,-7.3055008798672e-13,-0.00075890214025337,0.00075890214070129,-0.0009811744699128,0.00098117447161119,-0.00098117447099195,0.00098117447110859,-0.00098117447034789,0.000981174472032,-0.00098117447142705,0.00098117447152936,-0.00085951500173502,0.00085951500541511,-0.00085951500410517,0.00085951500306819,-0.00077070987041189,0.00077070987028106,-0.00077070987067527,0.00077070987054051,9.3947718196992e-15,9.3682138074988e-15,-0.0010286460856802,0.0010286460855,-1.1147666064101e-12,1.2223903038741e-12,-0.0012809606843732,0.0012809606839296,-0.0012809606836242,0.0012809606847131,-0.0012809606843904,0.0012809606839469,-0.0012809606836414,0.0012809606847304,-0.00098964620440955,0.00098964620528867,-0.00098964620457809,0.00098964620545718,0.66255127740754,125301,3014,0.0031582015604736,0.0031582015604737,0.0042763291423883,17.887330808152,5.8298646465217e-05,5.8298646465217e-05,5.8298646465217e-05,2901783.9070039,0.010650040934739
25419200,0.99960800714212,0.013057292931148,0.0040305163971742,0.0040305163971742,0.0049962601367992,-0.00076220945760779,0.00076220945816109,5.0951046421683e-13,5.0954546314763e-13,4.0163845080926e-13,3.9721229190773e-13,-0.00098597885229405,0.00098597885328203,-0.00098597885258201,0.00098597885356997,-0.00098597885271893,0.00098597885369343,-0.00098597885300566,0.00098597885398026,-0.00086237157353317,0.00086237157493786,-0.0008623715736011,0.0008623715750059,4.0229484769871e-13,3.9602366829289e-13,1.6449246682577e-12,-6.2644951482725e-13,-0.00076220945760804,0.00076220945816086,-0.00098597885192423,0.00098597885365885,-0.00098597885295173,0.00098597885319339,-0.00098597885234905,0.00098597885406915,-0.00098597885337656,0.00098597885360367,-0.00086237157244832,0.00086237157607571,-0.00086237157468711,0.00086237157386678,-0.00077423336323977,0.00077423336323071,-0.00077423336351085,0.00077423336349786,2.4416224689331e-14,2.4392048957295e-14,-0.0010297504533034,0.0010297504531819,-1.0342380517963e-12,1.1684277023946e-12,-0.0012835679922336,0.0012835679918736,-0.0012835679915148,0.0012835679925986,-0.0012835679922366,0.0012835679918767,-0.001283567991518,0.0012835679926017,-0.00099142919031919,0.0009914291911923,-0.00099142919049041,0.00099142919136352,0.77991302017261,125301,3014,0.0031719426463175,0.0031719426463176,0.0042809254272513,19.931984407093,7.4655875256747e-05,7.4655875256747e-05,7.4655875256747e-05,2843213.2283896,0.01068247882792
26419200,0.99968790697793,0.013058641768275,0.004030964159221,0.0040309641592211,0.0049967134498324,-0.0007606961618752,0.00076069616361907,9.0366392309921e-13,9.03709039368e-13,7.7387754974854e-13,7.7644786828589e-13,-0.00098828989831798,0.00098828990022758,-0.00098828989850592,0.00098828990041553,-0.00098828989861234,0.00098828990050762,-0.0009882898987999,0.00098828990069527,-0.00086018536825157,0.00086018537056752,-0.00086018536833559,0.00086018537065166,7.7456284688533e-13,7.7519209966347e-13,2.0376672970782e-12,-2.3079264690974e-13,-0.00076069616187546,0.00076069616361884,-0.00098828989794503,0.00098828990060361,-0.00098828989887869,0.00098828990003972,-0.0009882898982398,0.00098828990088289,-0.00098828989917347,0.00098828990031897,-0.00086018536716635,0.00086018537170085,-0.00086018536942194,0.00086018536951722,-0.00077336270992789,0.00077336271079515,-0.00077336271025077,0.00077336271112197,3.0464234044444e-13,3.0460766503316e-13,-0.0010235408476691,0.0010235408484251,-7.5989040351684e-13,1.4459112842851e-12,-0.0012814089284054,0.0012814089287136,-0.0012814089275244,0.0012814089292806,-0.0012814089282485,0.0012814089285566,-0.0012814089273697,0.0012814089291258,-0.00098675566574579,0.00098675566727392,-0.00098675566592521,0.00098675566745332,0.82922923068302,125301,3014,0.0031656726247792,0.0031656726247793,0.0042551943438045,20.395380521882,7.8363044175059e-05,7.8363044175059e-05,7.8363044175059e-05,2727162.6551274,0.010643841679592
27419200,0.99975760016756,0.013059703733395,0.0040313179004022,0.0040313179004022,0.0049970679325909,-0.00076249873646946,0.0007624987371651,5.5665308286572e-13,5.566874053466e-13,4.4354036191111e-13,4.3942129656926e-13,-0.00099148032529466,0.00099148032638949,-0.0009914803255691,0.00099148032666393,-0.00099148032570873,0.00099148032678966,-0.00099148032598225,0.00099148032706326,-0.00086155622304658,0.00086155622456199,-0.00086155622311904,0.00086155622463455,4.4421955175516e-13,4.3821546759768e-13,1.6483288432147e-12,-5.3542256008562e-13,-0.00076249873646971,0.00076249873716491,-0.00099148032493825,0.00099148032675156,-0.00099148032592532,0.00099148032630207,-0.00099148032535242,0.00099148032715073,-0.0009914803263395,0.0009914803267012,-0.00086155622200395,0.0008615562256561,-0.0008615562241627,0.00086155622353945,-0.00077557194331488,0.00077557194343692,-0.00077557194360572,0.00077557194372377,5.2735036039671e-14,5.2704301684467e-14,-0.001022247731842,0.001022247731826,-9.6447155076205e-13,1.1526171559841e-12,-0.001281581274145,0.0012815812738835,-0.0012815812734366,0.0012815812745625,-0.0012815812741303,0.0012815812738688,-0.001281581273422,0.0012815812745478,-0.00098637649911257,0.00098637650002958,-0.00098637649928283,0.00098637650019984,0.74718867332314,125301,3014,0.0031731580331131,0.0031731580331132,0.0042498465934603,22.257776058421,9.3262208467371e-05,9.3262208467371e-05,9.3262208467371e-05,2660863.705284,0.010653579063659
28419200,0.99981487080991,0.013060699377232,0.0040316499648969,0.0040316499648969,0.0049973994474384,-0.00076461774818889,0.00076461774938235,7.1700124316302e-13,7.170375655828e-13,5.9693861687619e-13,5.9755236283255e-13,-0.00099142036851133,0.00099142037000428,-0.00099142036874051,0.00099142037023346,-0.00099142036886634,0.00099142037034605,-0.00099142036909495,0.00099142037057474,-0.00086382667965932,0.00086382668154722,-0.0008638266797424,0.0008638266816304,5.9758232238089e-13,5.963661987014e-13,1.7959955811781e-12,-3.624268426308e-13,-0.00076461774818913,0.00076461774938213,-0.0009914203681575,0.00099142037036203,-0.00099142036909417,0.00099142036987591,-0.00099142036851278,0.00099142037070299,-0.00099142036944947,0.00099142037021684,-0.00086382667862828,0.00086382668262734,-0.00086382668077452,0.00086382668054924,-0.00077757478622014,0.00077757478671384,-0.00077757478652838,0.00077757478702517,1.7776998101381e-13,1.7774471707973e-13,-0.0010255557713824,0.0010255557717487,-8.3039466142486e-13,1.2644161229554e-12,-0.0012823600283854,0.0012823600284439,-0.0012823600276134,0.0012823600290455,-0.0012823600283003,0.0012823600283588,-0.0012823600275296,0.0012823600289616,-0.00098933511458265,0.00098933511577954,-0.00098933511474846,0.00098933511594533,0.8493285419621,125301,3014,0.0031819417799862,0.0031819417799862,0.0042635561406835,23.444957877042,0.00010275966301633,0.00010275966301633,0.00010275966301633,2696171.7885204,0.010685163330155
29419200,0.99986140484123,0.013061275999754,0.0040318423644352,0.0040318423644353,0.0049975912708832,-0.0007657224528033,0.00076572245389039,6.8442065024247e-13,6.8446597238732e-13,5.6424602737706e-13,5.6259910710111e-13,-0.00099565240593537,0.00099565240733611,-0.00099565240617474,0.00099565240757549,-0.00099565240630682,0.00099565240769359,-0.00099565240654563,0.00099565240793247,-0.00086419156949418,0.00086419157130685,-0.00086419156957507,0.00086419157138786,5.6476362321612e-13,5.6158032572418e-13,1.7484366797501e-12,-3.7998172362064e-13,-0.00076572245280351,0.00076572245389019,-0.00099565240558661,0.00099565240768882,-0.00099565240652339,0.00099565240722293,-0.00099565240595825,0.00099565240804559,-0.00099565240689504,0.00099565240757967,-0.00086419156847779,0.00086419157237246,-0.0008641915705924,0.00086419157032136,-0.0007790902690283,0.00077909026945448,-0.00077909026933934,0.00077909026976538,1.4853316829602e-13,1.4850363978633e-13,-0.0010225586973416,0.0010225586976261,-8.444078950949e-13,1.220204679467e-12,-0.0012827096322014,0.0012827096321921,-0.0012827096314567,0.0012827096328009,-0.0012827096321334,0.0012827096321241,-0.0012827096313894,0.0012827096327335,-0.00098752143933377,0.00098752144045688,-0.00098752143950337,0.00098752144062646,0.60881578646039,125301,3014,0.003186540633628,0.003186540633628,0.0042511534873968,24.784377773091,0.00011347502218473,0.00011347502218473,0.00011347502218473,2597369.2735493,0.010681961976125
30419200,0.99989841946095,0.013061665067092,0.0040319725242113,0.0040319725242113,0.0049977200186693,-0.00077051662176353,0.0007705166228125,6.6499497897751e-13,6.6496518577003e-13,5.496451793053e-13,5.511005760204e-13,-0.00099351640832822,0.00099351640972143,-0.00099351640856632,0.00099351640995949,-0.00099351640869547,0.00099351641007669,-0.00099351640893297,0.00099351641031421,-0.00087005401305013,0.00087005401481931,-0.00087005401313518,0.00087005401490433,5.5017282220789e-13,5.5007642532221e-13,1.7201434976719e-12,-3.9061746545695e-13,-0.00077051662176375,0.00077051662281231,-0.00099351640798239,0.00099351641007124,-0.00099351640891203,0.00099351640960984,-0.00099351640834981,0.00099351641042575,-0.00099351640927946,0.00099351640996432,-0.00087005401204236,0.00087005401587608,-0.0008700540141439,0.00087005401384666,-0.00078321066858357,0.00078321066898411,-0.00078321066888256,0.00078321066928926,1.5191038865367e-13,1.5195056389693e-13,-0.0010337054940227,0.0010337054942989,-8.325590070703e-13,1.2148033444741e-12,-0.0012863198609089,0.0012863198609344,-0.0012863198601693,0.0012863198615368,-0.0012863198608403,0.0012863198608658,-0.001286319860102,0.0012863198614695,-0.00099674739402767,0.00099674739514396,-0.00099674739418424,0.00099674739530039,0.51512748248588,125301,3014,0.0032064150166815,0.0032064150166815,0.0042973463557562,26.135131495982,0.00012428105196785,0.00012428105196785,0.00012428105196785,2763628.7528718,0.010768745879242
31419200,0.99992838547323,0.013062071289856,0.0040321076843444,0.0040321076843444,0.0049978559211676,-0.0007776379309778,0.00077763793127819,4.1882329347117e-13,4.1878650047752e-13,3.1737106923757e-13,3.1272526998708e-13,-0.00099849984938352,0.00099849985017229,-0.0009984998496871,0.00099849985047583,-0.00099849984983727,0.00099849985061399,-0.00099849985013985,0.00099849985091659,-0.00087727322319803,0.00087727322440051,-0.00087727322326939,0.00087727322447183,3.1802048941144e-13,3.1155982948754e-13,1.4266868679014e-12,-5.8952133766705e-13,-0.00077763793097802,0.00077763793127799,-0.00099849984905509,0.00099849985050657,-0.00099849985001533,0.00099849985014178,-0.0009984998495089,0.00099849985094724,-0.00099849985046915,0.00099849985058242,-0.00087727322223754,0.00087727322541251,-0.00087727322423091,0.00087727322345883,-0.00078975079881287,0.00078975079869943,-0.0007897507990762,0.00078975079896012,-3.1070727281198e-14,-3.1023493430042e-14,-0.0010432901238052,0.0010432901235203,-9.6464397196529e-13,9.8518599147951e-13,-0.0012937013565279,0.0012937013561336,-0.0012937013559277,0.0012937013568092,-0.0012937013565656,0.0012937013561713,-0.0012937013559649,0.0012937013568464,-0.0010053110199359,0.0010053110205987,-0.0010053110200958,0.0010053110207585,0.66479676253864,125301,3014,0.0032359819646562,0.0032359819646562,0.0043370994104259,28.446526106727,0.00014277220885382,0.00014277220885382,0.00014277220885382,2819269.3748619,0.010868685209304
32419200,0.99995027070343,0.01306242060951,0.0040322236793526,0.0040322236793526,0.0049979732508044,-0.00077785102936912,0.00077785103081042,8.0331387107736e-13,8.0329795979873e-13,6.7837657017908e-13,6.7950956497864e-13,-0.0010042994037712,0.0010042994054556,-0.0010042994039826,0.0010042994056669,-0.0010042994041001,0.0010042994057708,-0.0010042994043112,0.001004299405982,-0.00087652669516789,0.00087652669725156,-0.00087652669525214,0.0008765266973358,6.7919188488575e-13,6.7812537197067e-13,1.8316164713851e-12,-2.2549625890607e-13,-0.00077785102936937,0.00077785103081019,-0.0010042994034326,0.0010042994057964,-0.0010042994043209,0.0010042994053264,-0.0010042994037621,0.0010042994061109,-0.0010042994046503,0.0010042994056409,-0.00087652669418576,0.0008765266982806,-0.00087652669623548,0.00087652669630558,-0.00079053875149447,0.00079053875220763,-0.00079053875181177,0.00079053875252722,2.3218893619915e-13,2.3221761179371e-13,-0.0010382200000192,0.0010382200005512,-7.2841205633521e-13,1.2676083636699e-12,-0.0012945625907901,0.0012945625910059,-0.0012945625900187,0.0012945625915432,-0.0012945625906731,0.0012945625908889,-0.0012945625899033,0.0012945625914278,-0.0010019438508099,0.0010019438520989,-0.0010019438509831,0.001001943852272,0.7835582016357,125301,3014,0.0032368979546501,0.0032368979546501,0.0043161067223604,29.298459221663,0.00014958767377331,0.00014958767377331,0.00014958767377331,2671899.5195523,0.010849379703971
33419200,0.99996547977971,0.013062672447375,0.0040323076317442,0.0040323076317442,0.0049980571838868,-0.00077547369810725,0.00077547370019771,1.0170214895151e-12,1.01700943106e-12,8.7972790432816e-13,8.8478208816161e-13,-0.001005453434786,0.0010054534369639,-0.0010054534349422,0.0010054534371202,-0.0010054534350459,0.0010054534372098,-0.0010054534352023,0.0010054534373662,-0.00087366470603005,0.00087366470861057,-0.00087366470612323,0.00087366470870377,8.8051332864798e-13,8.8340948303493e-13,2.0834822182359e-12,-4.996829596954e-14,-0.00077547369810751,0.00077547370019747,-0.0010054534344334,0.0010054534373173,-0.0010054534352945,0.0010054534367671,-0.0010054534346941,0.0010054534375626,-0.0010054534355553,0.0010054534370123,-0.00087366470500989,0.00087366470967581,-0.00087366470714462,0.00087366470763733,-0.0007888402632177,0.00078884026438269,-0.00078884026356505,0.00078884026473693,3.9008414202076e-13,3.9011111178508e-13,-0.0010312420828585,0.0010312420838877,-6.1137907278899e-13,1.4632539309498e-12,-0.0012915507685081,0.0012915507690692,-0.0012915507676251,0.001291550769548,-0.0012915507683061,0.0012915507688671,-0.0012915507674257,0.0012915507693486,-0.00099640590521567,0.00099640590690183,-0.00099640590539245,0.00099640590707849,0.80945760226261,125301,3014,0.0032270383305438,0.0032270383305439,0.0042871894176239,29.317385110664,0.00014973908088531,0.00014973908088531,0.00014973908088531,2568764.3317772,0.010800252323801
34419200,0.99997699288523,0.013062845609815,0.0040323655339597,0.0040323655339597,0.0049981145418953,-0.00077843154287685,0.00077843154330547,4.6653974753096e-13,4.6652145397217e-13,3.5668383884768e-13,3.5097733670681e-13,-0.001008998433834,0.0010089984347206,-0.001008998434128,0.0010089984350145,-0.0010089984342815,0.0010089984351545,-0.0010089984345746,0.0010089984354476,-0.00087627326515246,0.00087627326646286,-0.00087627326522592,0.00087627326653628,3.5739138752351e-13,3.496452505629e-13,1.4918851183271e-12,-5.5933785054345e-13,-0.00077843154287711,0.00077843154330522,-0.0010089984334995,0.0010089984350605,-0.0010089984344624,0.0010089984346748,-0.0010089984339472,0.0010089984354935,-0.0010089984349101,0.0010089984351076,-0.00087627326417469,0.00087627326749162,-0.00087627326620484,0.0008762732655062,-0.00079205410515992,0.00079205410512669,-0.00079205410545148,0.00079205410541228,-9.6903510252514e-15,-9.6561167769666e-15,-0.0010319652250625,0.001031965224863,-9.6119566554397e-13,1.0239813357201e-12,-0.0012928750282305,0.0012928750278698,-0.001292875027603,0.0012928750285419,-0.0012928750282529,0.0012928750278922,-0.0012928750276246,0.0012928750285635,-0.00099772540483564,0.00099772540556765,-0.00099772540499978,0.00099772540573164,0.73398852679868,125301,3014,0.0032393175203875,0.0032393175203875,0.0042902003828736,31.490035648724,0.00016712028518979,0.00016712028518979,0.00016712028518979,2525942.0873656,0.010828121678698
35419200,0.99998602335866,0.013062965836453,0.0040324057931851,0.0040324057931851,0.0049981542500824,-0.00078780551459924,0.0007878055132026,-1.368649365172e-13,-1.3684158428941e-13,-2.1420461796066e-13,-2.3206782225203e-13,-0.0010161412618254,0.0010161412612697,-0.0010161412622745,0.0010161412617188,-0.0010161412624821,0.0010161412619138,-0.0010161412629294,0.0010161412623611,-0.00088553283381339,0.00088553283373277,-0.00088553283385854,0.000885532833778,-2.1325530045431e-13,-2.3361222543922e-13,7.8268672089176e-13,-1.0568032912121e-12,-0.0007878055145995,0.00078780551320239,-0.0010161412615301,0.0010161412615748,-0.0010161412625693,0.001016141261414,-0.0010161412621867,0.0010161412622172,-0.0010161412632259,0.0010161412620563,-0.00088553283294123,0.0008855328346616,-0.00088553283473175,0.00088553283284787,-0.00080120103489714,0.00080120103359704,-0.00080120103511321,0.00080120103379141,-4.5255205719824e-13,-4.525632333274e-13,-0.0010420801268065,0.0010420801252456,-1.2896761748075e-12,4.768047721768e-13,-0.0013003910328951,0.0013003910315365,-0.0013003910325948,0.0013003910323875,-0.0013003910331705,0.0013003910318119,-0.0013003910328657,0.0013003910326584,-0.0010074838378485,0.001007483837485,-0.0010074838380064,0.0010074838376428,0.64952121200817,125301,3014,0.0032782302131847,0.0032782302131848,0.0043321516793977,35.945825116573,0.00020276660093259,0.00020276660093259,0.00020276660093259,2548356.5680681,0.010949174735044
36419200,0.99999180056778,0.013063046543878,0.0040324327938652,0.0040324327938653,0.0049981809561472,-0.00079184373847825,0.0007918437393556,6.1063149268588e-13,6.1065787423288e-13,4.9560458020851e-13,4.9452548082131e-13,-0.0010181005285353,0.0010181005297813,-0.0010181005287886,0.0010181005300346,-0.0010181005289281,0.0010181005301614,-0.0010181005291811,0.0010181005304145,-0.00088971592901901,0.00088971593066392,-0.00088971592910083,0.00088971593074583,4.9638035105772e-13,4.9320620678599e-13,1.543389157506e-12,-3.2256688098243e-13,-0.00079184373847848,0.00079184373935538,-0.0010181005282289,0.0010181005300902,-0.0010181005290948,0.0010181005297259,-0.0010181005286221,0.0010181005304696,-0.0010181005294881,0.0010181005301052,-0.00088971592813048,0.00088971593159964,-0.00088971592999051,0.00088971592980898,-0.00080493361710305,0.00080493361745956,-0.0008049336174047,0.00080493361776225,9.3715401764687e-14,9.3699431664328e-14,-0.0010479961571476,0.0010479961572695,-7.7114363326781e-13,1.0338537694182e-12,-0.0013039409015536,0.0013039409015175,-0.0013039409009211,0.0013039409020663,-0.0013039409015118,0.0013039409014757,-0.0013039409008798,0.0013039409020249,-0.0010127816441386,0.0010127816450488,-0.0010127816442999,0.0010127816452101,0.6811981079479,125301,3014,0.0032949891064722,0.0032949891064722,0.004356679457964,37.486239726016,0.00021508991780812,0.00021508991780812,0.00021508991780812,2592583.9630819,0.011007835988722
37419200,0.99999521148341,0.013063092279388,0.0040324480798531,0.0040324480798531,0.0049981961196819,-0.00079193662462384,0.00079193662657021,9.6641559431403e-13,9.6644806391034e-13,8.3211802054213e-13,8.3782474326449e-13,-0.0010196526110451,0.0010196526131339,-0.0010196526112094,0.0010196526132982,-0.0010196526113174,0.0010196526133931,-0.0010196526114819,0.0010196526135577,-0.00088953226753638,0.00088953226999954,-0.0008895322676337,0.00088953227009694,8.328210065055e-13,8.3657904051103e-13,1.9652991167919e-12,-3.2904808228535e-14,-0.00079193662462408,0.00079193662657,-0.0010196526107143,0.0010196526134647,-0.0010196526115399,0.0010196526129677,-0.0010196526109873,0.0010196526137234,-0.001019652611813,0.0010196526132264,-0.00088953226658191,0.00088953227099793,-0.00088953226858928,0.00088953226909748,-0.00080514536180847,0.00080514536290708,-0.00080514536215469,0.00080514536326274,3.5536964370132e-13,3.5534652676047e-13,-0.0010466648048728,0.0010466648057926,-5.8033753579252e-13,1.3607309158987e-12,-0.0013042084447597,0.001304208445305,-0.0013042084439349,0.0013042084457536,-0.0013042084445716,0.0013042084451169,-0.0013042084437496,0.0013042084455681,-0.001011857749959,0.0010118577515167,-0.0010118577501256,0.0010118577516832,0.65495763090949,125301,3014,0.0032953821614524,0.0032953821614525,0.0043511698840604,37.681166277216,0.00021664933021773,0.00021664933021773,0.00021664933021773,2553947.9361221,0.011003079296225
38419200,0.9999971718404,0.013063121602164,0.0040324578842566,0.0040324578842567,0.0049982058336503,-0.00079085128586556,0.00079085128834867,1.1432674563169e-12,1.1433031316977e-12,9.9999971540101e-13,1.0099271621243e-12,-0.0010182974428753,0.0010182974453931,-0.0010182974429937,0.0010182974455115,-0.0010182974430853,0.0010182974455901,-0.0010182974432042,0.001018297445709,-0.00088854340276526,0.00088854340563549,-0.00088854340287126,0.00088854340574162,1.0007051277465e-12,1.0086937788475e-12,2.2115472324082e-12,7.4573051319425e-14,-0.00079085128586579,0.00079085128834846,-0.0010182974425207,0.0010182974457469,-0.0010182974433481,0.001018297445158,-0.0010182974427316,0.0010182974459436,-0.001018297443559,0.0010182974453546,-0.00088854340174242,0.00088854340670116,-0.00088854340389519,0.00088854340467488,-0.00080408834420218,0.00080408834564806,-0.00080408834456923,0.00080408834603023,4.9265830256821e-13,4.9263362685145e-13,-0.0010458352537544,0.0010458352550863,-5.1385971370318e-13,1.5670445984514e-12,-0.0013030687086679,0.0013030687094994,-0.0013030687077214,0.0013030687099198,-0.0013030687084049,0.0013030687092364,-0.0013030687074623,0.0013030687096606,-0.0010110069988084,0.001011007000726,-0.0010110069989745,0.001011007000892,0.72891346290552,125301,3014,0.0032908735735295,0.0032908735735296,0.004347725209642,37.194176559674,0.00021275341247739,0.00021275341247739,0.00021275341247739,2562154.2086534,0.01099047663522
38880000,0.9999978564748,0.013063132071399,0.0040324613840632,0.0040324613840632,0.0049982093032722,-0.00078993066517405,0.00078993066728412,1.0212784477033e-12,1.0213195052725e-12,8.8348992175405e-13,8.8936059535018e-13,-0.0010195630997363,0.0010195631019434,-0.0010195630998877,0.0010195631020948,-0.0010195630999935,0.0010195631021869,-0.001019563100145,0.0010195631023385,-0.0008872811714931,0.00088728117408405,-0.00088728117159202,0.00088728117418308,8.842229633537e-13,8.8808103701334e-13,2.1269643255491e-12,-8.484016496969e-14,-0.00078993066517428,0.0007899306672839,-0.001019563099371,0.0010195631023098,-0.0010195631002527,0.0010195631017286,-0.0010195630996289,0.0010195631025528,-0.0010195631005106,0.0010195631019716,-0.00088728117043467,0.00088728117518801,-0.00088728117265159,0.00088728117307801,-0.00080344756516494,0.00080344756631472,-0.00080344756552069,0.00080344756667931,4.0615779804042e-13,4.0612715191782e-13,-0.0010424742099062,0.001042474210976,-6.3377913848236e-13,1.5185307422811e-12,-0.0013021771630344,0.001302177163619,-0.0013021771621202,0.0013021771641181,-0.0013021771628269,0.0013021771634114,-0.0013021771619155,0.0013021771639134,-0.0010083513954052,0.0010083513971503,-0.0010083513955742,0.0010083513973194,0.74537476942469,125301,3014,0.003287060047418,0.003287060047418,0.0043338025409809,37.193611324063,0.00021274889059251,0.00021274889059251,0.00021274889059251,2503425.1029995,0.010968715639128
