time,ASR_ext,ASR_strain,ASR_strain_xx,ASR_strain_yy,ASR_strain_zz,disp_x_101,disp_x_102,disp_x_103,disp_x_104,disp_x_105,disp_x_106,disp_x_p1_neg,disp_x_p1_pos,disp_x_p2_neg,disp_x_p2_pos,disp_x_p3_neg,disp_x_p3_pos,disp_x_p4_neg,disp_x_p4_pos,disp_x_p5_neg,disp_x_p5_pos,disp_x_p6_neg,disp_x_p6_pos,disp_y_101,disp_y_102,disp_y_103,disp_y_104,disp_y_105,disp_y_106,disp_y_p1_neg,disp_y_p1_pos,disp_y_p2_neg,disp_y_p2_pos,disp_y_p3_neg,disp_y_p3_pos,disp_y_p4_neg,disp_y_p4_pos,disp_y_p5_neg,disp_y_p5_pos,disp_y_p6_neg,disp_y_p6_pos,disp_y_p7_neg,disp_y_p7_pos,disp_y_p8_neg,disp_y_p8_pos,disp_z_101,disp_z_102,disp_z_103,disp_z_104,disp_z_105,disp_z_106,disp_z_p1_neg,disp_z_p1_pos,disp_z_p2_neg,disp_z_p2_pos,disp_z_p3_neg,disp_z_p3_pos,disp_z_p4_neg,disp_z_p4_pos,disp_z_p5_neg,disp_z_p5_pos,disp_z_p6_neg,disp_z_p6_pos,humidity,ndof,nelem,strain_xx,strain_yy,strain_zz,temp,thermal_strain_xx,thermal_strain_yy,thermal_strain_zz,vonmises,vstrain
2419200,0,0,0,0,0,0,0,0,0,0,0,0,0,0,0,0,0,0,0,0,0,0,0,0,0,0,0,0,0,0,0,0,0,0,0,0,0,0,0,0,0,0,0,0,0,0,0,0,0,0,0,0,0,0,0,0,0,0,0,0,0,0,0,0,0,0,0,0,0,0,0,0,0,0,0
3419200,0.15948182796198,0.00265736170963,0.00088578723654333,0.00088578723654333,0.00088578723654333,-0.00025819942959015,0.00025819942958888,-6.8116301446689e-16,-5.8200427899231e-16,1.2557851660369e-15,-2.5758220456987e-15,-0.00026105256631477,0.00026105256631473,-0.00026105256815277,0.0002610525681528,-0.00026105256632543,0.0002610525663229,-0.00026105256814455,0.00026105256814208,-0.00025164528771259,0.00025164528770996,-0.00025164528856689,0.00025164528856445,-1.2545866732383e-15,2.5763027295436e-15,-1.305222075092e-12,1.3064872853205e-12,-0.00025819942958888,0.00025819942959015,-0.00026105256681672,0.00026105256589734,-0.00026105256765076,0.00026105256857013,-0.00026105256681549,0.00026105256589863,-0.00026105256764953,0.00026105256857142,-0.00025164528904157,0.00025164528650494,-0.00025164528723285,0.00025164528977456,-0.00025783738925746,0.00025783739014259,-0.00025783738925372,0.00025783739014642,-5.6391295441515e-12,-5.6392287254334e-12,-0.00023234319294971,0.00023234317705678,-4.2131880657319e-12,-6.9158855038569e-12,-0.00023747177454288,0.00023747176286347,-0.00023747177545886,0.0002374717619475,-0.00023747177454292,0.00023747176286343,-0.00023747177545889,0.00023747176194746,-0.00023805735494168,0.0002380573417394,-0.00023805735494159,0.0002380573417395,0.75746877217741,120135,2834,0.0010752496589351,0.0010752496589351,0.0009676315375741,31.856358299776,0.00017005086639821,0.00017005086639821,0.00017005086639821,1694405.3023433,0.0031229990584673
4419200,0.35107102168679,0.005722020563387,0.0019849850769289,0.0019849850769289,0.0017520504095292,-0.0005313973343767,0.00053139733437344,-1.6530230306929e-15,-1.5929219255639e-15,4.1140654945937e-16,-3.7307830859612e-15,-0.00054403058893651,0.00054403058893461,-0.00054403059384264,0.00054403059384079,-0.00054403058897209,0.00054403058896748,-0.00054403059380972,0.00054403059380515,-0.00050205609059459,0.0005020560905899,-0.00050205609315107,0.0005020560931465,-4.0501703877219e-16,3.7364301158839e-15,-2.2108184579691e-12,2.2140747880056e-12,-0.00053139733437344,0.0005313973343767,-0.00054403058982109,0.00054403058825226,-0.00054403059295426,0.00054403059452686,-0.00054403058981976,0.00054403058825364,-0.00054403059295293,0.00054403059452825,-0.0005020560928412,0.00050205608855048,-0.00050205609089518,0.00050205609519519,-0.00053289870267375,0.00053289870420737,-0.00053289870266979,0.00053289870421147,-1.0141106788578e-11,-1.0141167326652e-11,-0.00041820777775399,0.00041820775140058,-7.6366963438746e-12,-1.2307199229394e-11,-0.00043093022875512,0.0004309302071901,-0.00043093023034196,0.00043093020560325,-0.00043093022875514,0.00043093020719009,-0.00043093023034199,0.00043093020560323,-0.00044548665466123,0.00044548663153713,-0.00044548665466116,0.00044548663153717,0.73992840791513,120135,2834,0.0022116866267879,0.0022116866267879,0.0017410861596758,33.60518070072,0.00018404144560576,0.00018404144560576,0.00018404144560576,3067343.2071087,0.0061835110399193
5419200,0.55142712494882,0.0088279022218208,0.0031604715539893,0.0031604715539893,0.0025069591138423,-0.00082629743951117,0.00082629743950887,-1.1661702566521e-15,-1.1396122444517e-15,5.3371898936888e-16,-2.8558245212271e-15,-0.00085324409094879,0.00085324409094762,-0.00085324409392207,0.00085324409392093,-0.00085324409098202,0.00085324409097862,-0.00085324409389104,0.00085324409388765,-0.00076149893586819,0.00076149893586471,-0.00076149893637757,0.00076149893637414,-5.256898228897e-16,2.8661019531226e-15,-5.7675621867127e-13,5.7907932790638e-13,-0.00082629743950887,0.00082629743951117,-0.0008532440911535,0.00085324409078033,-0.00085324409371504,0.00085324409409055,-0.00085324409115239,0.00085324409078145,-0.00085324409371393,0.00085324409409168,-0.00076149893638243,0.00076149893528577,-0.00076149893585644,0.00076149893696005,-0.00083348673775732,0.00083348673821287,-0.00083348673775404,0.00083348673821617,-3.7134947327608e-12,-3.7135279072127e-12,-0.00057370190387365,0.00057370189233619,-3.0012617252792e-12,-4.3118272913419e-12,-0.00059556150386523,0.00059556149397338,-0.00059556150430059,0.00059556149353802,-0.00059556150386524,0.00059556149397336,-0.0005955615043006,0.00059556149353801,-0.0006326429089129,0.00063264290030394,-0.00063264290891283,0.00063264290030393,0.72499638738019,120135,2834,0.0034369139986839,0.0034369139986839,0.002387889783422,36.27569559134,0.00020540556473072,0.00020540556473072,0.00020540556473072,3685176.877853,0.0093047745950886
6419200,0.70770747169368,0.010812434381184,0.0039375993705071,0.0039375993705071,0.0029372356401699,-0.0010214024320287,0.0010214024320258,-1.45251445021e-15,-1.451985054618e-15,4.0809047429261e-16,-3.358970915156e-15,-0.0010670543890119,0.0010670543890102,-0.0010670543911958,0.0010670543911942,-0.0010670543890363,0.0010670543890322,-0.0010670543911738,0.0010670543911697,-0.00091900894328829,0.00091900894328412,-0.00091900894388669,0.00091900894388251,-4.029582781365e-16,3.3660086712052e-15,-9.6698189548818e-14,9.9614537726604e-14,-0.0010214024320258,0.0010214024320287,-0.0010670543890393,0.0010670543889952,-0.0010670543911651,0.0010670543912126,-0.0010670543890381,0.0010670543889964,-0.0010670543911638,0.0010670543912138,-0.0009190089433286,0.00091900894317016,-0.00091900894383807,0.00091900894400487,-0.0010301900167945,0.0010301900169209,-0.0010301900167908,0.0010301900169246,-2.9452718443943e-12,-2.9452787590498e-12,-0.00064588360255349,0.00064588359412953,-2.7529435906395e-12,-3.0590865028895e-12,-0.00067770498177417,0.0006777049740493,-0.00067770498187292,0.00067770497395053,-0.00067770498177417,0.0006777049740493,-0.00067770498187292,0.00067770497395053,-0.00072898999931,0.00072898999300521,-0.00072898999930996,0.00072898999300519,0.59839168540088,120135,2834,0.0042466628243715,0.0042466628243715,0.0026882364000831,36.74003536121,0.00020912028288968,0.00020912028288968,0.00020912028288968,3842480.0412984,0.011244391237179
7419200,0.83283029622936,0.012204458427726,0.0044823491590743,0.0044823491590743,0.0032397601095771,-0.0011668373444665,0.0011668373444635,-1.4639846880374e-15,-1.5469821525218e-15,6.7036187384609e-16,-3.7271508439825e-15,-0.0012297320029414,0.0012297320029399,-0.0012297320052504,0.0012297320052489,-0.0012297320029665,0.0012297320029621,-0.0012297320052282,0.0012297320052237,-0.0010318635223282,0.0010318635223238,-0.0010318635231522,0.0010318635231476,-6.6092098578815e-16,3.7362887771411e-15,-4.6970135234776e-14,4.9989774317297e-14,-0.0011668373444635,0.0011668373444665,-0.0012297320029689,0.0012297320029449,-0.0012297320052198,0.0012297320052469,-0.0012297320029675,0.0012297320029463,-0.0012297320052184,0.0012297320052484,-0.0010318635223419,0.0010318635222823,-0.0010318635231295,0.0010318635231981,-0.0011767059041891,0.0011767059042831,-0.0011767059041849,0.0011767059042874,-3.9596909181793e-12,-3.9596123600898e-12,-0.00069272592538059,0.00069272591417534,-3.7906711240698e-12,-4.0109914669639e-12,-0.00072984213542416,0.00072984212563901,-0.00072984213549892,0.00072984212556425,-0.00072984213542414,0.00072984212563904,-0.00072984213549889,0.00072984212556428,-0.00079707268577072,0.0007970726772595,-0.00079707268577077,0.00079707267725938,0.52694121020036,120135,2834,0.0048498254757921,0.0048498254757921,0.0028832436213342,40.77461165286,0.00024139689322288,0.00024139689322288,0.00024139689322288,3717671.0264805,0.012662529054865
8419200,0.90823324644522,0.012956222470594,0.0047741561753214,0.0047741561753214,0.0034079101199511,-0.0012448532712988,0.0012448532712959,-1.4337797284252e-15,-1.5139537497522e-15,5.6727678773059e-16,-3.5550090439728e-15,-0.0013176401556166,0.001317640155615,-0.0013176401572863,0.0013176401572847,-0.0013176401556386,0.0013176401556343,-0.0013176401572669,0.0013176401572626,-0.0010898461976995,0.0010898461976952,-0.0010898461984257,0.0010898461984213,-5.5404189792974e-16,3.5690140733898e-15,3.3307604212687e-13,-3.3011195207117e-13,-0.0012448532712958,0.0012448532712988,-0.0013176401554978,0.0013176401557417,-0.0013176401574019,0.0013176401571612,-0.0013176401554965,0.0013176401557431,-0.0013176401574006,0.0013176401571625,-0.0010898461973277,0.0010898461980061,-0.0010898461987888,0.0010898461981191,-0.0012561910721749,0.0012561910720102,-0.0012561910721709,0.0012561910720142,-2.2892535764211e-12,-2.2891788612748e-12,-0.00070402950856608,0.00070402950222595,-2.5382340028112e-12,-1.9670517020384e-12,-0.0007462372476082,0.0007462372414853,-0.00074623724741444,0.00074623724167904,-0.00074623724760818,0.00074623724148532,-0.00074623724741443,0.00074623724167907,-0.00082200737242868,0.00082200736789162,-0.00082200737242871,0.0008220073678915,0.47156008474719,120135,2834,0.0051732061195304,0.0051732061195305,0.0029305112626918,41.435491960329,0.00024668393568263,0.00024668393568263,0.00024668393568263,3400497.3246603,0.013365630914572
9419200,0.94994049986783,0.013315713110631,0.0049123205206395,0.0049123205206395,0.0034910720693523,-0.001282358791172,0.0012823587911691,-1.3818401386735e-15,-1.5158360451905e-15,5.1851357153102e-16,-3.4572473246439e-15,-0.0013605348294025,0.001360534829401,-0.0013605348307729,0.0013605348307713,-0.0013605348294236,0.0013605348294194,-0.0013605348307544,0.0013605348307502,-0.0011158811198962,0.0011158811198921,-0.0011158811205765,0.0011158811205722,-5.0745508583075e-16,3.4689910490613e-15,7.2200548677118e-13,-7.1909812947222e-13,-0.0012823587911691,0.001282358791172,-0.0013605348291494,0.0013605348296558,-0.0013605348310228,0.0013605348305196,-0.0013605348291481,0.0013605348296571,-0.0013605348310215,0.0013605348305209,-0.0011158811191408,0.0011158811205796,-0.0011158811213235,0.0011158811198932,-0.0012947851297814,0.001294785129356,-0.0012947851297775,0.0012947851293599,-1.5579169333615e-12,-1.5577880871138e-12,-0.00070122870838275,0.000701228704128,-2.2059140814273e-12,-8.4697815481053e-13,-0.00074729752086683,0.00074729751620206,-0.00074729752040938,0.0007472975166595,-0.00074729752086679,0.00074729751620212,-0.00074729752040934,0.00074729751665955,-0.00082695989581111,0.00082695989315059,-0.0008269598958112,0.00082695989315042,0.40621133923259,120135,2834,0.0053286158682602,0.0053286158682602,0.0029190822585203,41.144506075316,0.00024435604860253,0.00024435604860253,0.00024435604860253,3118766.1416941,0.013669094391301
10419200,0.97079031557404,0.013509917759283,0.0049857601146836,0.0049857601146836,0.0035383975299161,-0.0012968425114316,0.0012968425114287,-1.3774285087399e-15,-1.4858957833744e-15,4.9389667650144e-16,-3.3989549877877e-15,-0.0013772937681173,0.0013772937681158,-0.0013772937688369,0.0013772937688353,-0.001377293768136,0.0013772937681319,-0.0013772937688208,0.0013772937688166,-0.0011245558388882,0.0011245558388841,-0.0011245558394341,0.0011245558394298,-4.7610310243586e-16,3.4134506961486e-15,1.3925757092041e-12,-1.3896696384582e-12,-0.0012968425114287,0.0012968425114316,-0.001377293767624,0.0013772937685895,-0.0013772937693271,0.0013772937683647,-0.0013772937676227,0.0013772937685908,-0.0013772937693258,0.001377293768366,-0.0011245558374631,0.0011245558402112,-0.0011245558408508,0.0011245558381112,-0.0013103812360837,0.0013103812352071,-0.0013103812360799,0.0013103812352109,1.8611397593816e-13,1.8621625239778e-13,-0.00069352924475497,0.00069352924540456,-1.1650659227417e-12,1.5627401123035e-12,-0.00074106353138899,0.00074106353030614,-0.00074106353047119,0.00074106353122393,-0.00074106353138896,0.00074106353030618,-0.00074106353047116,0.00074106353122395,-0.00082407417436219,0.00082407417599095,-0.00082407417436226,0.00082407417599084,0.43665130715676,120135,2834,0.0053886181586275,0.0053886181586275,0.0028872127181166,38.090197728774,0.00021992158183019,0.00021992158183019,0.00021992158183019,2975102.7243563,0.013758445266767
11419200,0.98283329611578,0.013613972933026,0.0050249766561715,0.0050249766561715,0.0035640196206828,-0.0013087727660841,0.0013087727660812,-1.357370297975e-15,-1.4755431584635e-15,4.7863243693113e-16,-3.3582503489335e-15,-0.0013897714251533,0.0013897714251518,-0.0013897714263824,0.0013897714263809,-0.0013897714251759,0.0013897714251718,-0.0013897714263624,0.0013897714263583,-0.0011339706480382,0.0011339706480342,-0.0011339706486789,0.0011339706486746,-4.6769159469576e-16,3.3718183512602e-15,1.6105822200384e-12,-1.6077267821092e-12,-0.0013087727660812,0.0013087727660841,-0.0013897714246166,0.001389771425706,-0.0013897714269161,0.0013897714258298,-0.0013897714246153,0.0013897714257073,-0.0013897714269148,0.001389771425831,-0.0011339706464226,0.0011339706496055,-0.0011339706502862,0.0011339706471116,-0.0013231120522292,0.0013231120512141,-0.0013231120522255,0.0013231120512178,-1.1641264539694e-12,-1.1640131754906e-12,-0.00068775995152036,0.00068775994833445,-2.6816617388394e-12,4.439709222872e-13,-0.00073990491466387,0.00073990491025605,-0.0007399049136207,0.00073990491129921,-0.00073990491466383,0.00073990491025609,-0.00073990491362067,0.00073990491129925,-0.00082025914996776,0.00082025914875758,-0.00082025914996785,0.00082025914875744,0.40445605707229,120135,2834,0.0054380195784228,0.0054380195784228,0.0028633564418314,37.626520096399,0.00021621216077119,0.00021621216077119,0.00021621216077119,2774061.7455694,0.013834438145888
12419200,0.98973951348548,0.013681066692344,0.0050499986005133,0.0050499986005133,0.0035810694913171,-0.0013143012393933,0.0013143012393905,-1.3610760671193e-15,-1.4745431890119e-15,4.8098530622906e-16,-3.3508976323775e-15,-0.0013960855214923,0.0013960855214908,-0.0013960855226184,0.0013960855226168,-0.0013960855215148,0.0013960855215107,-0.0013960855225985,0.0013960855225944,-0.0011372156053172,0.0011372156053132,-0.0011372156059386,0.0011372156059343,-4.7098561171286e-16,3.3609954971483e-15,1.7788167678012e-12,-1.7759642528641e-12,-0.0013143012393905,0.0013143012393934,-0.0013960855208986,0.0013960855221009,-0.001396085523209,0.0013960855220099,-0.0013960855208974,0.0013960855221022,-0.0013960855232077,0.0013960855220111,-0.0011372156035363,0.0011372156070486,-0.0011372156077113,0.0011372156042072,-0.0013291309260754,0.0013291309249478,-0.0013291309260717,0.0013291309249516,-9.1210562953762e-13,-9.1199793320681e-13,-0.00068429489538413,0.00068429489292671,-2.6000050275135e-12,8.6448648759004e-13,-0.00073701404117239,0.00073701403724834,-0.00073701404001611,0.00073701403840461,-0.00073701404117236,0.00073701403724838,-0.00073701404001608,0.00073701403840465,-0.00081886808089114,0.00081886808035695,-0.0008188680808912,0.00081886808035679,0.45322610794666,120135,2834,0.0054609188925273,0.0054609188925273,0.0028490126869057,36.801457722973,0.00020961166178378,0.00020961166178378,0.00020961166178378,2703321.4420007,0.013866329665445
13419200,0.99359605513701,0.013715384928335,0.0050627981951634,0.0050627981951634,0.0035897885380081,-0.0013157271683851,0.0013157271683822,-1.3674288142237e-15,-1.4677786897803e-15,4.8816155758774e-16,-3.3593091401176e-15,-0.0013973660714093,0.0013973660714078,-0.0013973660722683,0.0013973660722667,-0.0013973660714309,0.0013973660714268,-0.0013973660722493,0.0013973660722451,-0.0011379552487127,0.0011379552487087,-0.0011379552492459,0.0011379552492416,-4.7445609392731e-16,3.3743681929415e-15,2.0576690228959e-12,-2.0547941796542e-12,-0.0013157271683822,0.0013157271683851,-0.0013973660707164,0.0013973660721091,-0.0013973660729581,0.0013973660715685,-0.0013973660707152,0.0013973660721104,-0.0013973660729568,0.0013973660715698,-0.0011379552466535,0.0011379552507105,-0.0011379552512968,0.0011379552472482,-0.0013309963030797,0.0013309963017646,-0.001330996303076,0.0013309963017684,-1.6296111769751e-13,-1.6286643630687e-13,-0.0006758070913207,0.00067580709097693,-2.1417321303771e-12,1.8905326572897e-12,-0.0007320962039262,0.00073209620144404,-0.00073209620257919,0.00073209620279104,-0.00073209620392617,0.00073209620144408,-0.00073209620257915,0.00073209620279107,-0.00081098387079939,0.00081098387211184,-0.00081098387079947,0.00081098387211173,0.4150894025916,120135,2834,0.0054667986411378,0.0054667986411378,0.0028138186895234,34.787794541069,0.00019350235632855,0.00019350235632855,0.00019350235632855,2578907.4141752,0.013842578718985
14419200,0.9958230136985,0.013733695364076,0.0050696049048786,0.0050696049048787,0.0035944855543192,-0.0013133281268705,0.0013133281268676,-1.3618407496411e-15,-1.4604259732243e-15,4.6445639941111e-16,-3.3431037528281e-15,-0.0013957204835988,0.0013957204835972,-0.0013957204844083,0.0013957204844067,-0.0013957204836207,0.0013957204836167,-0.0013957204843888,0.0013957204843848,-0.0011339105342911,0.0011339105342871,-0.0011339105348304,0.0011339105348262,-4.6251528224032e-16,3.3464111540871e-15,2.2996313556072e-12,-2.2967868200333e-12,-0.0013133281268676,0.0013133281268705,-0.0013957204828279,0.0013957204843799,-0.0013957204851761,0.0013957204836271,-0.0013957204828267,0.0013957204843812,-0.0013957204851748,0.0013957204836284,-0.0011339105319971,0.001133910536529,-0.0011339105371162,0.0011339105325925,-0.0013287635707746,0.0013287635692989,-0.0013287635707709,0.0013287635693026,-5.017461649908e-14,-5.0080793595544e-14,-0.00067004960406296,0.00067004960404284,-2.2670563900423e-12,2.2473767559475e-12,-0.00072548910509281,0.0007254891027582,-0.00072548910358579,0.0007254891042652,-0.00072548910509279,0.00072548910275824,-0.00072548910358576,0.00072548910426524,-0.00080662892793574,0.00080662892965879,-0.00080662892793583,0.00080662892965869,0.38312450045663,120135,2834,0.0054568594146648,0.0054568594146648,0.0027899123341799,32.6366470035,0.000176293176028,0.000176293176028,0.000176293176028,2570998.2783605,0.013798187110585
15419200,0.99698220675994,0.013746431644594,0.0050743064322122,0.0050743064322122,0.0035978187801696,-0.001304025322665,0.0013040253226622,-1.3666641317018e-15,-1.4441323533361e-15,4.5839776096894e-16,-3.3131929018782e-15,-0.0013867777667578,0.0013867777667562,-0.0013867777668291,0.0013867777668275,-0.0013867777667768,0.0013867777667728,-0.0013867777668125,0.0013867777668084,-0.0011236063104695,0.0011236063104655,-0.0011236063108411,0.001123606310837,-4.4922157070702e-16,3.323178350506e-15,2.9422505687004e-12,-2.9394173388474e-12,-0.0013040253226622,0.001304025322665,-0.0013867777657515,0.0013867777677475,-0.0013867777678322,0.0013867777658393,-0.0013867777657503,0.0013867777677487,-0.001386777767831,0.0013867777658406,-0.0011236063075292,0.0011236063133146,-0.0011236063137733,0.0011236063079961,-0.0013196932028038,0.0013196932008945,-0.0013196932028002,0.0013196932008982,1.9597309707759e-12,1.9598035411118e-12,-0.000657736360286,0.00065773636593238,-9.3977646694461e-13,4.8926174309547e-12,-0.00071286226246215,0.00071286226429119,-0.0007128622605108,0.00071286226624252,-0.00071286226246213,0.00071286226429122,-0.00071286226051078,0.00071286226624254,-0.00079529500160246,0.00079529500819225,-0.00079529500160251,0.00079529500819216,0.51103778709309,120135,2834,0.0054183073691315,0.0054183073691315,0.0027387638698994,27.051280550422,0.00013161024440338,0.00013161024440338,0.00013161024440338,2584017.8871959,0.013668172847768
16419200,0.99772687907027,0.013753874679947,0.0050770670325931,0.0050770670325932,0.0035997406147608,-0.0013024972483069,0.001302497248304,-1.3928398026413e-15,-1.4543673347821e-15,4.8424991237993e-16,-3.3773085902467e-15,-0.0013842238974975,0.001384223897496,-0.0013842238982079,0.0013842238982063,-0.0013842238975206,0.0013842238975166,-0.0013842238981872,0.0013842238981831,-0.0011229371231675,0.0011229371231635,-0.0011229371236401,0.0011229371236359,-4.7463255912465e-16,3.3857134920305e-15,3.0219611177431e-12,-3.0191179996352e-12,-0.001302497248304,0.0013024972483069,-0.0013842238964952,0.0013842238985217,-0.001384223899207,0.0013842238971836,-0.0013842238964939,0.001384223898523,-0.0013842238992058,0.0013842238971849,-0.0011229371201729,0.0011229371261229,-0.0011229371266266,0.0011229371206848,-0.0013185279602683,0.0013185279583133,-0.0013185279602646,0.0013185279583171,3.2382490614208e-13,3.2388445849329e-13,-0.00064620041279396,0.0006462004137852,-2.600349090532e-12,3.3494948664075e-12,-0.0007071472621828,0.00070714726006517,-0.00070714726019962,0.00070714726204833,-0.00070714726218278,0.00070714726006521,-0.0007071472601996,0.00070714726204834,-0.00078315904186087,0.00078315904488636,-0.0007831590418609,0.00078315904488629,0.46538451425637,120135,2834,0.0054119305312012,0.0054119305312012,0.0026909138923713,24.40954049785,0.0001104763239828,0.0001104763239828,0.0001104763239828,2424538.9925748,0.013606755489678
17419200,0.99822704218222,0.013759528919018,0.0050791478925088,0.0050791478925088,0.0036012331340008,-0.0012978450924669,0.0012978450924641,-1.3729580570738e-15,-1.436367884653e-15,4.5016271842619e-16,-3.3046931615394e-15,-0.0013805592370246,0.001380559237023,-0.0013805592377535,0.001380559237752,-0.001380559237048,0.001380559237044,-0.0013805592377325,0.0013805592377285,-0.0011163345510752,0.0011163345510712,-0.001116334551584,0.0011163345515799,-4.4239824974303e-16,3.3106828682639e-15,3.0479206965938e-12,-3.0451169057541e-12,-0.0012978450924641,0.0012978450924669,-0.0013805592360158,0.0013805592380581,-0.0013805592387591,0.00138055923672,-0.0013805592360146,0.0013805592380594,-0.0013805592387579,0.0013805592367212,-0.0011163345480571,0.0011163345540586,-0.001116334554594,0.0011163345486007,-0.0013139924928977,0.001313992490926,-0.0013139924928941,0.0013139924909297,2.0800876553474e-13,2.0806723192418e-13,-0.00064007416628319,0.00064007416697513,-2.7391417475704e-12,3.2616010956195e-12,-0.00069888363015816,0.00069888362786367,-0.0006988836281586,0.00069888362986321,-0.00069888363015815,0.00069888362786371,-0.00069888362815858,0.00069888362986324,-0.00077874613532915,0.00077874613812139,-0.0007787461353292,0.00077874613812131,0.52521873377382,120135,2834,0.0053926626857771,0.0053926626857771,0.0026654567604828,21.972225375595,9.0977803004761e-05,9.0977803004761e-05,9.0977803004761e-05,2443871.1141605,0.013541888727379
18419200,0.99853781131111,0.013762905769426,0.0050803936594846,0.0050803936594846,0.0036021184504569,-0.001291045975756,0.0012910459757532,-1.3694287531269e-15,-1.4167214260153e-15,4.4507463856942e-16,-3.2786351340649e-15,-0.0013735176473852,0.0013735176473837,-0.0013735176476787,0.0013735176476772,-0.0013735176474068,0.0013735176474029,-0.0013735176476595,0.0013735176476555,-0.0011093212573784,0.0011093212573744,-0.0011093212577559,0.0011093212577518,-4.3633961130086e-16,3.2878291891303e-15,3.3334245030262e-12,-3.3306182923386e-12,-0.0012910459757532,0.001291045975756,-0.0013735176462678,0.0013735176485104,-0.0013735176487931,0.0013735176465536,-0.0013735176462666,0.0013735176485116,-0.0013735176487919,0.0013735176465548,-0.0011093212540697,0.0011093212606268,-0.0011093212610564,0.0011093212545074,-0.0013075146334637,0.0013075146312982,-0.0013075146334601,0.0013075146313018,1.4063845639788e-12,1.4064283286976e-12,-0.00062682009257051,0.00062682009666173,-1.8510374520764e-12,4.7400162104643e-12,-0.00068814522706658,0.00068814522721877,-0.00068814522486706,0.00068814522941828,-0.00068814522706657,0.00068814522721879,-0.00068814522486704,0.0006881452294183,-0.0007657467191049,0.00076574672474957,-0.00076574671910494,0.00076574672474953,0.50516361584657,120135,2834,0.0053644639667413,0.0053644639667413,0.0026104259614856,17.471447640037,5.4971581120298e-05,5.4971581120298e-05,5.4971581120298e-05,2371210.9091659,0.013428963858499
19419200,0.99879524190134,0.013766529511824,0.005081721778596,0.005081721778596,0.0036030859546317,-0.0012914041765556,0.0012914041765528,-1.3681934967455e-15,-1.427191694391e-15,4.3966303918419e-16,-3.2777822189444e-15,-0.0013744026845587,0.0013744026845572,-0.0013744026858044,0.0013744026858029,-0.0013744026845852,0.0013744026845813,-0.0013744026857804,0.0013744026857764,-0.0011085632857032,0.0011085632856992,-0.0011085632863456,0.0011085632863415,-4.2986922073156e-16,3.2876206132411e-15,3.0118537391889e-12,-3.009041623638e-12,-0.0012914041765528,0.0012914041765556,-0.0013744026835847,0.0013744026855862,-0.0013744026867754,0.001374402684777,-0.0013744026835834,0.0013744026855874,-0.0013744026867742,0.0013744026847782,-0.0011085632827383,0.0011085632886754,-0.0011085632893025,0.0011085632833735,-0.0013080009367723,0.0013080009348303,-0.0013080009367687,0.0013080009348339,-1.178524351612e-12,-1.1784703514809e-12,-0.00062585144141064,0.00062585143816395,-4.0499789082773e-12,1.8498157099881e-12,-0.00068608570639166,0.00068608570097473,-0.00068608570443113,0.00068608570293525,-0.00068608570639165,0.00068608570097475,-0.00068608570443111,0.00068608570293527,-0.0007657412807116,0.00076574128040558,-0.00076574128071163,0.00076574128040551,0.65325215552177,120135,2834,0.0053659540303081,0.0053659540303081,0.0026064028836499,17.551642354179,5.5613138833436e-05,5.5613138833436e-05,5.5613138833436e-05,2361834.1732882,0.01342790405861
20419200,0.99901929300663,0.013769909042059,0.0050829615084295,0.0050829615084295,0.0036039860252003,-0.0012961111609343,0.0012961111609316,-1.3740756699903e-15,-1.4074864140209e-15,4.2669284717935e-16,-3.2502242372924e-15,-0.0013782155164624,0.0013782155164608,-0.0013782155179085,0.0013782155179069,-0.0013782155164887,0.0013782155164847,-0.0013782155178845,0.0013782155178805,-0.0011140974990669,0.0011140974990629,-0.00111409749974,0.0011140974997359,-4.1416381816788e-16,3.2616652940259e-15,2.5882989690525e-12,-2.5854996618189e-12,-0.0012961111609316,0.0012961111609344,-0.0013782155156291,0.0013782155173482,-0.0013782155187386,0.0013782155170226,-0.0013782155156279,0.0013782155173494,-0.0013782155187374,0.0013782155170238,-0.0011140974965165,0.001114097501624,-0.0011140975022824,0.0011140974971829,-0.0013130075341924,0.0013130075325331,-0.0013130075341888,0.0013130075325367,-1.7589477277854e-12,-1.7589167074784e-12,-0.00062220337135842,0.00062220336649473,-4.2052157100172e-12,8.4378328182347e-13,-0.00068736945721673,0.00068736945072544,-0.0006873694555395,0.00068736945240267,-0.00068736945721672,0.00068736945072546,-0.00068736945553948,0.00068736945240268,-0.00076144470104522,0.00076144469918022,-0.00076144470104523,0.00076144469918016,0.70012779305903,120135,2834,0.0053854227479401,0.0053854227479401,0.0025913157513748,18.598825234694,6.3990601877552e-05,6.3990601877552e-05,6.3990601877552e-05,2203223.3705267,0.013452085647835
21419200,0.9991716626322,0.013772044208766,0.0050837424192596,0.0050837424192596,0.0036045593702468,-0.0012906343361122,0.0012906343361094,-1.3785461216564e-15,-1.3994866584079e-15,4.2569287772773e-16,-3.2487536939812e-15,-0.001373244806934,0.0013732448069324,-0.0013732448074214,0.0013732448074199,-0.0013732448069556,0.0013732448069517,-0.0013732448074021,0.0013732448073982,-0.0011071271647631,0.0011071271647591,-0.0011071271651745,0.0011071271651704,-4.1422263990033e-16,3.2624790903966e-15,2.839533430616e-12,-2.8367272369889e-12,-0.0012906343361094,0.0012906343361122,-0.0013732448059818,0.0013732448078947,-0.0013732448083705,0.0013732448064607,-0.0013732448059806,0.0013732448078959,-0.0013732448083693,0.0013732448064619,-0.0011071271619388,0.0011071271675284,-0.0011071271679907,0.0011071271624093,-0.0013078085789523,0.0013078085771163,-0.0013078085789487,0.0013078085771199,7.8736376935994e-13,7.8738079899825e-13,-0.00061097650675616,0.0006109765091733,-1.9736140456809e-12,3.6260315507545e-12,-0.00067663108078236,0.00067663107983319,-0.00067663107891334,0.00067663108170219,-0.00067663108078235,0.0006766310798332,-0.00067663107891334,0.0006766310817022,-0.00075155898301607,0.00075155898699494,-0.00075155898301606,0.0007515589869949,0.64990944923706,120135,2834,0.0053627162571082,0.0053627162571082,0.0025446966585592,15.220748067307,3.6965984538456e-05,3.6965984538456e-05,3.6965984538456e-05,2147815.7610329,0.01335882055578
22419200,0.9992978310767,0.013773858307104,0.0050844041146838,0.0050844041146839,0.0036050500777367,-0.0012895598729429,0.0012895598729401,-1.3781343695292e-15,-1.3961926413908e-15,4.1957541755312e-16,-3.2376657974147e-15,-0.0013731334440982,0.0013731334440966,-0.0013731334452159,0.0013731334452144,-0.0013731334441231,0.0013731334441192,-0.0013731334451933,0.0013731334451894,-0.001104205328529,0.001104205328525,-0.0011042053291407,0.0011042053291367,-4.0939925783958e-16,3.2476142526874e-15,2.6707568366251e-12,-2.6679612989225e-12,-0.0012895598729401,0.0012895598729429,-0.0013731334432267,0.001373133445009,-0.0013731334460843,0.0013731334443051,-0.0013731334432255,0.0013731334450102,-0.0013731334460831,0.0013731334443063,-0.0011042053258896,0.0011042053311552,-0.0011042053317722,0.0011042053265146,-0.0013069215695046,0.0013069215677873,-0.0013069215695011,0.0013069215677909,-9.2705849615234e-13,-9.2704582644518e-13,-0.00060943707853335,0.00060943707606912,-3.475722422007e-12,1.7537211897273e-12,-0.00067251485783617,0.00067251485322576,-0.00067251485609633,0.00067251485496558,-0.00067251485783616,0.00067251485322577,-0.00067251485609633,0.00067251485496559,-0.0007515325157508,0.00075153251580068,-0.00075153251575079,0.00075153251580065,0.66642562144511,120135,2834,0.0053582795415025,0.0053582795415025,0.0025382863358955,14.858436539814,3.4067492318509e-05,3.4067492318509e-05,3.4067492318509e-05,2162110.3097716,0.013343326927384
23419200,0.99940988157555,0.013775377676738,0.0050849592459293,0.0050849592459293,0.003605459184879,-0.0012917882796246,0.0012917882796218,-1.3804284170947e-15,-1.402780675425e-15,4.1978129361669e-16,-3.2495477873692e-15,-0.0013753886078472,0.0013753886078456,-0.001375388609226,0.0013753886092244,-0.0013753886078728,0.0013753886078689,-0.0013753886092027,0.0013753886091987,-0.0011061643812315,0.0011061643812275,-0.0011061643819075,0.0011061643819035,-4.1610493533868e-16,3.2548547828728e-15,2.3728002095608e-12,-2.3700081419958e-12,-0.0012917882796218,0.0012917882796246,-0.0013753886070806,0.0013753886086601,-0.0013753886099894,0.001375388608413,-0.0013753886070794,0.0013753886086613,-0.0013753886099882,0.0013753886084142,-0.0011061643788884,0.0011061643835718,-0.0011061643842426,0.0011061643795673,-0.0013093316317591,0.0013093316302419,-0.0013093316317556,0.0013093316302455,-1.6434583461239e-12,-1.6434424998421e-12,-0.00060954976056556,0.00060954975607661,-3.8828399260232e-12,7.4070490138547e-13,-0.00067302674948542,0.00067302674345196,-0.00067302674794886,0.00067302674498851,-0.00067302674948542,0.00067302674345197,-0.00067302674794885,0.00067302674498852,-0.0007518217118779,0.00075182171014242,-0.0007518217118779,0.00075182171014239,0.62875729639221,120135,2834,0.0053675107706906,0.0053675107706906,0.0025387658939315,15.706940896357,4.0855527170856e-05,4.0855527170856e-05,4.0855527170856e-05,2122481.3143788,0.01336252299379
24419200,0.9995156653214,0.01377689015341,0.005085510375183,0.005085510375183,0.0036058694030435,-0.0012957214023599,0.0012957214023571,-1.3830165733224e-15,-1.4110745397002e-15,4.3745722421738e-16,-3.2731058912147e-15,-0.0013797357385787,0.0013797357385772,-0.0013797357402461,0.0013797357402446,-0.0013797357386053,0.0013797357386013,-0.001379735740222,0.001379735740218,-0.0011093824000225,0.0011093824000185,-0.0011093824007743,0.0011093824007702,-4.2351647362715e-16,3.2875589767968e-15,2.0032118498983e-12,-2.0003988083072e-12,-0.0012957214023571,0.0012957214023599,-0.0013797357379415,0.0013797357392702,-0.0013797357408802,0.0013797357395546,-0.0013797357379403,0.0013797357392714,-0.001379735740879,0.0013797357395559,-0.0011093823980465,0.0011093824020072,-0.0011093824027422,0.0011093823987896,-0.0013133155515492,0.0013133155502798,-0.0013133155515456,0.0013133155502834,-2.4445234138303e-12,-2.4445007633561e-12,-0.00061405836709881,0.00061405836035684,-4.3020683982929e-12,-4.2845285223594e-13,-0.00067613328731455,0.00067613327973264,-0.00067613328602942,0.00067613328101775,-0.00067613328731455,0.00067613327973265,-0.00067613328602941,0.00067613328101777,-0.0007568896704956,0.00075688966674422,-0.00075688967049559,0.00075688966674417,0.66255127740754,120135,2834,0.0053838204136651,0.0053838204136651,0.0025574917171932,17.884730671583,5.8277845372668e-05,5.8277845372668e-05,5.8277845372668e-05,2123524.1198416,0.013414552232887
25419200,0.99961210387415,0.013778514041957,0.0050861008751423,0.0050861008751423,0.0036063122916722,-0.0013004321450295,0.0013004321450267,-1.3766050044856e-15,-1.409603996389e-15,4.1525202021818e-16,-3.2321659654308e-15,-0.0013841715151342,0.0013841715151326,-0.0013841715167694,0.0013841715167679,-0.0013841715151597,0.0013841715151558,-0.0013841715167462,0.0013841715167423,-0.0011143931915155,0.0011143931915115,-0.0011143931922557,0.0011143931922517,-4.1045804902365e-16,3.2377413350887e-15,1.7367358974376e-12,-1.7339315773746e-12,-0.0013004321450267,0.0013004321450295,-0.0013841715145789,0.001384171515735,-0.0013841715173216,0.0013841715161687,-0.0013841715145777,0.0013841715157362,-0.0013841715173204,0.0013841715161698,-0.001114393189795,0.0011143931932318,-0.0011143931939681,0.0011143931905394,-0.0013181323802454,0.0013181323791521,-0.0013181323802419,0.0013181323791557,-2.3925450773877e-12,-2.3925162632116e-12,-0.00061670473426315,0.00061670472768965,-3.9947424633598e-12,-6.4697607356035e-13,-0.00068008867535808,0.00068008866806922,-0.00068008867424651,0.00068008866918077,-0.0006800886753581,0.00068008866806925,-0.00068008867424651,0.00068008866918079,-0.0007592477619883,0.00075924775818097,-0.00075924776198828,0.00075924775818087,0.77991302017261,120135,2834,0.0054033328247365,0.0054033328247365,0.0025685072782542,19.92953743832,7.4636299506563e-05,7.4636299506563e-05,7.4636299506563e-05,2069763.3865333,0.013465267977988
26419200,0.99969116685264,0.013779930054272,0.0050866150438948,0.0050866150438948,0.003606699966483,-0.0013030303139269,0.0013030303139241,-1.3650759449257e-15,-1.3989572628159e-15,4.145461594288e-16,-3.2260779161224e-15,-0.0013862027422834,0.0013862027422819,-0.0013862027435718,0.0013862027435703,-0.0013862027423069,0.001386202742303,-0.0013862027435506,0.0013862027435467,-0.0011174873714751,0.0011174873714711,-0.0011174873721142,0.0011174873721102,-4.0257593687559e-16,3.2404746500253e-15,1.7420470617017e-12,-1.7392577014299e-12,-0.0013030303139241,0.0013030303139269,-0.0013862027417112,0.0013862027428819,-0.0013862027441409,0.0013862027429733,-0.00138620274171,0.0013862027428832,-0.0013862027441397,0.0013862027429745,-0.0011174873697373,0.0011174873731803,-0.001117487373844,0.001117487370409,-0.0013208998647566,0.0013208998636561,-0.0013208998647531,0.0013208998636597,-1.4697630173153e-12,-1.4697359535167e-12,-0.00061348964985793,0.00061348964591346,-3.1040297328459e-12,2.7402912859822e-13,-0.00068024345155468,0.00068024344630897,-0.00068024345042933,0.0006802434474343,-0.00068024345155468,0.00068024344630898,-0.00068024345042932,0.00068024344743431,-0.00075566277242069,0.00075566277066972,-0.00075566277242069,0.00075566277066968,0.82922923068302,120135,2834,0.0054140728710035,0.0054140728710035,0.0025551989462963,20.394816731135,7.8358533849077e-05,7.8358533849077e-05,7.8358533849077e-05,1963462.4873234,0.0134735570327
27419200,0.99976012491931,0.013781043361469,0.0050870187306025,0.0050870187306026,0.0036070059002637,-0.0013072048734195,0.0013072048734168,-1.3717228006924e-15,-1.3847224035634e-15,4.094286687058e-16,-3.1880202552284e-15,-0.0013906187066284,0.0013906187066269,-0.0013906187082186,0.0013906187082171,-0.0013906187066533,0.0013906187066495,-0.001390618708196,0.0013906187081921,-0.0011209155469755,0.0011209155469715,-0.0011209155476981,0.0011209155476941,-3.9610554630628e-16,3.206301636083e-15,1.6046127903829e-12,-1.6018274733585e-12,-0.0013072048734168,0.0013072048734196,-0.0013906187061126,0.0013906187071838,-0.0013906187087313,0.0013906187076631,-0.0013906187061114,0.0013906187071851,-0.0013906187087301,0.0013906187076643,-0.0011209155453808,0.0011209155485575,-0.001120915549285,0.0011209155461162,-0.0013252273130735,0.0013252273120672,-0.00132522731307,0.0013252273120708,-2.2933430677583e-12,-2.2933349696027e-12,-0.00061452594518462,0.00061452593890663,-3.7711590583853e-12,-6.8247725372955e-13,-0.00068169978412022,0.00068169977712867,-0.00068169978309381,0.0006816997781551,-0.00068169978412021,0.00068169977712868,-0.00068169978309379,0.00068169977815508,-0.00075730516439031,0.00075730516072011,-0.00075730516439024,0.00075730516072002,0.74718867332313,120135,2834,0.0054313669497916,0.0054313669497917,0.002559528420398,22.255539558447,9.3244316467574e-05,9.3244316467574e-05,9.3244316467574e-05,1903553.3815005,0.013513000107817
28419200,0.99981679537822,0.013782084444029,0.0050873944213269,0.005087394421327,0.0036072956013747,-0.0013086753588992,0.0013086753588965,-1.386369412072e-15,-1.3971926108425e-15,4.2642814938334e-16,-3.2453714443654e-15,-0.0013930717145718,0.0013930717145702,-0.0013930717160089,0.0013930717160074,-0.0013930717145959,0.0013930717145919,-0.0013930717159872,0.0013930717159833,-0.0011206868538065,0.0011206868538024,-0.0011206868545035,0.0011206868544995,-4.1545789628175e-16,3.2562048680073e-15,1.5564587620873e-12,-1.5536580864443e-12,-0.0013086753588965,0.0013086753588993,-0.0013930717140652,0.0013930717151096,-0.0013930717165124,0.0013930717154711,-0.001393071714064,0.0013930717151108,-0.0013930717165112,0.0013930717154723,-0.0011206868522537,0.001120686855334,-0.0011206868560482,0.001120686852976,-0.0013267941824969,0.001326794181521,-0.0013267941824934,0.0013267941815246,-1.9178291974226e-12,-1.917823470633e-12,-0.0006173857867035,0.00061738578152097,-3.359480752522e-12,-3.5833993531389e-13,-0.00068139829100404,0.00068139828493203,-0.00068139829000523,0.00068139828593083,-0.00068139829100404,0.00068139828493204,-0.00068139829000523,0.00068139828593083,-0.00076152664060381,0.00076152663774556,-0.00076152664060378,0.00076152663774552,0.8493285419621,120135,2834,0.0054374827528316,0.0054374827528316,0.0025713872196623,23.443518158137,0.00010274814526509,0.00010274814526509,0.00010274814526509,1935217.3821896,0.013537409159955
29419200,0.99986284232884,0.013782689823107,0.0050876145047768,0.0050876145047768,0.0036074608135538,-0.001312636578468,0.0013126365784652,-1.3934280199658e-15,-1.4383678235562e-15,4.7475020258955e-16,-3.3228984877321e-15,-0.0013963880069551,0.0013963880069536,-0.0013963880084268,0.0013963880084253,-0.0013963880069792,0.0013963880069751,-0.0013963880084052,0.0013963880084011,-0.0011254429565631,0.001125442956559,-0.001125442957258,0.0011254429572538,-4.5386848757043e-16,3.3447573672929e-15,1.5059418030479e-12,-1.5030911790227e-12,-0.0013126365784652,0.0013126365784681,-0.0013963880064655,0.001396388007476,-0.0013963880089134,0.001396388007906,-0.0013963880064642,0.0013963880074773,-0.0013963880089121,0.0013963880079072,-0.0011254429550598,0.0011254429580413,-0.0011254429587532,0.00112544295578,-0.0013309299390001,0.0013309299380578,-0.0013309299389963,0.0013309299380615,-2.0009329655874e-12,-2.0008934329026e-12,-0.0006171241810519,0.00061712417562386,-3.3915116122365e-12,-4.9216642053604e-13,-0.00068408815530398,0.00068408814904396,-0.00068408815433907,0.00068408815000884,-0.00068408815530396,0.00068408814904397,-0.00068408815433905,0.00068408815000886,-0.00076054916672203,0.00076054916364204,-0.00076054916672201,0.00076054916364194,0.60881578646039,120135,2834,0.0054538755009312,0.0054538755009312,0.0025703378414268,24.782751600619,0.00011346201280495,0.00011346201280495,0.00011346201280495,1845732.0000806,0.01356958222849
30419200,0.99989947041911,0.013783097566173,0.005087762294824,0.005087762294824,0.003607572976525,-0.0013124166725234,0.0013124166725206,-1.3584290891591e-15,-1.4254270424176e-15,4.3525140925057e-16,-3.2608415599993e-15,-0.0013980841978327,0.0013980841978311,-0.0013980841993044,0.0013980841993028,-0.0013980841978569,0.0013980841978529,-0.0013980841992825,0.0013980841992785,-0.0011224246622089,0.0011224246622049,-0.0011224246629337,0.0011224246629296,-4.2492819520591e-16,3.2716140365141e-15,1.4631080223787e-12,-1.460301758269e-12,-0.0013124166725206,0.0013124166725234,-0.0013980841973578,0.0013980841983397,-0.0013980841997762,0.0013980841987973,-0.0013980841973565,0.001398084198341,-0.001398084199775,0.0013980841987985,-0.0011224246607483,0.0011224246636456,-0.0011224246643861,0.001122424661497,-0.0013305391944017,0.0013305391934879,-0.0013305391943981,0.0013305391934916,-2.0421211471432e-12,-2.0420592635501e-12,-0.00062450184689053,0.000624501841381,-3.3893968827224e-12,-5.7593155274522e-13,-0.00068375840962173,0.00068375840338734,-0.00068375840868567,0.0006837584043234,-0.00068375840962172,0.00068375840338737,-0.00068375840868565,0.00068375840432343,-0.00077028165059594,0.00077028164740818,-0.00077028165059598,0.00077028164740809,0.51512748248588,120135,2834,0.0054530204904204,0.0054530204904204,0.0026009130237749,26.1334837751,0.0001242678702008,0.0001242678702008,0.0001242678702008,1995208.8850612,0.013598822226032
31419200,0.99992912290468,0.01378352354067,0.0050879165334344,0.0050879165334344,0.0036076904738008,-0.0013161007443421,0.0013161007443393,-1.3574879414399e-15,-1.4332503328332e-15,4.4022184564244e-16,-3.2706353784519e-15,-0.0014016524461362,0.0014016524461347,-0.0014016524478354,0.0014016524478339,-0.0014016524461613,0.0014016524461574,-0.0014016524478127,0.0014016524478087,-0.0011267481802724,0.0011267481802685,-0.0011267481810439,0.0011267481810397,-4.2839867742035e-16,3.2828140620081e-15,1.278058353713e-12,-1.2752470622982e-12,-0.0013161007443393,0.0013161007443421,-0.0014016524457296,0.0014016524465834,-0.0014016524482389,0.0014016524473882,-0.0014016524457284,0.0014016524465846,-0.0014016524482377,0.0014016524473895,-0.0011267481789984,0.0011267481815348,-0.0011267481823098,0.0011267481797815,-0.0013341599046479,0.001334159903859,-0.0013341599046443,0.0013341599038627,-2.6380435123216e-12,-2.637972764684e-12,-0.00063259271977376,0.00063259271257263,-3.7875878064983e-12,-1.354708996923e-12,-0.00069050369434667,0.00069050368685659,-0.00069050369353913,0.00069050368766412,-0.00069050369434665,0.00069050368685662,-0.00069050369353911,0.00069050368766414,-0.00077768830258146,0.00077768829794997,-0.0007776883025815,0.00077768829794988,0.66479676253864,120135,2834,0.0054683003741949,0.0054683003741949,0.0026344969542242,28.4436914561,0.0001427495316488,0.0001427495316488,0.0001427495316488,2046572.9926232,0.013663838147268
32419200,0.99995078185069,0.013783890181855,0.0050880494200279,0.0050880494200279,0.0036077913417997,-0.0013200695364985,0.0013200695364957,-1.3802519518974e-15,-1.4444264619984e-15,4.7830891740266e-16,-3.3393097510852e-15,-0.0014039680469135,0.001403968046912,-0.0014039680482846,0.001403968048283,-0.0014039680469366,0.0014039680469326,-0.0014039680482639,0.0014039680482599,-0.0011331900620797,0.0011331900620756,-0.0011331900627541,0.00113319006275,-4.632211430297e-16,3.354862986882e-15,1.353016161632e-12,-1.3501666540708e-12,-0.0013200695364957,0.0013200695364985,-0.0014039680464676,0.0014039680473816,-0.0014039680487274,0.0014039680478165,-0.0014039680464663,0.0014039680473829,-0.0014039680487262,0.0014039680478178,-0.0011331900607204,0.0011331900634001,-0.0011331900641052,0.0011331900614338,-0.0013382142955588,0.0013382142947166,-0.001338214295555,0.0013382142947203,-1.7421773040464e-12,-1.7421173677455e-12,-0.00063078843528123,0.00063078843059346,-2.9920875790724e-12,-3.9033173739806e-13,-0.00069507180564513,0.00069507180008385,-0.00069507180477769,0.00069507180095128,-0.00069507180564512,0.00069507180008388,-0.00069507180477767,0.00069507180095131,-0.0007738274259956,0.00077382742338836,-0.00077382742599562,0.00077382742338828,0.7835582016357,120135,2834,0.005484700853963,0.0054847008539631,0.002627065752375,29.297401123076,0.00014957920898461,0.00014957920898461,0.00014957920898461,1913051.5942112,0.013689568765191
33419200,0.99996583458855,0.0137841536914,0.0050881445623545,0.0050881445623545,0.003607864566691,-0.0013214824980111,0.0013214824980083,-1.3747815307797e-15,-1.4406618711217e-15,4.6175059971849e-16,-3.3167516166913e-15,-0.0014049451146148,0.0014049451146133,-0.001404945115798,0.0014049451157964,-0.0014049451146373,0.0014049451146333,-0.001404945115778,0.001404945115774,-0.0011349119698967,0.0011349119698927,-0.0011349119705089,0.0011349119705047,-4.4816277952295e-16,3.327783448794e-15,1.5043785666815e-12,-1.501546154531e-12,-0.0013214824980083,0.0013214824980111,-0.0014049451141133,0.001404945115132,-0.0014049451162965,0.0014049451152808,-0.001404945114112,0.0014049451151333,-0.0014049451162952,0.0014049451152821,-0.001134911968385,0.0011349119713598,-0.0011349119720124,0.0011349119690458,-0.0013396945983215,0.0013396945973771,-0.0013396945983179,0.0013396945973808,-1.2203904456784e-12,-1.2203313373624e-12,-0.00062683260707645,0.00062683260386683,-2.6312264413678e-12,2.8077439312326e-13,-0.00069422027773935,0.00069422027321368,-0.00069422027676727,0.00069422027418575,-0.00069422027773933,0.00069422027321371,-0.00069422027676725,0.00069422027418577,-0.00076971522549349,0.00076971522414798,-0.00076971522549352,0.00076971522414789,0.80945760226261,120135,2834,0.0054905302056383,0.0054905302056383,0.0026106805828938,29.317356908085,0.00014973885526468,0.00014973885526468,0.00014973885526468,1819615.5745659,0.013684783710342
34419200,0.99997722817395,0.013784334631655,0.0050882097924187,0.0050882097924187,0.0036079150468181,-0.0013258097498974,0.0013258097498946,-1.3594878803432e-15,-1.4180155041291e-15,4.4122181509406e-16,-3.2601945209423e-15,-0.0014096416881273,0.0014096416881258,-0.0014096416897896,0.0014096416897881,-0.0014096416881522,0.0014096416881482,-0.0014096416897672,0.0014096416897632,-0.0011383908319107,0.0011383908319067,-0.0011383908326563,0.0011383908326522,-4.2498701693836e-16,3.2758527627225e-15,1.3661132449235e-12,-1.3633023814598e-12,-0.0013258097498946,0.0013258097498974,-0.00140964168769,0.0014096416886031,-0.0014096416902238,0.0014096416893138,-0.0014096416876888,0.0014096416886043,-0.0014096416902226,0.0014096416893151,-0.0011383908305489,0.001138390833258,-0.0011383908340099,0.001138390831309,-0.0013441303854338,0.0013441303845863,-0.0013441303854303,0.00134413038459,-2.5229442961593e-12,-2.5228905744836e-12,-0.00062941359439872,0.0006294135874953,-3.7630787464097e-12,-1.1517988280423e-12,-0.00069651386414507,0.000696513856809,-0.00069651386327754,0.00069651385767652,-0.00069651386414506,0.00069651385680902,-0.00069651386327752,0.00069651385767654,-0.00077295637295916,0.00077295636862945,-0.00077295637295918,0.0007729563686294,0.73398852679868,120135,2834,0.0055084616777951,0.0055084616777951,0.002621417469564,31.487353029883,0.00016709882423906,0.00016709882423906,0.00016709882423906,1781199.4318211,0.013732021061682
35419200,0.99998616457607,0.013784460227871,0.0050882550558923,0.0050882550558923,0.0036079501160866,-0.0013334111482377,0.001333411148235,-1.3641347972066e-15,-1.413015656871e-15,4.5830952837027e-16,-3.2695471764016e-15,-0.0014179825698602,0.0014179825698587,-0.0014179825720641,0.0014179825720626,-0.0014179825698873,0.0014179825698833,-0.0014179825720395,0.0014179825720355,-0.001144877444941,0.0011448774449369,-0.0011448774458205,0.0011448774458164,-4.2486937347346e-16,3.3089228691814e-15,9.2254831017623e-13,-9.1972424680559e-13,-0.0013334111482349,0.0013334111482378,-0.0014179825695869,0.0014179825701926,-0.0014179825723343,0.0014179825717318,-0.0014179825695857,0.0014179825701938,-0.0014179825723331,0.001417982571733,-0.0011448774440267,0.0011448774458707,-0.0011448774467265,0.0011448774448906,-0.0013517511004943,0.0013517510999463,-0.0013517511004906,0.00135175109995,-3.9833055148418e-12,-3.9832626670009e-12,-0.00063962264250679,0.00063962263147734,-4.7496335784251e-12,-3.0499828545292e-12,-0.00070390012435116,0.00070390011401342,-0.00070390012379134,0.00070390011457322,-0.00070390012435114,0.00070390011401345,-0.00070390012379131,0.00070390011457323,-0.00078396544510131,0.00078396543724473,-0.00078396544510131,0.00078396543724466,0.64952121200817,120135,2834,0.0055399807310138,0.0055399807310138,0.0026638099644632,35.940234895718,0.00020272187916574,0.00020272187916574,0.00020272187916574,1801399.7080164,0.0138388984475
36419200,0.99999188304395,0.013784544531103,0.0050882853995336,0.0050882853995336,0.0036079737320362,-0.0013355804656063,0.0013355804656035,-1.3747227090472e-15,-1.4209565907515e-15,4.4680987967664e-16,-3.2819585619482e-15,-0.0014205852698916,0.00142058526989,-0.0014205852714159,0.0014205852714143,-0.0014205852699148,0.0014205852699108,-0.0014205852713951,0.001420585271391,-0.001146512330636,0.001146512330632,-0.0011465123313613,0.0011465123313572,-4.3039861632359e-16,3.2993226339693e-15,9.8916247357379e-13,-9.8634197454738e-13,-0.0013355804656035,0.0013355804656063,-0.0014205852695674,0.0014205852702386,-0.0014205852717369,0.0014205852710688,-0.0014205852695662,0.0014205852702399,-0.0014205852717356,0.00142058527107,-0.001146512329634,0.0011465123316007,-0.0011465123323552,0.0011465123303966,-0.0013539075545883,0.0013539075539889,-0.0013539075545847,0.0013539075539926,-2.2271286240832e-12,-2.2270870228437e-12,-0.00064447414088262,0.00064447413487873,-3.111264158898e-12,-1.239815565662e-12,-0.00070658410094892,0.0007065840945854,-0.000706584100325,0.00070658409520931,-0.00070658410094891,0.00070658409458542,-0.00070658410032498,0.00070658409520933,-0.00078919121143582,0.00078919120753229,-0.00078919121143582,0.00078919120753223,0.6811981079479,120135,2834,0.0055489863493954,0.0055489863493954,0.0026839396119885,37.484275357787,0.00021507420286229,0.00021507420286229,0.00021507420286229,1841060.3930484,0.013877563420651
37419200,0.99999525962197,0.013784592369954,0.0050883026524299,0.0050883026524299,0.0036079870650944,-0.0013366026492059,0.0013366026492031,-1.3707228312408e-15,-1.417603752002e-15,4.376042785485e-16,-3.2686354395487e-15,-0.0014211164141661,0.0014211164141645,-0.0014211164153781,0.0014211164153765,-0.001421116414188,0.001421116414184,-0.0014211164153586,0.0014211164153546,-0.0011482940541052,0.0011482940541012,-0.0011482940547511,0.001148294054747,-4.2510466040325e-16,3.2818418375728e-15,1.2232992582408e-12,-1.220484338203e-12,-0.0013366026492031,0.0013366026492059,-0.0014211164137543,0.0014211164145886,-0.0014211164157867,0.0014211164149556,-0.0014211164137531,0.0014211164145898,-0.0014211164157855,0.0014211164149568,-0.001148294052866,0.0011482940552889,-0.0011482940559821,0.0011482940535673,-0.0013549799066044,0.0013549799058465,-0.0013549799066008,0.0013549799058502,-1.367530547846e-12,-1.367488753569e-12,-0.00064401834801457,0.000644018344427,-2.5036994401713e-12,-1.4958251859203e-13,-0.00070784017082893,0.00070784016623604,-0.00070784017004181,0.00070784016702314,-0.00070784017082892,0.00070784016623606,-0.0007078401700418,0.00070784016702316,-0.00078808254357198,0.0007880825417224,-0.000788082543572,0.00078808254172235,0.65495763090949,120135,2834,0.0055532097334809,0.0055532097334809,0.0026820612365802,37.680911463693,0.00021664729170954,0.00021664729170954,0.00021664729170954,1806207.299709,0.013884226987133
38419200,0.99999720031106,0.013784622989178,0.0050883136628917,0.0050883136628917,0.0036079956633943,-0.001335550631145,0.0013355506311422,-1.4143685567173e-15,-1.4594260037727e-15,4.3116329884542e-16,-3.2869878200725e-15,-0.001420211052834,0.0014202110528324,-0.0014202110538868,0.0014202110538852,-0.0014202110528556,0.0014202110528516,-0.0014202110538675,0.0014202110538635,-0.0011469716046444,0.0011469716046404,-0.001146971605256,0.0011469716052519,-4.3816308500676e-16,3.2810939858788e-15,1.4989946230461e-12,-1.4962437687211e-12,-0.0013355506311422,0.001335550631145,-0.0014202110523284,0.0014202110533478,-0.0014202110543892,0.0014202110533728,-0.0014202110523272,0.001420211053349,-0.001420211054388,0.001420211053374,-0.0011469716031336,0.0011469716060963,-0.0011469716067587,0.0011469716038041,-0.0013539186059811,0.001353918605039,-0.0013539186059775,0.0013539186050426,-9.2453065962945e-13,-9.2449087508542e-13,-0.00064301211956517,0.00064301211722113,-2.3407377567742e-12,5.6914623062039e-13,-0.00070643329704394,0.00070643329327915,-0.0007064332960712,0.00070643329425194,-0.00070643329704396,0.0007064332932792,-0.0007064332960712,0.00070643329425198,-0.00078733652515021,0.00078733652446179,-0.00078733652515015,0.00078733652446168,0.72891346290552,120135,2834,0.0055488529667267,0.0055488529667267,0.0026778787099337,37.194787268309,0.00021275829814648,0.00021275829814648,0.00021275829814648,1813513.3417018,0.013871150938668
38880000,0.9999978780536,0.013784633923106,0.0050883175957819,0.0050883175957819,0.0036079987315421,-0.0013364448485948,0.001336444848592,-1.3791343389809e-15,-1.4233682817819e-15,4.4289823446884e-16,-3.2839879117176e-15,-0.0014205865332508,0.0014205865332492,-0.0014205865344201,0.0014205865344185,-0.0014205865332734,0.0014205865332695,-0.0014205865343998,0.0014205865343958,-0.001148566984915,0.001148566984911,-0.0011485669855399,0.0011485669855358,-4.302809728587e-16,3.296910368508e-15,1.6304959870312e-12,-1.6276752443886e-12,-0.001336444848592,0.0013364448485948,-0.0014205865327091,0.0014205865338105,-0.0014205865349587,0.0014205865338604,-0.0014205865327078,0.0014205865338117,-0.0014205865349574,0.0014205865338616,-0.0011485669832813,0.0011485669865038,-0.0011485669871654,0.0011485669839511,-0.0013548667809996,0.0013548667799716,-0.001354866780996,0.0013548667799753,-1.1956317986029e-12,-1.1955917990206e-12,-0.00064119761272157,0.00064119760958649,-2.7290546145489e-12,4.3231505777762e-13,-0.00070689998530781,0.00070689998079251,-0.00070689998425309,0.00070689998184722,-0.00070689998530781,0.00070689998079253,-0.00070689998425308,0.00070689998184724,-0.00078494897863879,0.00078494897743102,-0.0007849489786388,0.00078494897743096,0.74537476942469,120135,2834,0.0055525410603343,0.0055525410603343,0.0026703668624522,37.193619223992,0.00021274895379194,0.00021274895379194,0.00021274895379194,1760463.4671703,0.013871018436197
