time,ASR_ext,ASR_strain,ASR_strain_xx,ASR_strain_yy,ASR_strain_zz,disp_x_101,disp_x_102,disp_x_103,disp_x_104,disp_x_105,disp_x_106,disp_x_p1_neg,disp_x_p1_pos,disp_x_p2_neg,disp_x_p2_pos,disp_x_p3_neg,disp_x_p3_pos,disp_x_p4_neg,disp_x_p4_pos,disp_x_p5_neg,disp_x_p5_pos,disp_x_p6_neg,disp_x_p6_pos,disp_y_101,disp_y_102,disp_y_103,disp_y_104,disp_y_105,disp_y_106,disp_y_p1_neg,disp_y_p1_pos,disp_y_p2_neg,disp_y_p2_pos,disp_y_p3_neg,disp_y_p3_pos,disp_y_p4_neg,disp_y_p4_pos,disp_y_p5_neg,disp_y_p5_pos,disp_y_p6_neg,disp_y_p6_pos,disp_y_p7_neg,disp_y_p7_pos,disp_y_p8_neg,disp_y_p8_pos,disp_z_101,disp_z_102,disp_z_103,disp_z_104,disp_z_105,disp_z_106,disp_z_p1_neg,disp_z_p1_pos,disp_z_p2_neg,disp_z_p2_pos,disp_z_p3_neg,disp_z_p3_pos,disp_z_p4_neg,disp_z_p4_pos,disp_z_p5_neg,disp_z_p5_pos,disp_z_p6_neg,disp_z_p6_pos,humidity,ndof,nelem,strain_xx,strain_yy,strain_zz,temp,thermal_strain_xx,thermal_strain_yy,thermal_strain_zz,vonmises,vstrain
2419200,0,0,0,0,0,0,0,0,0,0,0,0,0,0,0,0,0,0,0,0,0,0,0,0,0,0,0,0,0,0,0,0,0,0,0,0,0,0,0,0,0,0,0,0,0,0,0,0,0,0,0,0,0,0,0,0,0,0,0,0,0,0,0,0,0,0,0,0,0,0,0,0,0,0,0
2919200,0.076372424943285,0.0015588997916086,0.00051963326386954,0.00051963326386954,0.00051963326386954,-0.00016888708683362,0.00016888708683379,3.2763704973656e-17,1.0834963116961e-16,-1.5606876161823e-16,3.6070956880557e-16,-0.00016794456174721,0.0001679445617472,-0.00016794645092253,0.00016794645092254,-0.00016794457893575,0.00016794457893611,-0.00016794643373356,0.00016794643373392,-0.0001680145120753,0.00016801451207552,-0.00016801578901583,0.0001680157890162,7.8416722070027e-17,-4.3891940955781e-16,-1.8619325416139e-09,1.8619321363915e-09,-0.0001688870868339,0.00016888708683351,-0.00016794530340494,0.00016794397366591,-0.000167945709265,0.00016794703900347,-0.0001679453034051,0.00016794397366572,-0.00016794570926511,0.00016794703900337,-0.00016801643118008,0.00016801281778163,-0.00016801386991167,0.00016801748330906,-0.00017069439379695,0.0001706956660248,-0.00017069439379734,0.00017069566602416,-8.9304075119943e-09,-8.9304075876121e-09,-0.00015636891695304,0.00015634610909608,-6.8506084486658e-09,-1.0739328324761e-08,-0.0001568985686352,0.00015688043914712,-0.0001568998920675,0.00015687911571467,-0.00015689856863517,0.00015688043914709,-0.00015689989206753,0.00015687911571462,-0.00016121246928675,0.00016119248331741,-0.00016121246928669,0.0001611924833173,0.81617708571397,120135,2834,0.00070344771859792,0.00070344771859797,0.00065127788167467,32.402235500499,0.00017441788400399,0.00017441788400399,0.00017441788400399,1089588.3673948,0.0020602941452199
3419200,0.15587335996822,0.0031114855865653,0.0010564713003434,0.0010564713003582,0.00099854298586372,-0.00029951299993773,0.0002995129999474,4.7554723706422e-15,4.8286024895084e-15,-9.9558870309558e-15,2.00720485774e-14,-0.00030065174490812,0.00030065174490765,-0.00030065438838018,0.00030065438837969,-0.00030065176291918,0.00030065176293882,-0.00030065437036563,0.00030065437038526,-0.00029276474556879,0.00029276474558833,-0.00029276734315334,0.00029276734317294,-9.772451458316e-15,-4.0248550162132e-14,2.1318413401755e-09,-2.1318973752909e-09,-0.00029951299996154,0.00029951299993079,-0.00030065110333934,0.00030065247371823,-0.00030065502998247,0.0003006536595667,-0.00030065110334918,0.00030065247370798,-0.00030065502999223,0.0003006536595565,-0.00029276273318511,0.00029276694688799,-0.00029276935563271,0.00029276514179159,-0.00030128578689822,0.0003012844209519,-0.00030128578692756,0.00030128442092159,-6.2390148539292e-09,-6.2390149323323e-09,-0.00025881498330233,0.00025879895604696,-8.1214953136099e-09,-4.0520151606737e-09,-0.00026392863675306,0.00026391355616469,-0.00026392729010416,0.0002639149028046,-0.0002639286367531,0.00026391355616473,-0.00026392729010417,0.00026391490280455,-0.00026996044591882,0.00026994889532228,-0.00026996044591878,0.00026994889532218,0.78776538250417,120135,2834,0.0012471887375092,0.0012471887375242,0.0010777913269193,31.910930050307,0.00017048744040246,0.00017048744040246,0.00017048744040246,1826659.670187,0.0035785593608389
3919200,0.24325286784167,0.004774246748137,0.0016580284572021,0.0016580284572056,0.0014581898337293,-0.00044774180949451,0.00044774180950353,4.4207767130118e-15,4.5051417827757e-15,-3.9335563031433e-15,1.3362415316796e-14,-0.00045415305652379,0.00045415305652691,-0.00045415491703526,0.00045415491703836,-0.00045415307370792,0.00045415307372262,-0.0004541548998478,0.00045415489986251,-0.00042793828077032,0.00042793828078497,-0.00042793965362058,0.00042793965363535,-7.4083177986236e-15,-2.5224750483449e-14,5.5421691407526e-09,-5.5422084605932e-09,-0.00044774180951032,0.00044774180948921,-0.0004541512667775,0.00045415492134406,-0.00045415670679637,0.00045415305220836,-0.00045415126678339,0.000454154921338,-0.00045415670680214,0.00045415305220234,-0.00042793293987445,0.00042794383637336,-0.00042794499459025,0.00042793409800245,-0.00044980543539479,0.00044980179530004,-0.00044980543541166,0.00044980179528218,-2.6168774872587e-09,-2.6168775757011e-09,-0.00035832509607814,0.00035831739470774,-7.9005669963808e-09,2.9891497100238e-09,-0.00036848337235521,0.00036847347906378,-0.00036847975405121,0.00036847709736075,-0.00036848337235528,0.00036847347906384,-0.00036847975405124,0.00036847709736072,-0.00038026868133066,0.00038026680065541,-0.00038026868133061,0.0003802668006553,0.77553102461103,120135,2834,0.0018638397509375,0.0018638397509409,0.0014919363187754,32.496234469714,0.00017516987575771,0.00017516987575771,0.00017516987575771,2604941.7153663,0.0052332680967681
4419200,0.33885071952706,0.0065772037375539,0.0023268313506464,0.002326831350645,0.0019235410362625,-0.00061361890759036,0.00061361890759957,4.4625695539163e-15,4.566331089955e-15,-3.46304126529e-15,1.309233533226e-14,-0.00062803857654928,0.00062803857655293,-0.00062803989627691,0.00062803989628049,-0.00062803858778496,0.00062803858779958,-0.00062803988503503,0.00062803988504964,-0.00057548691454313,0.00057548691455735,-0.00057548794977443,0.000575487949789,-4.8127353271805e-15,-2.1858143398769e-14,5.8653764568015e-09,-5.8654153155534e-09,-0.00061361890760579,0.00061361890758324,-0.00062803666457542,0.00062804054293125,-0.00062804180826352,0.0006280379298897,-0.00062803666458102,0.00062804054292543,-0.00062804180826898,0.00062803792988392,-0.00057548125728293,0.00057549277632818,-0.00057549360709634,0.00057548208796722,-0.00061692098630861,0.00061691712397142,-0.00061692098632495,0.00061691712395416,-1.0027173108349e-09,-1.002717418877e-09,-0.00045875649953435,0.0004587527606377,-6.6463594949001e-09,4.9239414614095e-09,-0.00047332147343132,0.00047331506653257,-0.00047331762489282,0.00047331891506765,-0.00047332147343138,0.0004733150665326,-0.00047331762489281,0.00047331891506762,-0.00049675426550322,0.00049675591304275,-0.00049675426550278,0.00049675591304246,0.77667598740016,120135,2834,0.0025534495600947,0.0025534495600931,0.0019097825116057,33.597832067748,0.00018398265654198,0.00018398265654198,0.00018398265654198,3217789.3156172,0.0070413703884924
4919200,0.4425434083933,0.0085260964252851,0.0030664988418596,0.0030664988418581,0.0023930987415674,-0.00079858307905896,0.00079858307906871,4.7807363047287e-15,4.8087942711065e-15,-3.1189047196017e-15,1.3206920067069e-14,-0.00082298937808758,0.00082298937809185,-0.00082299035974289,0.00082299035974721,-0.00082298938518222,0.00082298938519725,-0.00082299035263737,0.00082299035265257,-0.0007376091111571,0.00073760911117216,-0.00073761006846358,0.00073761006847848,-2.6973881848778e-15,-1.9452538321028e-14,5.9656076864485e-09,-5.9656472263866e-09,-0.00079858307907498,0.00079858307905182,-0.00082298742734717,0.00082299137171497,-0.00082299231049434,0.00082298836610527,-0.00082298742735265,0.00082299137170937,-0.00082299231049966,0.00082298836609968,-0.00073760335192346,0.000737615069176,-0.00073761582776733,0.0007376041104234,-0.0008041411289122,0.00080413719340377,-0.00080414112892859,0.00080413719338718,-4.9170973822792e-10,-4.917097645748e-10,-0.00055904160097433,0.00055903928782402,-6.2595180861479e-09,5.5364051987897e-09,-0.00057887939839715,0.00057887438853675,-0.00057887547536607,0.00057887831156731,-0.00057887939839724,0.00057887438853668,-0.00057887547536602,0.00057887831156711,-0.00061715308465149,0.00061715587443138,-0.00061715308465157,0.00061715587443098,0.77771912195545,120135,2834,0.0033218362588686,0.0033218362588671,0.0023269240651583,35.342249113406,0.00019793799290725,0.00019793799290725,0.00019793799290725,3681686.2591487,0.0090109804207415
5419200,0.54351397050926,0.010399135127076,0.00379212266822,0.003792122668217,0.0028148897906391,-0.0009791177375401,0.00097911773754887,4.3087507235642e-15,4.3368675116745e-15,-2.369986422071e-15,1.1473178914024e-14,-0.001014599891885,0.0010145998918891,-0.0010146005979809,0.001014600597985,-0.0010145998968361,0.0010145998968493,-0.001014600593019,0.0010146005930324,-0.00089228727792463,0.00089228727793795,-0.00089228805326647,0.00089228805327974,-3.5008048175218e-15,-1.7719882727651e-14,6.3742251972117e-09,-6.3742663216607e-09,-0.00097911773755606,0.00097911773753128,-0.0010145978015617,0.001014602020428,-0.0010146026883171,0.0010145984694259,-0.0010145978015663,0.0010146020204232,-0.0010146026883216,0.0010145984694212,-0.000892281125686,0.00089229363939666,-0.0008922942055713,0.0008922816917707,-0.00098748408083688,0.00098747986832251,-0.00098748408085063,0.00098747986830837,4.3287277551489e-10,4.3287274435833e-10,-0.00064439946819442,0.00064439960947176,-5.7565311135656e-09,6.8746360691105e-09,-0.00067037999357717,0.0006703768734404,-0.00067037579244491,0.00067038107457347,-0.00067037999357725,0.00067037687344035,-0.00067037579244487,0.0006703810745733,-0.00072378547896271,0.00072379056167756,-0.00072378547896281,0.00072379056167725,0.76998245627242,120135,2834,0.0040712345977116,0.0040712345977085,0.0026819574138947,36.272185246738,0.00020537748197391,0.00020537748197391,0.00020537748197391,3974077.8585977,0.010883269725307
5919200,0.63487927861519,0.011983934813619,0.0044163558429734,0.004416355842969,0.0031512231276765,-0.0011345457057761,0.0011345457057851,4.4206002478145e-15,4.4047183800535e-15,-2.478512518438e-15,1.1881872311075e-14,-0.0011838180651721,0.0011838180651762,-0.0011838184959517,0.0011838184959558,-0.0011838180675748,0.0011838180675883,-0.0011838184935366,0.0011838184935504,-0.0010184811170716,0.0010184811170855,-0.0010184818181405,0.0010184818181537,-2.5672156909699e-15,-1.7265157591158e-14,6.5870646429283e-09,-6.5871056835661e-09,-0.0011345457057919,0.001134545705767,-0.0011838158923036,0.0011838202612638,-0.0011838206688316,0.0011838162998463,-0.0011838158923084,0.0011838202612589,-0.0011838206688362,0.0011838162998414,-0.0010184747520567,0.0010184876791979,-0.0010184881832237,0.0010184752559913,-0.0011427132652168,0.0011427089052818,-0.0011427132652309,0.0011427089052668,1.3383257222463e-09,1.3383257343028e-09,-0.00070708346711446,0.00070708588405919,-5.0902931086408e-09,7.9927040310171e-09,-0.00074035715571523,0.00074035601721553,-0.00074035280184795,0.00074036037108432,-0.00074035715571535,0.0007403560172155,-0.00074035280184801,0.00074036037108416,-0.0008047261753168,0.00080473326570864,-0.00080472617531705,0.00080473326570794,0.72322607089522,120135,2834,0.0047159486704179,0.0047159486704135,0.0029427393945456,36.778672991329,0.00020942938393063,0.00020942938393063,0.00020942938393063,4198757.94489,0.012451600140161
6419200,0.71209633641274,0.013287535362706,0.0049317599119112,0.0049317599119061,0.003424015538889,-0.0012614642129311,0.00126146421294,4.2631050591844e-15,4.449805237975e-15,-2.5931560749796e-15,1.1849285071298e-14,-0.001325404877974,0.0013254048779779,-0.001325405045574,0.0013254050455781,-0.0013254048777655,0.0013254048777789,-0.0013254050457691,0.0013254050457828,-0.0011175332935521,0.0011175332935655,-0.0011175339165345,0.0011175339165481,-2.6115672772359e-15,-1.7358402157582e-14,7.0371831967023e-09,-7.0372248996062e-09,-0.001261464212947,0.0012614642129213,-0.0013254025439518,0.0013254072200857,-0.0013254073796073,0.0013254027034469,-0.0013254025439566,0.0013254072200807,-0.0013254073796119,0.001325402703442,-0.0011175264822558,0.0011175402900369,-0.0011175407278995,0.001117526920026,-0.0012682809313275,0.0012682762670198,-0.0012682809313416,0.001268276267005,2.2753821187132e-09,2.2753819200854e-09,-0.00075300478415248,0.0007530095596002,-4.627476809929e-09,9.3807101539958e-09,-0.00079138768065956,0.00079138843434351,-0.00079138301690473,0.00079139309810015,-0.00079138768065971,0.0007913884343434,-0.0007913830169048,0.00079139309809994,-0.00086825549925508,0.00086826487250092,-0.000868255499255,0.00086826487250064,0.70960752223491,120135,2834,0.0052420868099795,0.0052420868099742,0.0031338566407128,36.741535383496,0.00020913228306797,0.00020913228306797,0.00020913228306797,4336791.2725819,0.013711302861588
6919200,0.78151535137985,0.014497075792352,0.005406929289101,0.0054069292890951,0.0036832172141556,-0.0013844774398372,0.0013844774398456,4.0701697767543e-15,4.257928746729e-15,-2.2901065094064e-15,1.1126483622975e-14,-0.0014606984615507,0.0014606984615546,-0.001460698791822,0.001460698791826,-0.0014606984625012,0.0014606984625139,-0.0014606987908581,0.0014606987908711,-0.0012165692525089,0.0012165692525216,-0.0012165699961761,0.001216569996189,-2.7782680669941e-15,-1.6478033831642e-14,6.9753782973661e-09,-6.9754196502288e-09,-0.0013844774398526,0.0013844774398271,-0.001460696164078,0.0014607007867216,-0.0014607010893052,0.0014606964666348,-0.0014606961640824,0.001460700786717,-0.0014607010893095,0.0014606964666302,-0.0012165625190678,0.0012165762104285,-0.0012165767296846,0.001216563038233,-0.0013920095052451,0.0013920048841187,-0.0013920095052582,0.0013920048841049,1.3073233063787e-09,1.3073231058236e-09,-0.00079679129965566,0.00079679361330694,-5.5065273348937e-09,8.3625402232238e-09,-0.00084002912856503,0.00084002788834144,-0.00084002451569788,0.00084003250121046,-0.00084002912856517,0.00084002788834132,-0.00084002451569795,0.00084003250121025,-0.00093059578378501,0.00093060307977763,-0.00093059578378495,0.00093060307977739,0.73388447456696,120135,2834,0.00575175725424,0.0057517572542339,0.0033161191434283,38.622924468972,0.00022418339575178,0.00022418339575178,0.00022418339575178,4223287.2235785,0.014930152246336
7419200,0.84125305275072,0.015472130602526,0.0057917238669996,0.0057917238669932,0.003888682868533,-0.0014879741085747,0.0014879741085828,3.8322358690012e-15,4.1164036584586e-15,-2.0837010502456e-15,1.0537442794238e-14,-0.0015755977430957,0.0015755977430994,-0.0015755981585562,0.0015755981585601,-0.0015755977446934,0.0015755977447055,-0.0015755981569452,0.0015755981569576,-0.0012970207677018,0.0012970207677137,-0.001297021580544,0.0012970215805563,-2.8973820752017e-15,-1.5793054010522e-14,6.8413434090674e-09,-6.8413842496132e-09,-0.0014879741085897,0.0014879741085645,-0.0015755954947557,0.0015756000258398,-0.0015756004069062,0.0015755958757953,-0.0015755954947599,0.0015756000258355,-0.0015756004069102,0.001575595875791,-0.0012970141721893,0.0012970276015569,-0.0012970281761225,0.0012970147466656,-0.001495184178948,0.0014951796473828,-0.0014951841789603,0.0014951796473699,9.8446754053294e-10,9.844672437897e-10,-0.00082569253110722,0.00082569410784029,-5.6883398389295e-09,7.9103518050012e-09,-0.00087695512818235,0.00087695332917269,-0.00087695060635276,0.00087695785100401,-0.00087695512818253,0.00087695332917254,-0.00087695060635286,0.00087695785100378,-0.00097346593568426,0.00097347248201762,-0.00097346593568409,0.00097347248201746,0.68603447937071,120135,2834,0.0061803364959502,0.0061803364959438,0.0034365721484244,40.761389198444,0.00024129111358755,0.00024129111358755,0.00024129111358755,3997174.2403313,0.015922907377604
7919200,0.88608551097622,0.016183095208053,0.0060710492101917,0.0060710492101851,0.0040409967876757,-0.001558307470824,0.0015583074708322,4.0552878784449e-15,4.0481116270862e-15,-2.3810449077713e-15,1.0999311037422e-14,-0.0016568505293588,0.0016568505293625,-0.0016568505721587,0.0016568505721624,-0.0016568505278038,0.0016568505278163,-0.0016568505736996,0.0016568505737123,-0.0013473440996532,0.0013473440996659,-0.0013473447920058,0.0013473447920182,-2.6196258545813e-15,-1.6264474638817e-14,7.2386246951982e-09,-7.2386659388659e-09,-0.0015583074708392,0.0015583074708135,-0.0016568481245901,0.0016568529389228,-0.0016568529769372,0.0016568481625771,-0.0016568481245945,0.0016568529389182,-0.0016568529769415,0.0016568481625725,-0.0013473370983857,0.0013473513001594,-0.0013473517933404,0.001347337591476,-0.0015644236777001,0.0015644188748863,-0.0015644236777131,0.0015644188748726,2.6905906619998e-09,2.6905906569494e-09,-0.00083997781412159,0.00083998374932428,-4.4240674529783e-09,1.0007164581168e-08,-0.00089488204325005,0.0008948838068006,-0.00089487723858953,0.00089488861146282,-0.00089488204325013,0.00089488380680055,-0.00089487723858954,0.00089488861146268,-0.00099985931752545,0.00099986974075212,-0.00099985931752556,0.00099986974075168,0.6651773048548,120135,2834,0.0064714818210547,0.0064714818210479,0.0034962600906293,40.955904766391,0.00024284723813113,0.00024284723813113,0.00024284723813113,3882852.7445598,0.016575370976171
8419200,0.91944180599048,0.01670354779526,0.0062739761221021,0.0062739761220954,0.0041555955510622,-0.0016118473599044,0.0016118473599119,3.6065368815974e-15,3.8108835801225e-15,-1.8667665009766e-15,9.7674074947586e-15,-0.0017184858414523,0.0017184858414558,-0.0017184858894746,0.0017184858894782,-0.0017184858404715,0.0017184858404827,-0.0017184858904421,0.0017184858904536,-0.0013855414227283,0.0013855414227394,-0.0013855421377855,0.0013855421377969,-3.0999641217534e-15,-1.4993762768854e-14,7.4833929126174e-09,-7.4834334644026e-09,-0.0016118473599189,0.0016118473598938,-0.0017184833602893,0.0017184883340184,-0.001718488370647,0.0017184833968905,-0.0017184833602932,0.0017184883340144,-0.0017184883706507,0.0017184833968865,-0.0013855341870557,0.0013855488704033,-0.0013855493735227,0.0013855346900868,-0.0016176317758986,0.0016176268108287,-0.0016176317759099,0.0016176268108168,2.6479452883431e-09,2.6479450710663e-09,-0.00084769342361179,0.00084769923351264,-4.7036258646993e-09,1.0214733953911e-08,-0.00090649329474955,0.00090649483637185,-0.00090648832918886,0.00090649980193416,-0.0009064932947497,0.00090649483637172,-0.00090648832918893,0.00090649980193395,-0.0010169093966432,0.0010169198878881,-0.0010169093966431,0.0010169198878879,0.65392244495328,120135,2834,0.0066930412771143,0.0066930412771074,0.0035286151595826,41.431989774949,0.00024665591819959,0.00024665591819959,0.00024665591819959,3686784.1245848,0.017058888453964
8919200,0.94374746287656,0.017068104254014,0.0064153706468895,0.0064153706468827,0.0042373629602413,-0.001650456424258,0.0016504564242657,3.6324772656071e-15,3.7720024149743e-15,-1.8927068849862e-15,9.9516371607864e-15,-0.0017632492912202,0.0017632492912237,-0.0017632493067,0.0017632493067035,-0.0017632492901559,0.0017632492901672,-0.0017632493077506,0.0017632493077622,-0.001412296404986,0.0014122964049975,-0.0014122971198332,0.0014122971198445,-2.9202637291241e-15,-1.5026932366759e-14,7.5903303638197e-09,-7.5903708467228e-09,-0.0016504564242725,0.0016504564242475,-0.001763246773852,0.0017632518194109,-0.0017632518240767,0.001763246778491,-0.0017632467738559,0.0017632518194066,-0.0017632518240805,0.0017632467784868,-0.0014122890648212,0.0014123039579431,-0.0014123044600613,0.0014122895668521,-0.0016560692931238,0.0016560642565538,-0.0016560692931352,0.0016560642565416,2.7740382578866e-09,2.7740381028931e-09,-0.00085032473694008,0.00085033086554662,-4.6864750080047e-09,1.0449601783741e-08,-0.00091280472106399,0.00091280649384704,-0.00091279968284267,0.00091281153207017,-0.00091280472106418,0.00091280649384699,-0.00091279968284302,0.00091281153206998,-0.0010262941384345,0.0010263049671032,-0.0010262941384344,0.0010263049671028,0.62734198989908,120135,2834,0.0068527737470414,0.0068527737470343,0.0035398046160053,41.891018040034,0.00025032814432027,0.00025032814432027,0.00025032814432027,3484918.4877809,0.017395282229873
9419200,0.96037992735205,0.017313517489221,0.0065098512062944,0.0065098512062875,0.0042938150766386,-0.001673577564831,0.0016735775648386,3.8957045183129e-15,3.617242436903e-15,-2.0855245239515e-15,1.0098809135372e-14,-0.0017913412021485,0.0017913412021521,-0.0017913409006964,0.0017913409006999,-0.0017913411988618,0.0017913411988735,-0.0017913409039693,0.0017913409039809,-0.0014263487202206,0.0014263487202325,-0.0014263493365661,0.0014263493365772,-2.8905587542378e-15,-1.533106174769e-14,8.1141786197104e-09,-8.1142193996966e-09,-0.0016735775648456,0.0016735775648202,-0.0017913384939604,0.0017913439005577,-0.0017913436088938,0.0017913382022688,-0.0017913384939645,0.0017913439005535,-0.0017913436088977,0.0017913382022646,-0.0014263408543621,0.0014263567706507,-0.00142635720249,0.0014263412861122,-0.0016789465280097,0.0016789411383204,-0.0016789465280216,0.0016789411383079,4.1222110201574e-09,4.1222112869807e-09,-0.00084825840261788,0.00084826792919079,-3.893867559245e-09,1.2317920271543e-08,-0.00091224596624612,0.00091225042233682,-0.00091224056578691,0.00091225582279752,-0.0009122459662461,0.00091225042233686,-0.00091224056578684,0.00091225582279748,-0.0010297046560666,0.0010297186745852,-0.0010297046560669,0.0010297186745845,0.61542000783322,120135,2834,0.0069484189211878,0.0069484189211806,0.0035314214948601,41.15172706869,0.00024441381654952,0.00024441381654952,0.00024441381654952,3352766.3239438,0.017581416745712
9919200,0.97156517999216,0.01747795245204,0.0065727166796818,0.0065727166796749,0.0043325190926834,-0.0016884469881002,0.0016884469881074,3.8260007653617e-15,3.235607036779e-15,-1.762887321473e-15,9.308009764338e-15,-0.001809261294592,0.0018092612945956,-0.0018092608168753,0.0018092608168785,-0.0018092612910106,0.0018092612910215,-0.0018092608204436,0.0018092608204543,-0.0014351216071564,0.0014351216071678,-0.0014351221730226,0.0014351221730327,-3.2359599671737e-15,-1.4563284995942e-14,8.7329345542649e-09,-8.7329749555178e-09,-0.0016884469881144,0.0016884469880894,-0.0018092583781182,0.0018092641986387,-0.0018092637333582,0.0018092579128099,-0.0018092583781219,0.0018092641986349,-0.0018092637333617,0.0018092579128061,-0.00143511313358,0.0014351302623195,-0.0014351306466628,0.0014351135178357,-0.0016941104822323,0.0016941046794128,-0.0016941104822431,0.0016941046794014,4.9029810694438e-09,4.9029816491291e-09,-0.00084405728380188,0.00084406874829932,-3.7385875514133e-09,1.3720054054209e-08,-0.00090969620026412,0.00090970199236479,-0.00090969038385234,0.00090970780877803,-0.000909696200264,0.00090970199236493,-0.00090969038385215,0.00090970780877809,-0.0010292358824205,0.0010292519487912,-0.0010292358824212,0.0010292519487902,0.61191532656933,120135,2834,0.0070099168674939,0.0070099168674868,0.0035141276981847,39.829126607188,0.00023383301285751,0.00023383301285751,0.00023383301285751,3225959.6824163,0.01768900328719
10419200,0.97908034081417,0.017590242686253,0.0066153577922651,0.0066153577922582,0.0043595271017296,-0.0016976292851002,0.0016976292851081,4.1434028336523e-15,3.5589501000468e-15,-1.9254705899599e-15,1.033374313477e-14,-0.0018202393270925,0.0018202393270979,-0.001820238723753,0.0018202387237561,-0.0018202393229483,0.0018202393229606,-0.0018202387278854,0.0018202387278973,-0.0014402744470825,0.001440274447093,-0.001440274977333,0.0014402749773441,-1.102378087812e-15,-1.3585740640501e-14,9.0253267299655e-09,-9.0253606216525e-09,-0.0016976292851128,0.0016976292850916,-0.0018202363090898,0.0018202423274052,-0.0018202417417628,0.0018202357234263,-0.0018202363090933,0.0018202423274011,-0.0018202417417656,0.0018202357234216,-0.0014402656839279,0.0014402833848002,-0.0014402837405454,0.0014402660395967,-0.0017038362801866,0.0017038302815719,-0.0017038362801983,0.0017038302815592,5.4359476335249e-09,5.4359482048961e-09,-0.0008387913677817,0.00083880416159437,-3.5072497526592e-09,1.454587786602e-08,-0.0009059926616106,0.00090599944894227,-0.00090598664604175,0.00090600546450829,-0.00090599266160985,0.00090599944894232,-0.00090598664604239,0.00090600546450905,-0.0010265748724871,0.0010265922522262,-0.0010265748724856,0.0010265922522242,0.62047456207657,120135,2834,0.0070478847940411,0.0070478847940339,0.003492377037211,38.101290149358,0.00022001032119486,0.00022001032119486,0.00022001032119486,3116991.1167733,0.017744161959042
10919200,0.98459007878083,0.017669718974072,0.0066454996501874,0.0066454996501805,0.0043787196737042,-0.0017070040172592,0.0017070040172668,3.9822312867442e-15,3.425895341249e-15,-2.0838775154429e-15,1.0114455716203e-14,-0.0018305888142118,0.0018305888142155,-0.0018305885989468,0.0018305885989502,-0.0018305888144839,0.0018305888144956,-0.0018305885986612,0.0018305885986727,-0.0014469908660779,0.0014469908660898,-0.0014469915182749,0.0014469915182855,-2.5943325096285e-15,-1.5036653117591e-14,9.0203497218101e-09,-9.0203903195764e-09,-0.0017070040172736,0.0017070040172486,-0.0018305858300019,0.0018305918217247,-0.001830591583166,0.001830585591416,-0.0018305858300059,0.0018305918217204,-0.0018305915831697,0.0018305855914119,-0.0014469821327021,0.0014469998319049,-0.001447000251716,0.0014469825524237,-0.0017137669296886,0.0017137609416352,-0.0017137669297003,0.0017137609416224,3.8486088197568e-09,3.8486093745666e-09,-0.00083659304026203,0.00083660180134661,-5.0323597725214e-09,1.296742745533e-08,-0.00090581842754643,0.00090582165368951,-0.00090581243753472,0.0009058276437022,-0.00090581842754622,0.00090582165368963,-0.00090581243753465,0.00090582764370236,-0.0010258555669588,0.0010258695892741,-0.0010258555669594,0.0010258695892728,0.59839954951353,120135,2834,0.0070866457617483,0.0070866457617413,0.0034833314343233,37.946388325659,0.00021877110660527,0.00021877110660527,0.00021877110660527,3005086.9872268,0.017813868952923
11419200,0.98860427375953,0.017727425580461,0.006667300234873,0.006667300234866,0.0043928251107223,-0.0017115172376886,0.001711517237696,3.9440559823853e-15,3.3234278833242e-15,-2.0345260819189e-15,9.5901776148921e-15,-0.0018368369219143,0.0018368369219181,-0.0018368366573579,0.0018368366573612,-0.0018368369217101,0.0018368369217217,-0.001836836657548,0.0018368366575591,-0.0014485797309994,0.0014485797310115,-0.0014485803698139,0.0014485803698245,-3.0701415034022e-15,-1.4989314375338e-14,9.0273729767511e-09,-9.027413942311e-09,-0.0017115172377031,0.0017115172376776,-0.0018368339316992,0.0018368399308971,-0.0018368396475819,0.0018368336483555,-0.0018368339317033,0.0018368399308933,-0.0018368396475852,0.0018368336483515,-0.0014485709885382,0.0014485887006749,-0.0014485891123404,0.0014485714001148,-0.0017181356054908,0.0017181296118399,-0.0017181356055026,0.0017181296118281,4.0331148663261e-09,4.0331154365919e-09,-0.00083427264419688,0.00083428187919769,-4.8613167015161e-09,1.3158029541024e-08,-0.00090298986086001,0.00090299351321952,-0.00090298386350845,0.00090299951057313,-0.00090298986085982,0.00090299351321983,-0.00090298386350808,0.00090299951057308,-0.0010256535059322,0.0010256679244163,-0.0010256535059331,0.0010256679244153,0.59529609807325,120135,2834,0.0071053154156191,0.0071053154156119,0.0034737495547874,37.628775765441,0.00021623020612353,0.00021623020612353,0.00021623020612353,2966505.6024265,0.017842125197918
11919200,0.99151332740827,0.017770107225218,0.0066833505351351,0.0066833505351282,0.0044034061549543,-0.0017155652132218,0.0017155652132295,4.120403536265e-15,3.607007455457e-15,-1.7581227611447e-15,9.2574230744326e-15,-0.0018415594280822,0.0018415594280866,-0.0018415591039153,0.0018415591039192,-0.0018415594273403,0.0018415594273517,-0.0018415591046435,0.0018415591046548,-0.001450920042606,0.0014509200426177,-0.0014509206642212,0.0014509206642317,-2.9786737094452e-15,-1.4253480236919e-14,9.0702067728187e-09,-9.0702468842793e-09,-0.0017155652132362,0.0017155652132115,-0.0018415564195678,0.0018415624502359,-0.0018415621124383,0.0018415560817435,-0.0018415564195715,0.0018415624502325,-0.0018415621124422,0.0018415560817403,-0.0014509112549664,0.0014509290501143,-0.0014509294519249,0.0014509116566898,-0.0017225531978682,0.0017225471748049,-0.0017225531978808,0.0017225471747946,4.2796434393338e-09,4.2796439535208e-09,-0.00083173600733649,0.00083174586327913,-4.6652553594636e-09,1.3446115037465e-08,-0.00090115287194424,0.00090115704676734,-0.00090114684289127,0.00090116307582228,-0.00090115287194414,0.000901157046767,-0.00090114684289043,0.00090116307582195,-0.0010242480285903,0.0010242629948641,-0.0010242480285913,0.0010242629948637,0.6069617720741,120135,2834,0.00712205132924,0.0071220513292334,0.003463268640568,37.105494286279,0.00021204395429023,0.00021204395429023,0.00021204395429023,2906073.2048388,0.017865531870177
12419200,0.99365487883231,0.017801837761616,0.0066952482235148,0.0066952482235078,0.0044113413145936,-0.0017196621475809,0.0017196621475876,3.3963080098275e-15,2.8282077178426e-15,-1.8644724534111e-15,9.1776019835004e-15,-0.0018456790057131,0.0018456790057166,-0.0018456787362363,0.0018456787362393,-0.0018456790056013,0.0018456790056119,-0.001845678736335,0.001845678736345,-0.0014541869976476,0.0014541869976579,-0.0014541876341453,0.0014541876341544,-3.2277249246309e-15,-1.4521263991051e-14,9.0757842736333e-09,-9.0758248278623e-09,-0.0017196621475948,0.0017196621475698,-0.0018456759998684,0.0018456820309312,-0.0018456817420902,0.0018456757109987,-0.0018456759998717,0.0018456820309274,-0.0018456817420935,0.0018456757109949,-0.0014541782078364,0.0014541960150915,-0.0014541964240209,0.0014541786166776,-0.0017271942571857,0.0017271882315451,-0.0017271942571959,0.0017271882315331,4.0632306956193e-09,4.0632312573683e-09,-0.00082966674802616,0.00082967605177344,-4.8794466439309e-09,1.3237332422964e-08,-0.00090062872868971,0.0009006324017931,-0.00090062269885066,0.00090063843163406,-0.00090062872868959,0.00090063240179363,-0.00090062269885063,0.00090063843163429,-0.0010226201673783,0.0010226346793975,-0.0010226201673784,0.0010226346793961,0.6122962941268,120135,2834,0.0071389828150046,0.0071389828149973,0.0034547243646987,36.802707894791,0.00020962166315833,0.00020962166315833,0.00020962166315833,2832626.0459109,0.017891309719692
12919200,0.99521286318473,0.017824208686463,0.006703637566393,0.0067036375663861,0.0044169335536835,-0.0017214161353763,0.0017214161353833,3.671181965558e-15,3.1617857625565e-15,-1.9193531297853e-15,9.2553643137969e-15,-0.0018476553164134,0.0018476553164167,-0.0018476549516158,0.001847654951619,-0.0018476553154156,0.0018476553154264,-0.001847654952601,0.0018476549526117,-0.0014551245676156,0.0014551245676272,-0.0014551251725364,0.0014551251725463,-2.9910262732593e-15,-1.4423561553e-14,9.1344814969152e-09,-9.1345207326324e-09,-0.0017214161353902,0.0017214161353657,-0.0018476522844844,0.0018476583594003,-0.0018476579835539,0.0018476519086115,-0.001847652284488,0.0018476583593962,-0.0018476579835576,0.0018476519086077,-0.001455115715214,0.0014551336358272,-0.0014551340250018,0.0014551161043021,-0.0017291863003761,0.0017291802341745,-0.0017291863003874,0.0017291802341634,4.4649793196104e-09,4.4649798234607e-09,-0.00082676428323689,0.00082677460065263,-4.5484456694673e-09,1.369543427199e-08,-0.00089866713059099,0.00089867165287197,-0.00089866105672305,0.00089867772674075,-0.00089866713059105,0.00089867165287212,-0.00089866105672274,0.00089867772674048,-0.0010202687092782,0.0010202841079024,-0.0010202687092788,0.0010202841079012,0.59298586500054,120135,2834,0.0071462266154037,0.0071462266153966,0.0034427127804273,36.137405246242,0.00020429924196993,0.00020429924196993,0.00020429924196993,2781904.1197291,0.017893834444929
13419200,0.99632287079994,0.017839963071303,0.0067095374799721,0.0067095374799652,0.0044208881113655,-0.0017196880618495,0.0017196880618567,3.8642348914531e-15,3.3018403075157e-15,-1.7669460210119e-15,9.3635374797692e-15,-0.0018468577004921,0.0018468577004959,-0.0018468571545913,0.0018468571545944,-0.0018468576979522,0.0018468576979629,-0.001846857157118,0.0018468571571285,-0.0014519685544196,0.001451968554431,-0.00145196910483,0.0014519691048401,-3.2109019091507e-15,-1.4593864139895e-14,9.312683065761e-09,-9.3127234810799e-09,-0.0017196880618638,0.0017196880618386,-0.0018468545979131,0.0018468607998056,-0.0018468602571794,0.001846854055259,-0.0018468545979165,0.0018468607998015,-0.0018468602571833,0.0018468540552553,-0.0014519595186437,0.0014519777857714,-0.0014519781406704,0.0014519598734542,-0.0017272586714618,0.0017272524837661,-0.0017272586714729,0.0017272524837548,5.2231801427936e-09,5.2231807009443e-09,-0.00082262553247548,0.00082263776117122,-3.9896108663729e-09,1.4628045534108e-08,-0.00089372276420863,0.00089372887282995,-0.00089371656308609,0.00089373507395345,-0.00089372276420847,0.00089372887283008,-0.00089371656308613,0.00089373507395348,-0.0010173822154885,0.0010173993319466,-0.001017382215489,0.0010173993319455,0.58571221838275,120135,2834,0.0071390807520187,0.0071390807520116,0.0034255501946294,34.797147743141,0.00019357718194513,0.00019357718194513,0.00019357718194513,2777525.8807255,0.017861816693564
13919200,0.9971402152336,0.017851416102476,0.0067138233235959,0.006713823323589,0.0044237694552914,-0.0017191862144621,0.0017191862144689,3.5370684155761e-15,2.9864381781283e-15,-1.9587636905256e-15,9.2547760964724e-15,-0.0018467220654087,0.0018467220654116,-0.0018467216118128,0.0018467216118161,-0.0018467220641475,0.0018467220641578,-0.0018467216130609,0.0018467216130711,-0.0014506143126679,0.0014506143126787,-0.0014506148938655,0.0014506148938748,-2.978908996375e-15,-1.4448201884813e-14,9.4032361535748e-09,-9.4032761307292e-09,-0.0017191862144761,0.0017191862144512,-0.0018467189419303,0.0018467251974584,-0.0018467247352996,0.0018467184797437,-0.0018467189419337,0.0018467251974545,-0.0018467247353031,0.00184671847974,-0.0014506051953505,0.0014506236424067,-0.0014506240112457,0.0014506055641034,-0.0017268851662209,0.0017268789202253,-0.0017268851662318,0.0017268789202133,4.8574462000496e-09,4.8574467467774e-09,-0.00081948734147718,0.00081949863504775,-4.4298038767713e-09,1.4357325165563e-08,-0.00089058462378688,0.00089058985541062,-0.00089057836853136,0.00089059611066775,-0.0008905846237871,0.00089058985541102,-0.0008905783685312,0.00089059611066778,-0.0010148914147821,0.0010149078167883,-0.0010148914147826,0.0010149078167871,0.57829083677535,120135,2834,0.0071370021588811,0.0071370021588741,0.0034125372946691,33.829952902798,0.00018583962322238,0.00018583962322238,0.00018583962322238,2756058.8266348,0.017844341108831
14419200,0.99774299609547,0.017859677482485,0.0067169146720078,0.0067169146720008,0.0044258481384766,-0.001717909018204,0.0017179090182112,3.8260007653617e-15,3.2595474818854e-15,-1.8484729421852e-15,9.3317737442471e-15,-0.0018457733487721,0.0018457733487758,-0.0018457728372554,0.0018457728372586,-0.0018457733471385,0.0018457733471495,-0.0018457728388759,0.0018457728388865,-0.0014485821655129,0.0014485821655244,-0.0014485827304045,0.0014485827304147,-3.1069050861823e-15,-1.4523574007798e-14,9.5051665671788e-09,-9.5052068204636e-09,-0.0017179090182182,0.0017179090181932,-0.001845770188607,0.0018457765140437,-0.0018457759974295,0.0018457696719653,-0.0018457701886107,0.0018457765140398,-0.0018457759974331,0.0018457696719614,-0.0014485729462596,0.001448591592444,-0.0014485919497213,0.0014485733034493,-0.0017257146318614,0.0017257083172676,-0.0017257146318724,0.0017257083172563,5.1062640560143e-09,5.1062646087683e-09,-0.00081593919227861,0.00081595110989175,-4.2883022374536e-09,1.4707531420578e-08,-0.00088698801283809,0.00088699373400999,-0.00088698168736842,0.00088700005948088,-0.000886988012838,0.00088699373401009,-0.00088698168736822,0.00088700005948097,-0.0010119308773332,0.0010119478703178,-0.0010119308773338,0.0010119478703169,0.56553165739486,120135,2834,0.0071317166699202,0.0071317166699131,0.0033978217821794,32.644005384211,0.00017635204307369,0.00017635204307369,0.00017635204307369,2739396.0339424,0.017818604462182
14919200,0.99817536427493,0.017865656482717,0.0067191474400717,0.0067191474400647,0.004427361602581,-0.0017144119962581,0.001714411996265,3.5645381646294e-15,3.002672976284e-15,-1.9515874391669e-15,9.3370677001675e-15,-0.0018427488828229,0.0018427488828263,-0.0018427481435692,0.0018427481435723,-0.0018427488792563,0.0018427488792671,-0.0018427481471231,0.0018427481471335,-0.0014441980674221,0.0014441980674332,-0.001444198565378,0.0014441985653876,-2.934028014517e-15,-1.4467553660358e-14,9.7450207704449e-09,-9.7450602449187e-09,-0.001714411996272,0.0017144119962473,-0.0018427456287124,0.0018427521241396,-0.0018427513976882,0.0018427449022342,-0.0018427456287162,0.0018427521241356,-0.0018427513976915,0.0018427449022301,-0.0014441886021297,0.0014442077149545,-0.0014442080307335,0.0014441889178224,-0.0017222392838863,0.0017222328061445,-0.0017222392838968,0.0017222328061326,6.0684039536326e-09,6.0684045044079e-09,-0.00081059896476048,0.00081061330335169,-3.5924546161649e-09,1.5904810735531e-08,-0.00088121142721534,0.0008812191451786,-0.00088120493119805,0.00088122564119688,-0.00088121142721527,0.00088121914517891,-0.00088120493119822,0.00088122564119722,-0.0010073569638388,0.0010073761429007,-0.0010073569638391,0.0010073761428993,0.57027522199178,120135,2834,0.0071172509762433,0.0071172509762361,0.0033756640711505,30.581564253167,0.00015985251402534,0.00015985251402534,0.00015985251402534,2737062.5806525,0.017766605811856
15419200,0.99846998002065,0.017870018882396,0.0067207681871088,0.0067207681871018,0.0044284825081851,-0.0017091424247943,0.001709142424802,4.193107197571e-15,3.6708290351633e-15,-1.7887688837502e-15,9.6966449506234e-15,-0.0018373484288595,0.0018373484288633,-0.0018373473299364,0.0018373473299402,-0.0018373484224206,0.0018373484224323,-0.0018373473363622,0.0018373473363734,-0.001438594760703,0.001438594760715,-0.0014385951486604,0.0014385951486712,-3.059494769829e-15,-1.4807577165336e-14,1.0163517639779e-08,-1.0163557441617e-08,-0.0017091424248085,0.0017091424247837,-0.0018373450144078,0.0018373518038537,-0.0018373507443965,0.001837343954924,-0.001837345014412,0.0018373518038502,-0.0018373507444006,0.0018373439549201,-0.0014385848689556,0.001438604796556,-0.0014386050404731,0.0014385851127862,-0.0017173473402823,0.0017173405787839,-0.0017173473402943,0.0017173405787724,7.6235239362998e-09,7.6235244490317e-09,-0.00080208413574558,0.00080210237664229,-2.495324966991e-09,1.7871558216536e-08,-0.00087351614485109,0.00087352703334069,-0.00087350935380084,0.00087353382439151,-0.0008735161448507,0.00087352703334081,-0.00087350935380032,0.00087353382439158,-0.00099908429246991,0.00099910702306351,-0.00099908429247067,0.00099910702306289,0.60998272606572,120135,2834,0.0070954405209824,0.0070954405209749,0.0033403385180627,27.07448208069,0.00013179585664552,0.00013179585664552,0.00013179585664552,2713600.330196,0.017686262835966
15919200,0.99869634745156,0.017873626197766,0.0067221027219383,0.0067221027219313,0.0044294207538959,-0.0017088173459726,0.0017088173459799,3.839294476895e-15,3.3117811802994e-15,-1.8638254143542e-15,9.5057096070965e-15,-0.0018358771932327,0.0018358771932363,-0.0018358765561547,0.001835876556158,-0.0018358771922762,0.0018358771922873,-0.001835876557098,0.0018358765571089,-0.0014391258802367,0.0014391258802482,-0.0014391264065952,0.0014391264066055,-3.0457304844361e-15,-1.4696054147656e-14,1.029291885821e-08,-1.0292959070805e-08,-0.0017088173459869,0.0017088173459618,-0.0018358737754967,0.0018358806222195,-0.0018358799738997,0.0018358731271494,-0.0018358737755004,0.0018358806222155,-0.0018358799739033,0.0018358731271455,-0.0014391158923134,0.001439136083744,-0.0014391363945824,0.0014391162030643,-0.0017177956367922,0.0017177887982235,-0.0017177956368033,0.0017177887982118,5.7692667849763e-09,5.7692673058146e-09,-0.00079725040937048,0.00079726394281112,-4.408333982921e-09,1.6164008744116e-08,-0.00087155347555213,0.00087156008570445,-0.0008715466258137,0.00087156693544405,-0.00087155347555202,0.00087156008570458,-0.00087154662581354,0.0008715669354441,-0.00099336237812449,0.00099338127658559,-0.00099336237812507,0.00099338127658462,0.65577889892609,120135,2834,0.0070940683443921,0.007094068344385,0.0033202945433124,25.355863371409,0.00011804690697127,0.00011804690697127,0.00011804690697127,2640394.0496835,0.017663080316087
16419200,0.99888001526825,0.017876305960596,0.0067230994462078,0.0067230994462008,0.0044301070681872,-0.0017093527495587,0.0017093527495663,3.917645024516e-15,3.5437740930752e-15,-2.1065238824355e-15,1.005286936233e-14,-0.0018354025217732,0.0018354025217769,-0.0018354020859263,0.0018354020859296,-0.0018354025226244,0.001835402522636,-0.0018354020850614,0.001835402085073,-0.0014406318196644,0.0014406318196762,-0.0014406323978629,0.0014406323978743,-2.9263811892987e-15,-1.4885650837225e-14,1.0198004168354e-08,-1.0198044170038e-08,-0.0017093527495731,0.0017093527495481,-0.0018353991490864,0.001835405922558,-0.0018354054586223,0.0018353986851233,-0.0018353991490903,0.0018354059225539,-0.001835405458626,0.0018353986851194,-0.0014406219348042,0.0014406419440834,-0.0014406422827882,0.0014406222734223,-0.0017187650841987,0.0017187583124359,-0.00171876508421,0.0017187583124241,4.9225330286222e-09,4.9225335725077e-09,-0.00079376964627642,0.00079378105059278,-5.1365783755492e-09,1.5228268578883e-08,-0.00087089789673777,0.00087090265614565,-0.00087089111934042,0.0008709094335441,-0.00087089789673764,0.0008709026561457,-0.00087089111934024,0.00087090943354423,-0.00098903815400361,0.00098905520708951,-0.00098903815400415,0.00098905520708819,0.60060692441175,120135,2834,0.0070962552597063,0.0070962552596995,0.0033058744822793,24.413115961693,0.00011050492769354,0.00011050492769354,0.00011050492769354,2569898.7117061,0.017652864917916
16919200,0.99903265346261,0.017878792750468,0.0067240158031402,0.0067240158031333,0.0044307611441948,-0.0017053847514353,0.0017053847514426,3.7115336740175e-15,3.2733117672783e-15,-2.2653425600457e-15,9.9687542849288e-15,-0.0018331681054342,0.0018331681054371,-0.001833167736266,0.0018331677362689,-0.0018331681068488,0.0018331681068604,-0.0018331677348376,0.0018331677348482,-0.0014348470421572,0.0014348470421687,-0.0014348476413855,0.0014348476413965,-3.260547451337e-15,-1.5746286999425e-14,1.0067934684972e-08,-1.0067976945833e-08,-0.0017053847514502,0.0017053847514236,-0.0018331647799172,0.0018331714642416,-0.0018331710617929,0.0018331643774384,-0.0018331647799212,0.0018331714642378,-0.0018331710617968,0.0018331643774341,-0.0014348372887448,0.0014348570439171,-0.0014348573948636,0.0014348376395982,-0.0017138353131843,0.0017138286285573,-0.0017138353131964,0.0017138286285447,4.6077180138736e-09,4.6077184408057e-09,-0.0007913360198852,0.00079134664147138,-5.3128540021207e-09,1.478439520491e-08,-0.00086548370023373,0.00086548788950277,-0.00086547701324244,0.00086549457649564,-0.0008654837002338,0.00086548788950283,-0.00086547701324203,0.00086549457649522,-0.00098865652349337,0.00098867283200689,-0.00098865652349483,0.00098867283200642,0.66895807438954,120135,2834,0.0070798606752169,0.0070798606752094,0.003295757657598,23.780486207354,0.00010544388965883,0.00010544388965883,0.00010544388965883,2620947.9958818,0.017609192018173
17419200,0.99915239861418,0.017880632010707,0.006724696847104,0.0067246968470971,0.0044312383165057,-0.001706120381206,0.0017061203812138,4.5440964750895e-15,3.1539036504084e-15,-2.3653983269401e-15,1.0576206315922e-14,-0.0018320216020311,0.001832021602035,-0.0018320209662061,0.0018320209662091,-0.0018320216008604,0.0018320216008729,-0.0018320209673626,0.0018320209673743,-0.0014371263328016,0.001437126332815,-0.0014371268422239,0.0014371268422344,-2.5349813815883e-15,-1.5734488761507e-14,1.0200987319771e-08,-1.0201027970811e-08,-0.0017061203812207,0.0017061203811952,-0.0018320182133764,0.0018320249998655,-0.0018320243548698,0.0018320175683534,-0.0018320182133806,0.001832024999861,-0.0018320243548739,0.0018320175683489,-0.0014371164334343,0.0014371364440743,-0.0014371367416571,0.0014371167309278,-0.0017157878890253,0.0017157811117073,-0.0017157878890379,0.0017157811116941,5.7854562596607e-09,5.7854575832127e-09,-0.0007865865453207,0.00078660012720248,-4.3028893743266e-09,1.6087290230372e-08,-0.0008650122745288,0.00086501891858038,-0.00086500548485199,0.00086502570825832,-0.00086501227452842,0.00086501891858078,-0.00086500548485157,0.00086502570825863,-0.0009821591159674,0.00098217799228435,-0.00098215911596875,0.00098217799228262,0.63180122446754,120135,2834,0.0070828663918717,0.0070828663918647,0.0032760884514168,21.984871415812,9.1078971326498e-05,9.1078971326498e-05,9.1078971326498e-05,2523697.8142334,0.01759530796771
17919200,0.99924388545051,0.017881935773174,0.0067251813518677,0.0067251813518607,0.0044315730694456,-0.0016994968394386,0.0016994968394463,4.3495730058833e-15,3.0713767597836e-15,-2.2272848991517e-15,1.0234157941735e-14,-0.0018266368311586,0.0018266368311625,-0.0018266360213274,0.0018266360213307,-0.0018266368285606,0.0018266368285729,-0.0018266360239118,0.0018266360239239,-0.0014291646078422,0.0014291646078563,-0.001429165050909,0.0014291650509183,-1.9865863699736e-15,-1.4690759847077e-14,1.0381786297759e-08,-1.038182380863e-08,-0.0016994968394522,0.0016994968394286,-0.0018266333717763,0.0018266402865227,-0.0018266394807182,0.001826632565947,-0.0018266333717801,0.0018266402865183,-0.001826639480722,0.0018266325659429,-0.0014291545234027,0.0014291748857653,-0.0014291751354098,0.0014291547729627,-0.0017084365127365,0.0017084296120682,-0.0017084365127492,0.0017084296120556,6.5303815790383e-09,6.5303828592569e-09,-0.00077988232480822,0.00077989778415795,-3.758404592088e-09,1.7009493681102e-08,-0.00085659898133992,0.0008566071739172,-0.00085659206342713,0.00085661409182992,-0.0008565989813394,0.00085660717391753,-0.00085659206342641,0.00085661409183001,-0.00097706661688868,0.0009770871899672,-0.00097706661689127,0.00097708718996518,0.58584130698366,120135,2834,0.0070554727264903,0.0070554727264829,0.0032482556796581,19.505429999064,7.1243439992511e-05,7.1243439992511e-05,7.1243439992511e-05,2555845.9616958,0.017511230816448
18419200,0.99931660693723,0.01788300061608,0.0067255759049625,0.0067255759049555,0.0044318488061621,-0.001693653857322,0.0016936538573277,3.3683676869146e-15,2.2885771443627e-15,-2.6630951148605e-15,9.2871280493189e-15,-0.0018221941978388,0.0018221941978391,-0.0018221934817178,0.0018221934817193,-0.0018221941964586,0.001822194196469,-0.0018221934830906,0.0018221934830984,-0.001421558599899,0.0014215585999104,-0.0014215590832686,0.0014215590832802,-2.4959237512427e-15,-1.4911422568298e-14,1.0466560855737e-08,-1.0466596378592e-08,-0.0016936538573343,0.0016936538573115,-0.0018221907191036,0.0018221976839345,-0.0018221969604621,0.0018221899956065,-0.0018221907191043,0.0018221976839295,-0.0018221969604655,0.0018221899956006,-0.0014215484396146,0.0014215689709094,-0.0014215692436091,0.0014215487122366,-0.001702050688982,0.0017020437336623,-0.0017020506889921,0.0017020437336508,6.111976475696e-09,6.1119775694278e-09,-0.00077496201713872,0.00077497641863487,-4.2460828319389e-09,1.6680467405933e-08,-0.00084911602427446,0.00084912328542418,-0.00084910905598634,0.00084913025371589,-0.00084911602427511,0.00084912328542567,-0.00084910905598443,0.00084913025371447,-0.00097388561053651,0.00097390535591777,-0.00097388561053955,0.00097390535592139,0.60198892243478,120135,2834,0.0070313187009351,0.0070313187009278,0.003227812305445,17.481682554352,5.5053460434815e-05,5.5053460434815e-05,5.5053460434815e-05,2604784.1294314,0.01744127009632
18919200,0.99938006682594,0.017883981372843,0.0067259381624614,0.0067259381624545,0.0044321050479276,-0.0016941776090117,0.0016941776090192,4.1834016117171e-15,3.1103167466643e-15,-2.0664074609058e-15,9.9466961352608e-15,-0.0018220941032517,0.0018220941032555,-0.001822093735045,0.0018220937350481,-0.0018220941052195,0.0018220941052312,-0.0018220937330637,0.0018220937330748,-0.0014223968372539,0.0014223968372661,-0.0014223974397781,0.001422397439788,-2.8366192255827e-15,-1.511357149389e-14,1.0283487152559e-08,-1.0283527310998e-08,-0.001694177609026,0.0016941776090009,-0.0018220907099627,0.0018220975349163,-0.0018220971283431,0.0018220903033621,-0.0018220907099667,0.0018220975349121,-0.0018220971283468,0.001822090303358,-0.0014223868755043,0.0014224070544336,-0.0014224074015915,0.0014223872225746,-0.0017031618910973,0.0017031550637785,-0.001703161891109,0.0017031550637661,4.633624137306e-09,4.6336252034013e-09,-0.00077304907831706,0.00077305975080478,-5.4966519829061e-09,1.5028783103421e-08,-0.00084862935579504,0.00084863344846309,-0.00084862252709065,0.00084864027716862,-0.00084862935579475,0.00084863344846336,-0.00084862252709034,0.00084864027716886,-0.00097149160949606,0.00097150811203892,-0.00097149160949701,0.0009715081120372,0.63537812975604,120135,2834,0.0070334732090292,0.0070334732090221,0.003219879523589,16.875721671292,5.020577337034e-05,5.020577337034e-05,5.020577337034e-05,2562878.4046419,0.017437587740453
19419200,0.99943991506942,0.017884950439023,0.0067262951006493,0.0067262951006423,0.0044323602377317,-0.0016973935895577,0.0016973935895651,4.0910514917734e-15,3.1479626554311e-15,-1.9875863394252e-15,9.7214088999841e-15,-0.0018244019679662,0.00182440196797,-0.0018244019085627,0.0018244019085659,-0.0018244019720917,0.0018244019721032,-0.0018244019044241,0.0018244019044351,-0.0014264434937502,0.0014264434937624,-0.0014264441956011,0.0014264441956114,-2.8216785055409e-15,-1.4860135302368e-14,9.9012243686385e-09,-9.9012644088563e-09,-0.001697393589572,0.001697393589547,-0.0018243987182072,0.0018244052763345,-0.0018244051583306,0.0018243986001764,-0.001824398718211,0.0018244052763303,-0.0018244051583344,0.0018243986001723,-0.0014264339188199,0.0014264533533503,-0.0014264537705953,0.0014264343359776,-0.0017069076396416,0.0017069010715151,-0.0017069076396531,0.001706901071503,3.268391206072e-09,3.268392112541e-09,-0.00077363713186264,0.00077364438188831,-6.4505820109434e-09,1.3287823783503e-08,-0.00085134267120137,0.00085134399364181,-0.00085133610860629,0.00085135055623813,-0.00085134267120113,0.00085134399364215,-0.00085133610860598,0.00085135055623832,-0.00097119642789965,0.00097120980145701,-0.00097119642790066,0.00097120980145543,0.66499873693051,120135,2834,0.0070467599601068,0.0070467599600998,0.0032223374855289,17.545078097521,5.556062478017e-05,5.556062478017e-05,5.556062478017e-05,2503938.0950724,0.017467132300218
19919200,0.99949762392544,0.017885869596947,0.0067266338678296,0.0067266338678226,0.0044326018612952,-0.0017007528493695,0.001700752849377,4.1500496894189e-15,3.1767264825983e-15,-2.0294674129283e-15,9.8632280969167e-15,-0.0018271571007157,0.0018271571007194,-0.0018271571474621,0.0018271571474653,-0.0018271571034596,0.0018271571034712,-0.0018271571447048,0.0018271571447159,-0.0014304988144699,0.0014304988144821,-0.0014304995498702,0.0014304995498804,-2.7826796969277e-15,-1.4841776373331e-14,8.9268943152022e-09,-8.9269342169712e-09,-0.0017007528493838,0.001700752849359,-0.0018271541656566,0.0018271600815184,-0.0018271600825301,0.0018271541666414,-0.0018271541656605,0.0018271600815143,-0.0018271600825338,0.0018271541666374,-0.0014304901863737,0.0014305077084663,-0.0014305081780305,0.0014304906558508,-0.0017104504193991,0.0017104444990529,-0.0017104504194105,0.0017104444990408,2.6815749310942e-09,2.681575618735e-09,-0.00077497328828609,0.00077497910984498,-6.0759478396205e-09,1.1717079351068e-08,-0.00085436126739355,0.00085436196193832,-0.00085435535029635,0.00085436787903664,-0.00085436126739339,0.00085436196193849,-0.00085435535029611,0.00085436787903674,-0.00097193826184413,0.00097194976327205,-0.00097193826184492,0.00097194976327091,0.65387746586769,120135,2834,0.0070606418236515,0.0070606418236445,0.0032279046398955,18.680619201878,6.4644953615024e-05,6.4644953615024e-05,6.4644953615024e-05,2454344.0958402,0.017501050412338
20419200,0.99954915773908,0.017886722528234,0.0067269472070692,0.0067269472070622,0.0044328281141028,-0.0016999682560984,0.0016999682561058,4.0056423362586e-15,3.1996081365207e-15,-1.9485287090796e-15,9.6429995306306e-15,-0.0018268326479259,0.0018268326479296,-0.0018268324069141,0.0018268324069173,-0.0018268326477023,0.0018268326477136,-0.0018268324071244,0.0018268324071353,-0.0014292341290043,0.0014292341290163,-0.001429234764007,0.0014292347640172,-2.9080876305073e-15,-1.4756192705685e-14,8.915028080347e-09,-8.9150681102189e-09,-0.0016999682561127,0.0016999682560878,-0.0018268296948595,0.0018268356191694,-0.0018268353599895,0.0018268294356524,-0.0018268296948633,0.0018268356191654,-0.0018268353599931,0.0018268294356484,-0.0014292254958026,0.0014292429881014,-0.0014292433972726,0.0014292259048865,-0.0017093471452826,0.0017093412271787,-0.001709347145294,0.0017093412271669,3.9138722447584e-09,3.9138730408946e-09,-0.00077374926810913,0.0007737582026441,-4.8706156619999e-09,1.292788421247e-08,-0.00085272653583191,0.0008527299509818,-0.00085272061148666,0.00085273587532818,-0.00085272653583171,0.00085272995098202,-0.00085272061148642,0.00085273587532832,-0.0009713406984615,0.00097135479634413,-0.00097134069846242,0.00097135479634295,0.67876339275943,120135,2834,0.0070573963878312,0.0070573963878241,0.0032228363496679,18.601964818528,6.4015718548224e-05,6.4015718548224e-05,6.4015718548224e-05,2452103.7686122,0.017489286616656
20919200,0.99959202245303,0.017887406848474,0.0067271991429938,0.0067271991429868,0.0044330085624938,-0.001698661852764,0.0016986618527713,4.0414059495871e-15,3.2893112785042e-15,-2.0739366426592e-15,9.4643579291854e-15,-0.001825042812898,0.0018250428129025,-0.0018250422789141,0.0018250422789158,-0.0018250428100926,0.0018250428101029,-0.0018250422817071,0.0018250422817186,-0.0014282711514877,0.0014282711514993,-0.0014282716808294,0.0014282716808389,-3.5690674380279e-15,-1.5367767542714e-14,9.0969898245157e-09,-9.0970311301456e-09,-0.0016986618527788,0.0016986618527529,-0.0018250397801001,0.0018250458397094,-0.0018250453117242,0.0018250392520847,-0.0018250397801047,0.0018250458397054,-0.0018250453117263,0.0018250392520806,-0.0014282623248768,0.0014282801681813,-0.0014282805075035,0.0014282626641137,-0.0017083279443243,0.00170832190027,-0.0017083279443336,0.0017083219002588,5.2106437756158e-09,5.2106445136516e-09,-0.00076991379040895,0.00076992598435362,-3.7906197922151e-09,1.4398602173295e-08,-0.00085041870051805,0.00085042482201807,-0.00085041264113659,0.00085043088140032,-0.00085041870051834,0.00085042482201901,-0.00085041264113618,0.00085043088140015,-0.00096717254443773,0.00096718949804748,-0.00096717254443716,0.00096718949804529,0.65509998254529,120135,2834,0.0070519759745878,0.007051975974581,0.0032069398694126,17.278884895916,5.3431079167326e-05,5.3431079167326e-05,5.3431079167326e-05,2415159.5855859,0.017462086664963
21419200,0.99962642473618,0.017887957123175,0.0067274015491008,0.0067274015490938,0.0044331540249806,-0.0016937455356729,0.0016937455356802,3.9689963969433e-15,3.2166664389307e-15,-1.9675869503928e-15,9.6031772177632e-15,-0.0018208963192786,0.0018208963192822,-0.0018208956068012,0.0018208956068043,-0.0018208963153289,0.0018208963153402,-0.0018208956107376,0.0018208956107485,-0.0014223735356435,0.0014223735356556,-0.0014223740001913,0.0014223740002014,-2.9313810365568e-15,-1.476796957477e-14,9.4261507853648e-09,-9.4261910117835e-09,-0.0016937455356872,0.0016937455356621,-0.0018208931684393,0.0018208994535442,-0.0018208987576495,0.0018208924725173,-0.0018208931684432,0.0018208994535402,-0.0018208987576531,0.0018208924725133,-0.0014223643797054,0.0014223828662254,-0.0014223831561938,0.0014223646695863,-0.0017030676990901,0.0017030614333668,-0.0017030676991014,0.001703061433355,6.0015022338182e-09,6.0015029763507e-09,-0.00076457935963246,0.00076459353899611,-3.3456112988309e-09,1.5516465907921e-08,-0.00084407045924779,0.00084407811152136,-0.00084406417379745,0.00084408439697297,-0.00084407045924772,0.0008440781115216,-0.00084406417379718,0.00084408439697304,-0.00096290835297378,0.00096292719503802,-0.00096290835297479,0.00096292719503673,0.65600718761991,120135,2834,0.0070316411277781,0.007031641127771,0.0031847966322866,15.233729445815,3.7069835566524e-05,3.7069835566524e-05,3.7069835566524e-05,2432543.2100679,0.017398174919182
21919200,0.99965567784483,0.017888419146312,0.0067275716062547,0.0067275716062477,0.0044332759338098,-0.0016917094009444,0.0016917094009518,3.9646435887422e-15,3.210548978756e-15,-1.9032947968269e-15,9.5688841477459e-15,-0.001818896929953,0.0018188969299567,-0.0018188964079868,0.00181889640799,-0.0018188969283811,0.0018188969283923,-0.0018188964095456,0.0018188964095565,-0.0014200645894236,0.0014200645894354,-0.0014200651248364,0.0014200651248466,-2.9843794174927e-15,-1.4710134025429e-14,9.5611020919425e-09,-9.5611421694786e-09,-0.0016917094009587,0.0016917094009337,-0.0018188937515871,0.0018189001138346,-0.0018188995863617,0.0018188932240869,-0.0018188937515909,0.0018189001138306,-0.0018188995863653,0.001818893224083,-0.0014200553150008,0.0014200740709296,-0.0014200743993231,0.0014200556433071,-0.001701144822424,0.0017011384709862,-0.0017011448224352,0.0017011384709745,5.2028425015378e-09,5.2028432464749e-09,-0.00076118802552933,0.00076120017931557,-4.248645284007e-09,1.4861248277598e-08,-0.00084095792702648,0.00084096373205328,-0.00084095156331641,0.00084097009576446,-0.0008409579270263,0.00084096373205348,-0.00084095156331617,0.00084097009576457,-0.00095975066220527,0.00095976790385739,-0.00095975066220608,0.00095976790385621,0.64802893446145,120135,2834,0.0070232129230605,0.0070232129230534,0.0031707212481245,13.99748040189,2.7179843215122e-05,2.7179843215122e-05,2.7179843215122e-05,2420396.295724,0.017366706173939
22419200,0.99968405557056,0.017888877266024,0.0067277399323794,0.0067277399323724,0.0044333974012726,-0.0016931557740331,0.0016931557740404,3.9356444746452e-15,3.1840203774219e-15,-1.8692370137394e-15,9.4903571349275e-15,-0.0018205716610505,0.0018205716610542,-0.0018205716343438,0.001820571634347,-0.0018205716640433,0.0018205716640544,-0.0018205716313379,0.0018205716313487,-0.0014211564774261,0.0014211564774377,-0.0014211571920453,0.0014211571920554,-2.943086561314e-15,-1.4557511619924e-14,9.2674772168812e-09,-9.2675170648622e-09,-0.0016931557740472,0.0016931557740225,-0.0018205686140856,0.0018205747560647,-0.0018205746813176,0.0018205685393114,-0.0018205686140893,0.0018205747560607,-0.0018205746813211,0.0018205685393075,-0.0014211475174838,0.0014211657072035,-0.0014211661520511,0.0014211479622445,-0.0017025484120333,0.0017025422645505,-0.0017025484120444,0.0017025422645389,3.0433914598328e-09,3.0433922017514e-09,-0.00076241725002615,0.00076242396426235,-6.0529138252405e-09,1.2421936102151e-08,-0.00084187528216167,0.00084187654560697,-0.00084186913831883,0.00084188268945089,-0.00084187528216149,0.00084187654560717,-0.00084186913831858,0.000841882689451,-0.00096130012368632,0.00096131261201015,-0.00096130012368708,0.00096131261200899,0.66209699615457,120135,2834,0.0070291995009953,0.0070291995009882,0.0031758183430578,14.84905273872,3.3992421909763e-05,3.3992421909763e-05,3.3992421909763e-05,2412761.9092816,0.017384071633691
22919200,0.99971089460982,0.017889288755632,0.0067278915066576,0.0067278915066507,0.0044335057423234,-0.0016949862112003,0.0016949862112076,3.934703326926e-15,3.1845497730139e-15,-1.8302970268587e-15,9.4431232837716e-15,-0.0018220631321372,0.0018220631321409,-0.001822063025831,0.0018220630258342,-0.0018220631337257,0.0018220631337368,-0.0018220630242296,0.0018220630242403,-0.0014232230975244,0.001423223097536,-0.0014232237810697,0.0014232237810798,-2.9750855837658e-15,-1.4502440692009e-14,9.0636681591082e-09,-9.0637079631823e-09,-0.0016949862112144,0.0016949862111897,-0.0018220601428723,0.0018220661564218,-0.0018220660151048,0.0018220600015283,-0.001822060142876,0.0018220661564179,-0.0018220660151083,0.0018220600015244,-0.001423214329084,0.0014232321165885,-0.0014232325495736,0.0014232147619824,-0.0017046320137072,0.0017046259997959,-0.0017046320137182,0.0017046259997843,3.3499595487002e-09,3.3499602893362e-09,-0.00076284419588551,0.00076285170096572,-5.5599788610855e-09,1.2519163060841e-08,-0.00084321813496724,0.00084322020878376,-0.00084321212037701,0.00084322622337508,-0.00084321813496706,0.00084322020878396,-0.00084321212037677,0.00084322622337519,-0.00096141973749172,0.00096143274194174,-0.00096141973749252,0.00096143274194056,0.62916622533658,120135,2834,0.0070367645349449,0.0070367645349379,0.0031776058893993,15.356845854984,3.8054766839872e-05,3.8054766839872e-05,3.8054766839872e-05,2382155.5889296,0.017401286325055
23419200,0.99973596651001,0.01788968030552,0.0067280354210874,0.0067280354210804,0.0044336094633522,-0.0016942955882323,0.0016942955882395,3.9611142847953e-15,3.1206105498427e-15,-1.8401202561775e-15,9.3261856796645e-15,-0.0018222710733019,0.0018222710733056,-0.0018222709259918,0.0018222709259949,-0.0018222710742604,0.0018222710742715,-0.0018222709250202,0.0018222709250308,-0.001421482262364,0.0014214822623757,-0.0014214829348398,0.0014214829348498,-2.989673373413e-15,-1.4410276228159e-14,8.9534274710677e-09,-8.9534673540859e-09,-0.0016942955882464,0.0016942955882216,-0.001822268116009,0.0018222740597418,-0.0018222738832936,0.0018222679395336,-0.0018222681160127,0.0018222740597379,-0.0018222738832971,0.0018222679395298,-0.0014214735985925,0.0014214911685589,-0.0014214915986744,0.0014214740286213,-0.0017035489753941,0.0017035430335804,-0.0017035489754051,0.001703543033569,3.5078925093594e-09,3.5078933429134e-09,-0.00076309907464065,0.0007631069853564,-5.2994735946073e-09,1.2564217731678e-08,-0.0008417860156618,0.0008417885249663,-0.0008417800718048,0.00084179446882441,-0.00084178601566158,0.00084178852496654,-0.00084178007180453,0.00084179446882454,-0.00096271691065345,0.00096273017827813,-0.00096271691065439,0.00096273017827696,0.64041031559502,120135,2834,0.0070339211413992,0.0070339211413921,0.0031786572745677,15.705339451437,4.0842715611494e-05,4.0842715611494e-05,4.0842715611494e-05,2405583.2941121,0.017396564580102
23919200,0.99976067459582,0.017890095240179,0.006728187297542,0.006728187297535,0.0044337206451023,-0.0016976728870386,0.0016976728870458,3.9419972217496e-15,3.1186694326719e-15,-1.8152386633519e-15,9.3471262164161e-15,-0.0018252746361138,0.0018252746361175,-0.0018252747142342,0.0018252747142373,-0.0018252746388009,0.0018252746388119,-0.0018252747115341,0.0018252747115447,-0.0014251289164258,0.0014251289164375,-0.0014251296682079,0.0014251296682178,-3.0179666267206e-15,-1.4448886951201e-14,8.7014570786644e-09,-8.7014967449202e-09,-0.0016976728870527,0.001697672887028,-0.0018252717755857,0.001825277541923,-0.0018252775747711,0.0018252718084069,-0.0018252717755894,0.0018252775419192,-0.0018252775747746,0.0018252718084031,-0.0014251205094352,0.0014251375891143,-0.001425138075262,0.0014251209954966,-0.0017072377244871,0.0017072319539248,-0.0017072377244981,0.0017072319539134,2.5188460787829e-09,2.5188468953681e-09,-0.00076542959791883,0.00076543501930921,-6.0125515695481e-09,1.1327540065193e-08,-0.00084491451100113,0.00084491501005462,-0.00084490874465641,0.00084492077640042,-0.00084491451100089,0.00084491501005486,-0.00084490874465608,0.00084492077640049,-0.00096465895140417,0.00096466996418545,-0.00096465895140515,0.00096466996418435,0.688278401527,120135,2834,0.0070478879863994,0.0070478879863923,0.0031883394032614,17.003048305787,5.1224386446293e-05,5.1224386446293e-05,5.1224386446293e-05,2374384.5337625,0.017434838079846
24419200,0.99978423676018,0.017890479407019,0.0067283281380078,0.0067283281380009,0.0044338231310107,-0.0017015108311275,0.0017015108311348,3.9522322031956e-15,3.1839615556894e-15,-1.8298264529991e-15,9.460887446971e-15,-0.0018279879554185,0.0018279879554222,-0.0018279879335146,0.0018279879335178,-0.0018279879564903,0.0018279879565014,-0.0018279879324299,0.0018279879324407,-0.0014301058691611,0.0014301058691728,-0.0014301065810372,0.0014301065810472,-2.9616154070352e-15,-1.4496687191304e-14,8.5287076027796e-09,-8.5287473301639e-09,-0.0017015108311417,0.001701510831117,-0.0018279851407765,0.0018279908003245,-0.0018279907481656,0.0018279850885907,-0.0018279851407802,0.0018279908003206,-0.0018279907481691,0.0018279850885869,-0.0014300976217119,0.0014301143597451,-0.0014301148285498,0.0014300980904302,-0.0017116729385618,0.0017116672807537,-0.0017116729385728,0.0017116672807421,2.918631221949e-09,2.9186319813846e-09,-0.00076659624304124,0.00076660268521031,-5.4606795819632e-09,1.1548662539719e-08,-0.00084860888672705,0.00084861037365205,-0.00084860322752354,0.00084861603285662,-0.00084860888672686,0.00084861037365226,-0.00084860322752329,0.00084861603285673,-0.00096460412412838,0.00096461586829515,-0.00096460412412919,0.00096461586829396,0.66831883269518,120135,2834,0.007063744990523,0.007063744990516,0.0031932094112836,17.880797518642,5.8246380149133e-05,5.8246380149133e-05,5.8246380149133e-05,2311662.212967,0.017472068868953
24919200,0.99980606022475,0.017890817725795,0.006728452392823,0.006728452392816,0.0044339129401556,-0.0017013778735725,0.0017013778735798,3.9406443219033e-15,3.186784998847e-15,-1.8138269417732e-15,9.4196534125248e-15,-0.0018284711749678,0.0018284711749715,-0.0018284710555691,0.0018284710555723,-0.0018284711750203,0.0018284711750314,-0.0018284710555036,0.0018284710555143,-0.0014293928002927,0.0014293928003042,-0.0014293934790496,0.0014293934790597,-2.9798501440941e-15,-1.4479485051377e-14,8.5008531949063e-09,-8.5008928869804e-09,-0.0017013778735866,0.0017013778735619,-0.001828468361972,0.0018284740087077,-0.0018284738685737,0.001828468221811,-0.0018284683619757,0.0018284740087039,-0.0018284738685772,0.0018284682218071,-0.0014293845745424,0.0014294012556689,-0.0014294017048632,0.0014293850236504,-0.0017111189701526,0.0017111133288516,-0.0017111189701636,0.0017111133288402,3.332062231678e-09,3.3320629759104e-09,-0.00076674445914317,0.00076675194839307,-5.032769295531e-09,1.1930911467722e-08,-0.00084787104635421,0.00084787346558625,-0.00084786540057408,0.00084787911136746,-0.00084787104635403,0.00084787346558645,-0.00084786540057381,0.00084787911136755,-0.00096548568665989,0.00096549828829659,-0.00096548568666063,0.00096549828829547,0.63528366559232,120135,2834,0.0070632002015097,0.0070632002015027,0.003193827572293,18.351423593302,6.2011388746413e-05,6.2011388746413e-05,6.2011388746413e-05,2318896.5616789,0.01747158509695
25419200,0.99982749340781,0.017891181522785,0.0067285851821336,0.0067285851821266,0.0044340111585244,-0.0017030337376224,0.0017030337376297,3.9441736258502e-15,3.1604916844426e-15,-1.8512375636102e-15,9.4469466963807e-15,-0.0018309653364075,0.0018309653364112,-0.0018309654757669,0.0018309654757701,-0.001830965338396,0.0018309653384071,-0.0018309654737654,0.0018309654737761,-0.0014300984774701,0.0014300984774818,-0.0014300992540743,0.0014300992540843,-2.9349103405037e-15,-1.4490273784288e-14,8.1493189298207e-09,-8.1493586909433e-09,-0.0017030337376365,0.0017030337376118,-0.0018309626547173,0.0018309680569033,-0.001830968157466,0.0018309627552531,-0.001830962654721,0.0018309680568994,-0.0018309681574695,0.0018309627552492,-0.0014300906078582,0.0014301066037335,-0.0014301071237498,0.0014300911277878,-0.0017123965436988,0.0017123911400893,-0.0017123965437098,0.0017123911400776,2.1867179436989e-09,2.1867187185971e-09,-0.00076977494872117,0.00076977955864623,-5.7992955870337e-09,1.0438790642971e-08,-0.00084920145664403,0.00084920160556379,-0.000849196056184,0.00084920700602491,-0.00084920145664383,0.00084920160556401,-0.00084919605618374,0.00084920700602504,-0.00096944215653244,0.0009694521092136,-0.00096944215653328,0.0009694521092124,0.69486035635154,120135,2834,0.0070700655875941,0.007070065587587,0.0032063974678129,19.918383499444,7.454706799555e-05,7.454706799555e-05,7.454706799555e-05,2338145.3442555,0.01749833984025
25919200,0.9998474423253,0.017891517028646,0.0067287078021028,0.0067287078020958,0.0044341014244475,-0.001707531299418,0.0017075312994252,3.9240565933529e-15,3.1811969342644e-15,-1.7884159533555e-15,9.3815369298983e-15,-0.0018339520237331,0.0018339520237368,-0.0018339519853031,0.0018339519853063,-0.0018339520236725,0.0018339520236836,-0.0018339519853507,0.0018339519853614,-0.0014360312180542,0.0014360312180658,-0.0014360319240555,0.0014360319240655,-2.994261468544e-15,-1.4425963019159e-14,8.1250604720743e-09,-8.1251001563558e-09,-0.0017075312994321,0.0017075312994074,-0.0018339493352107,0.0018339547319432,-0.0018339546738344,0.001833949277075,-0.0018339493352143,0.0018339547319393,-0.0018339546738379,0.0018339492770712,-0.0014360233596568,0.0014360393039792,-0.0014360397825162,0.0014360238381075,-0.0017178108795568,0.0017178054888841,-0.0017178108795677,0.0017178054888726,2.9403632509616e-09,2.9403639760459e-09,-0.00077104372032877,0.00077105023676496,-5.0483119904072e-09,1.1161080294608e-08,-0.00085364853954697,0.00085365034902979,-0.00085364314474627,0.00085365574383155,-0.00085364853954679,0.00085365034902999,-0.00085364314474602,0.00085365574383165,-0.00096906158780759,0.00096907311502194,-0.00096906158780838,0.00096907311502079,0.68893725024522,120135,2834,0.0070886468407073,0.0070886468407003,0.0032116968266355,20.733526809334,8.1068214474674e-05,8.1068214474674e-05,8.1068214474674e-05,2262949.7942107,0.017541556652592
26419200,0.99986476072562,0.017891822459642,0.0067288190628004,0.0067288190627935,0.0044341843340484,-0.0017063783036164,0.0017063783036236,3.892175214366e-15,3.1442568862869e-15,-1.8063565817522e-15,9.4031245057068e-15,-0.0018331221131823,0.001833122113186,-0.0018331218033747,0.0018331218033779,-0.0018331221108189,0.00183312211083,-0.0018331218057252,0.0018331218057359,-0.0014346209523464,0.0014346209523579,-0.001434621559793,0.001434621559803,-2.9718503884812e-15,-1.4441499194355e-14,8.313436129313e-09,-8.3134760018861e-09,-0.0017063783036305,0.0017063783036058,-0.00183311934475,0.0018331248797436,-0.0018331245718161,0.0018331190367952,-0.0018331193447537,0.0018331248797398,-0.0018331245718196,0.0018331190367914,-0.0014346128960881,0.0014346292046483,-0.0014346296161148,0.0014346133074681,-0.0017163541049391,0.0017163485842863,-0.0017163541049502,0.0017163485842748,4.1295558033302e-09,4.1295565367354e-09,-0.00076932701807364,0.00076933653176062,-4.0791288281919e-09,1.2532141194769e-08,-0.00085177200915692,0.00085177629655164,-0.00085176647631916,0.00085178182939044,-0.00085177200915671,0.00085177629655182,-0.00085176647631894,0.0008517818293905,-0.0009677924783196,0.00096780664375587,-0.00096779247832026,0.00096780664375476,0.72144033694662,120135,2834,0.0070838750277601,0.007083875027753,0.0032045814378421,20.399232784134,7.8393862273069e-05,7.8393862273069e-05,7.8393862273069e-05,2259524.9013646,0.017524603686069
26919200,0.9998808837431,0.017892098062179,0.0067289196539609,0.006728919653954,0.0044342587542638,-0.0017091576831622,0.0017091576831696,3.9701728315923e-15,3.2301954373937e-15,-1.8755309391113e-15,9.5995890920838e-15,-0.0018353106400936,0.0018353106400973,-0.0018353106158149,0.0018353106158181,-0.0018353106405069,0.0018353106405182,-0.0018353106153885,0.0018353106153994,-0.0014380576747371,0.0014380576747489,-0.0014380583857356,0.0014380583857457,-2.90791116531e-15,-1.4619872996077e-14,8.2689045866489e-09,-8.2689443418235e-09,-0.0017091576831764,0.0017091576831517,-0.0018353079071708,0.0018353133971226,-0.0018353133487466,0.001835307858768,-0.0018353079071746,0.0018353133971186,-0.0018353133487502,0.0018353078587641,-0.0014380496780285,0.0014380659053622,-0.0014380663825078,0.0014380501550872,-0.0017193527703138,0.0017193472846718,-0.0017193527703249,0.0017193472846599,2.8993228231516e-09,2.899323577302e-09,-0.0007704019928982,0.00077040839477047,-5.2278179923959e-09,1.1266259047775e-08,-0.00085437741315161,0.00085437903124594,-0.00085437192432901,0.0008543845200695,-0.00085437741315141,0.00085437903124613,-0.00085437192432876,0.00085438452006964,-0.00096825536413952,0.00096826689834228,-0.00096825536414031,0.000968266898341,0.69956232508324,120135,2834,0.0070953593231552,0.0070953593231482,0.0032090578921893,21.28613865221,8.5489109217677e-05,8.5489109217677e-05,8.5489109217677e-05,2217857.9382025,0.017552534454376
27419200,0.99989585048714,0.017892351871788,0.0067290122469355,0.0067290122469285,0.0044343273779238,-0.0017099731495624,0.0017099731495697,3.9555850419451e-15,3.2199016342153e-15,-1.8894716897016e-15,9.5451201678368e-15,-0.001836747940831,0.0018367479408347,-0.00183674793704,0.0018367479370432,-0.0018367479413481,0.0018367479413593,-0.0018367479365098,0.0018367479365206,-0.0014382312687355,0.0014382312687473,-0.0014382319886571,0.0014382319886673,-2.8987937967805e-15,-1.4594245906725e-14,8.2036609622932e-09,-8.2037007124127e-09,-0.0017099731495766,0.0017099731495519,-0.0018367452303511,0.0018367506764088,-0.0018367506475288,0.0018367452014443,-0.0018367452303548,0.0018367506764048,-0.0018367506475324,0.0018367452014404,-0.0014382233369622,0.0014382394365457,-0.0014382399204939,0.0014382238208237,-0.0017197957103406,0.0017197902682229,-0.0017197957103518,0.0017197902682111,2.7973590427276e-09,2.7973597669322e-09,-0.00077175290932675,0.00077175906153501,-5.2626631571059e-09,1.109914897457e-08,-0.00085476150436352,0.00085476295066374,-0.00085475605986813,0.00085476839516022,-0.0008547615043634,0.00085476295066393,-0.00085475605986786,0.00085476839516032,-0.0009703388899476,0.00097035016832342,-0.00097033888994843,0.00097035016832237,0.69373343557911,120135,2834,0.0070987396340815,0.0070987396340744,0.0032146679550123,22.249991770739,9.3199934165911e-05,9.3199934165911e-05,9.3199934165911e-05,2224405.708073,0.017565118057821
27919200,0.9999094159953,0.017892588930784,0.0067290985644284,0.0067290985644214,0.0044343918019337,-0.0017111022171786,0.0017111022171857,3.8968221312294e-15,3.1757265131467e-15,-1.9524697651536e-15,9.371125483255e-15,-0.00183807191041,0.0018380719104136,-0.001838071836714,0.001838071836717,-0.0018380719102049,0.0018380719102159,-0.0018380718369061,0.0018380718369167,-0.001439045655104,0.0014390456551158,-0.0014390463492653,0.0014390463492752,-2.9777913834585e-15,-1.4549941194027e-14,8.2017653268318e-09,-8.20180513445e-09,-0.0017111022171927,0.0017111022171679,-0.0018380691952003,0.0018380746439687,-0.0018380745519326,0.0018380691031372,-0.0018380691952041,0.0018380746439648,-0.0018380745519363,0.0018380691031334,-0.0014390377210239,0.0014390538153683,-0.0014390542834095,0.0014390381889783,-0.0017208870337098,0.0017208815914849,-0.0017208870337212,0.0017208815914734,3.0960916316366e-09,3.0960923483864e-09,-0.00077267480806629,0.00077268171712114,-4.9716755537503e-09,1.1393672144895e-08,-0.0008554766751215,0.00085547877840541,-0.00085547122816279,0.00085548422536522,-0.00085547667512118,0.00085547877840549,-0.00085547122816252,0.00085548422536532,-0.00097153394909063,0.00097154585850876,-0.00097153394909177,0.0009715458585076,0.71478774189754,120135,2834,0.0071034119925991,0.007103411992592,0.0032185030458183,22.917865378728,9.8542923029826e-05,9.8542923029826e-05,9.8542923029826e-05,2217150.5400541,0.017578528517468
28419200,0.99992154871888,0.017892809834506,0.0067291788399826,0.0067291788399756,0.004434452154548,-0.0017130257840978,0.0017130257841051,3.9288211536812e-15,3.2133136001811e-15,-1.7955922047142e-15,9.4396528015571e-15,-0.0018395726872564,0.0018395726872602,-0.0018395725793166,0.0018395725793199,-0.0018395726867619,0.001839572686773,-0.0018395725797982,0.001839572579809,-0.0014413289764157,0.0014413289764273,-0.0014413296564625,0.0014413296564725,-2.9864381781283e-15,-1.4478633170232e-14,8.2300710463134e-09,-8.2301108037607e-09,-0.001713025784112,0.0017130257840873,-0.0018395699604802,0.0018395754296392,-0.0018395753061019,0.001839569836916,-0.0018395699604839,0.0018395754296353,-0.0018395753061054,0.0018395698369121,-0.0014413210127004,0.001441337161893,-0.0014413376202413,0.0014413214709622,-0.0017230764597961,0.0017230709982671,-0.001723076459807,0.0017230709982555,3.2500784880568e-09,3.2500791934586e-09,-0.00077320571669642,0.00077321301193614,-4.8499546275223e-09,1.1574951315511e-08,-0.00085708183420332,0.0008570842494296,-0.00085707636680889,0.00085708971682509,-0.00085708183420314,0.0008570842494298,-0.00085707636680864,0.00085708971682517,-0.00097164588767877,0.0009716581400861,-0.00097164588767955,0.00097165814008496,0.74447172555816,120135,2834,0.0071113604648072,0.0071113604648001,0.0032207221001837,23.440906534334,0.00010272725227467,0.00010272725227467,0.00010272725227467,2185902.1674454,0.017596966544611
28919200,0.9999323625547,0.017892998591968,0.0067292475697806,0.0067292475697737,0.004434503452414,-0.0017149891176247,0.0017149891176319,3.8944692619314e-15,3.2048432707086e-15,-1.7704753249588e-15,9.3607140366116e-15,-0.0018410468139327,0.0018410468139364,-0.0018410467111554,0.0018410467111586,-0.0018410468135415,0.0018410468135525,-0.0018410467115337,0.0018410467115444,-0.001443834538616,0.0014438345386275,-0.0014438352184834,0.0014438352184934,-3.0116138796162e-15,-1.440009237107e-14,8.2530424326746e-09,-8.2530820951101e-09,-0.0017149891176388,0.0017149891176141,-0.0018410440802911,0.0018410495641274,-0.0018410494448059,0.0018410439609428,-0.0018410440802947,0.0018410495641236,-0.0018410494448094,0.0018410439609389,-0.0014438265528658,0.0014438427472813,-0.0014438432042968,0.0014438270097952,-0.0017252256426399,0.0017252201661048,-0.0017252256426507,0.0017252201660933,3.2335575254957e-09,3.2335582043106e-09,-0.00077354850681915,0.00077355575774907,-4.8882970500791e-09,1.1581875459714e-08,-0.00085876277220623,0.00085876512850729,-0.00085875728984179,0.00085877061087276,-0.00085876277220607,0.00085876512850747,-0.00085875728984156,0.00085877061087285,-0.00097147997694192,0.00097149220880876,-0.00097147997694265,0.00097149220880765,0.71381037172647,120135,2834,0.0071194702650869,0.0071194702650798,0.0032221618493149,23.98316300565,0.0001070653040452,0.0001070653040452,0.0001070653040452,2150250.3659194,0.017614940636698
29419200,0.99994208232867,0.01789315286028,0.0067293039715036,0.0067293039714967,0.0044345449172796,-0.0017152394909247,0.001715239490932,3.8674112650053e-15,3.1719031005376e-15,-1.7574169003553e-15,9.523885522423e-15,-0.0018420840642421,0.001842084064246,-0.001842084020684,0.0018420840206874,-0.0018420840644081,0.0018420840644194,-0.0018420840205053,0.0018420840205162,-0.0014432212596058,0.0014432212596168,-0.0014432219646099,0.0014432219646198,-3.0336720292843e-15,-1.4507058427779e-14,8.2243811595531e-09,-8.2244208690659e-09,-0.0017152394909388,0.0017152394909141,-0.0018420813442501,0.0018420868060418,-0.0018420867406852,0.0018420812788663,-0.0018420813442537,0.0018420868060381,-0.0018420867406886,0.0018420812788625,-0.0014432133054852,0.001443229444937,-0.0014432299187947,0.0014432137792566,-0.0017250707451171,0.0017250652885469,-0.0017250707451277,0.0017250652885348,2.969616439771e-09,2.9696171422641e-09,-0.00077464525811133,0.00077465184551836,-5.1160603042059e-09,1.1291222469836e-08,-0.0008584976212849,0.00085849943037327,-0.00085849216098816,0.00085850489067112,-0.00085849762128478,0.00085849943037344,-0.00085849216098785,0.00085850489067125,-0.0009734930842632,0.0009735047412024,-0.0009734930842635,0.00097350474120101,0.64935523655636,120135,2834,0.0071205164605254,0.0071205164605183,0.0032267115486742,24.777703057609,0.00011342162446087,0.00011342162446087,0.00011342162446087,2164995.8669013,0.017621694295256
29919200,0.99995070689346,0.017893297759256,0.0067293567241917,0.0067293567241847,0.0044345843108796,-0.0017140886514811,0.0017140886514883,3.8372945379918e-15,3.2091372571773e-15,-1.8050036819059e-15,9.3431263386096e-15,-0.0018424990386422,0.0018424990386458,-0.0018424989688329,0.0018424989688361,-0.001842499038553,0.001842499038564,-0.0018424989689091,0.0018424989689198,-0.0014401978224633,0.0014401978224747,-0.0014401985233335,0.0014401985233436,-3.0117315230811e-15,-1.4412007563135e-14,8.2125851628302e-09,-8.2126249506216e-09,-0.0017140886514952,0.0017140886514705,-0.0018424963205892,0.0018425017761623,-0.0018425016868947,0.0018424962312946,-0.0018424963205929,0.0018425017761585,-0.0018425016868982,0.0018424962312908,-0.0014401898788367,0.00144020599466,-0.0014402064670236,0.0014401903511136,-0.0017232866454688,0.0017232811959322,-0.0017232866454797,0.0017232811959208,3.0712814179542e-09,3.0712820365302e-09,-0.00077611232235211,0.00077611917349544,-5.0057149602227e-09,1.1380221163281e-08,-0.00085669378204267,0.00085669584046271,-0.00085668832861168,0.00085670129389477,-0.00085669378204253,0.00085669584046287,-0.00085668832861146,0.00085670129389484,-0.0009767238445389,0.00097673571144759,-0.00097672384453957,0.00097673571144654,0.68704427817937,120135,2834,0.0071157842177494,0.0071157842177423,0.0032327832714019,25.464431533483,0.00011891545226786,0.00011891545226786,0.00011891545226786,2218938.6858512,0.017618231449182
30419200,0.99995830191947,0.017893413068473,0.0067293989267786,0.0067293989267717,0.0044346152149226,-0.0017176236320474,0.0017176236320547,3.8680583040622e-15,3.2576651864471e-15,-1.8924715980564e-15,9.5179445274457e-15,-0.0018449172669407,0.0018449172669443,-0.0018449171924951,0.0018449171924983,-0.0018449172667605,0.0018449172667718,-0.001844917192662,0.0018449171926727,-0.0014447048855986,0.0014447048856097,-0.0014447055815636,0.0014447055815736,-2.7868560399315e-15,-1.4453370844552e-14,8.2114421705116e-09,-8.2114818127202e-09,-0.0017176236320616,0.0017176236320368,-0.0018449145486735,0.0018449200037709,-0.0018449199107709,0.0018449144556457,-0.0018449145486772,0.0018449200037669,-0.0018449199107745,0.001844914455642,-0.0014446969421167,0.001444713055513,-0.0014447135251089,0.0014446974116259,-0.001727626023918,0.0017276205752756,-0.0017276260239284,0.0017276205752636,3.098508969132e-09,3.0985095681596e-09,-0.00077723241314892,0.00077723932871866,-4.9786827042087e-09,1.1405858157442e-08,-0.00086006103553816,0.00086006314154864,-0.00086005558223189,0.00086006859485567,-0.00086006103553807,0.0008600631415487,-0.00086005558223165,0.00086006859485563,-0.00097663867483059,0.00097665059550659,-0.0009766386748308,0.00097665059550528,0.62192905264823,120135,2834,0.007130390770397,0.0071303907703899,0.0032374523875395,26.129764503014,0.00012423811602411,0.00012423811602411,0.00012423811602411,2163339.4804542,0.017652719106454
30919200,0.99996505635182,0.01789352520757,0.0067294397155446,0.0067294397155377,0.0044346457764876,-0.0017169188587727,0.00171691885878,3.9518204510685e-15,3.1568447370308e-15,-1.8618842971834e-15,9.4587110428704e-15,-0.0018457847014539,0.0018457847014576,-0.0018457847062863,0.0018457847062894,-0.0018457847019414,0.0018457847019526,-0.0018457847057857,0.0018457847057964,-0.0014422479562037,0.0014422479562154,-0.0014422486867538,0.0014422486867638,-2.9517333559839e-15,-1.4523950604749e-14,8.114427606012e-09,-8.1144674394721e-09,-0.0017169188587868,0.0017169188587621,-0.001845782020316,0.0018457874074389,-0.0018457873874331,0.0018457820002831,-0.0018457820203197,0.001845787407435,-0.0018457873874366,0.0018457820002792,-0.0014422401121985,0.0014422560367006,-0.0014422565308227,0.0014422406062337,-0.0017262050538951,0.0017261996707492,-0.0017262050539061,0.0017261996707376,2.74784196171e-09,2.7478427478491e-09,-0.00077938167455163,0.00077938771023679,-5.2229335366642e-09,1.0960063972741e-08,-0.00085881811309986,0.00085881952883442,-0.00085881272833479,0.00085882491360056,-0.00085881811309966,0.00085881952883464,-0.00085881272833452,0.00085882491360068,-0.00098049725947891,0.00098050837783292,-0.00098049725947975,0.00098050837783171,0.67884298717847,120135,2834,0.0071275051496818,0.0071275051496746,0.0032463487067072,27.118582034049,0.00013214865627239,0.00013214865627239,0.00013214865627239,2220996.7781398,0.017655888569793
31419200,0.99997109913144,0.017893626532995,0.0067294765875005,0.0067294765874935,0.0044346733580011,-0.0017224828951879,0.0017224828951957,4.2699283801484e-15,3.3785438466281e-15,-2.3499870330387e-15,1.052138446128e-14,-0.0018497417474965,0.0018497417475003,-0.0018497418319917,0.0018497418319948,-0.0018497417482994,0.0018497417483116,-0.0018497418311748,0.0018497418311866,-0.0014493602598829,0.0014493602598958,-0.001449361011918,0.001449361011929,-2.42233776395e-15,-1.5539364437495e-14,7.9547329242676e-09,-7.9547731253032e-09,-0.0017224828952025,0.0017224828951774,-0.0018497391221302,0.0018497444006702,-0.0018497444573669,0.0018497391788001,-0.0018497391221344,0.0018497444006658,-0.0018497444573709,0.0018497391787957,-0.0014493525735974,0.001449368185933,-0.0014493686982691,0.0014493530858449,-0.0017328033217115,0.0017327980461206,-0.001732803321724,0.0017327980461074,2.3948449132029e-09,2.3948457921638e-09,-0.00078191059924954,0.00078191574482686,-5.4115160654466e-09,1.0447594997832e-08,-0.00086453806535741,0.00086453879962513,-0.00086453278886091,0.00086454407612266,-0.00086453806535718,0.00086453879962538,-0.00086453278886062,0.00086454407612281,-0.00098121637258407,0.0009812266373935,-0.00098121637258499,0.00098122663739218,0.6861559954795,120135,2834,0.0071504982021405,0.0071504982021334,0.0032568697242187,28.43543908522,0.00014268351268176,0.00014268351268176,0.00014268351268176,2144696.747994,0.017713406041467
31919200,0.99997630407167,0.017893715033441,0.0067295087440063,0.0067295087439993,0.0044346975454353,-0.0017241767289191,0.0017241767289267,4.1868132721991e-15,3.3091930240717e-15,-2.1681102363088e-15,1.0177042039528e-14,-0.0018513668697452,0.001851366869749,-0.0018513668374415,0.0018513668374446,-0.0018513668693837,0.0018513668693956,-0.0018513668377894,0.0018513668378007,-0.0014512362908059,0.0014512362908182,-0.0014512370013501,0.0014512370013607,-2.6795063782136e-15,-1.5221200673724e-14,7.9637101518879e-09,-7.9637504091195e-09,-0.0017241767289337,0.0017241767289085,-0.0018513642327166,0.0018513695236519,-0.0018513694744789,0.0018513641835166,-0.0018513642327206,0.0018513695236477,-0.0018513694744828,0.0018513641835124,-0.0014512285890433,0.0014512442164745,-0.001451244703178,0.0014512290756584,-0.0017344245892124,0.0017344193055166,-0.0017344245892244,0.001734419305504,2.8883931842547e-09,2.8883940491033e-09,-0.00078304517251601,0.00078305156928612,-4.9424583721699e-09,1.0946434166969e-08,-0.00086602435731705,0.00086602616999316,-0.00086601906877873,0.00086603145853245,-0.00086602435731678,0.00086602616999347,-0.0008660190687784,0.00086603145853262,-0.00098226505798205,0.0009822763730146,-0.00098226505798279,0.00098227637301329,0.69501900315782,120135,2834,0.0071575011664241,0.007157501166417,0.0032615883284602,29.268229623084,0.00014934583698467,0.00014934583698467,0.00014934583698467,2128576.9729792,0.017732462869071
32419200,0.99998057801192,0.017893791265068,0.0067295363716817,0.0067295363716747,0.0044347185217118,-0.0017244887037158,0.0017244887037233,4.1249328096635e-15,3.2476066701984e-15,-2.0600547138014e-15,9.9434021182437e-15,-0.0018515760342315,0.0018515760342353,-0.0018515758067316,0.0018515758067348,-0.001851576032302,0.0018515760323137,-0.0018515758086477,0.0018515758086589,-0.0014516733627248,0.001451673362737,-0.0014516740022742,0.0014516740022846,-2.742033879806e-15,-1.5003014439347e-14,8.1337742923214e-09,-8.1338143134604e-09,-0.0017244887037302,0.0017244887037052,-0.001851573328833,0.0018515787417489,-0.0018515785121391,0.0018515730991963,-0.001851573328837,0.0018515787417448,-0.0018515785121429,0.0018515730991921,-0.0014516654850373,0.0014516814424422,-0.0014516818800262,0.0014516659225337,-0.0017347418891747,0.0017347364891855,-0.0017347418891864,0.0017347364891732,3.7391821559831e-09,3.7391830257017e-09,-0.00078250158112415,0.00078251012393904,-4.2828275105686e-09,1.1962211448797e-08,-0.00086594103601366,0.00086594459781938,-0.00086593562596803,0.00086595000786603,-0.00086594103601344,0.00086594459781962,-0.00086593562596774,0.00086595000786618,-0.00098165146431139,0.00098166468919683,-0.00098165146431231,0.00098166468919552,0.7287175546273,120135,2834,0.0071587863778426,0.0071587863778356,0.00325934372837,29.29906201504,0.00014959249612032,0.00014959249612032,0.00014959249612032,2113071.1328682,0.017732795544171
32919200,0.99998406005789,0.017893849008462,0.0067295573743337,0.0067295573743268,0.0044347342598017,-0.0017253180672196,0.0017253180672271,4.1278150745535e-15,3.2461361268872e-15,-2.0377612772035e-15,9.9155794387957e-15,-0.0018518247276481,0.0018518247276518,-0.0018518244643399,0.001851824464343,-0.0018518247257838,0.0018518247257954,-0.0018518244661907,0.0018518244662019,-0.0014531433009266,0.0014531433009388,-0.0014531439245735,0.0014531439245839,-2.7700918461838e-15,-1.5028655889474e-14,8.2931567023443e-09,-8.2931967304664e-09,-0.001725318067234,0.001725318067209,-0.0018518219695726,0.0018518274883805,-0.0018518272224244,0.0018518217035896,-0.0018518219695765,0.0018518274883763,-0.0018518272224282,0.0018518217035854,-0.0014531352672418,0.0014531515370013,-0.0014531519583226,0.0014531356884756,-0.0017357956841937,0.0017357901781007,-0.0017357956842054,0.0017357901780884,3.923046935282e-09,3.9230478504046e-09,-0.00078150796416457,0.00078151696019475,-4.2588075599443e-09,1.2306717379711e-08,-0.00086645774021413,0.0008664615815811,-0.00086645222340375,0.00086646709839245,-0.00086645774021387,0.00086646158158135,-0.00086645222340342,0.00086646709839263,-0.00098006685154545,0.00098008056810454,-0.00098006685154642,0.00098008056810327,0.67786407498934,120135,2834,0.0071622028721985,0.0071622028721915,0.0032552358615306,29.174750716687,0.0001485980057335,0.0001485980057335,0.0001485980057335,2078037.384013,0.017735573595036
33419200,0.99998693744234,0.017893899827579,0.0067295757780229,0.0067295757780159,0.0044347482715404,-0.0017236434090535,0.001723643409061,4.1481085722481e-15,3.2258426291926e-15,-2.1302878623446e-15,9.9908712563294e-15,-0.001851323752598,0.0018513237526017,-0.0018513235496859,0.001851323549689,-0.0018513237514982,0.0018513237515099,-0.001851323550772,0.0018513235507832,-0.0014501747561615,0.0014501747561739,-0.0014501754050433,0.001450175405054,-2.7285637030754e-15,-1.5142435616707e-14,8.3755667383872e-09,-8.3756068219167e-09,-0.0017236434090679,0.0017236434090428,-0.0018513209727858,0.0018513265423372,-0.0018513263295069,0.0018513207599284,-0.0018513209727898,0.001851326542333,-0.0018513263295107,0.0018513207599243,-0.0014501666464622,0.0014501830797184,-0.0014501835148072,0.0014501670814635,-0.0017335311737484,0.0017335256139251,-0.0017335311737605,0.0017335256139128,3.6585801947221e-09,3.6585810996235e-09,-0.00078143474746168,0.00078144307626266,-4.5959681695607e-09,1.2127968074676e-08,-0.00086413285028458,0.00086413607744496,-0.00086412728229696,0.0008641416454336,-0.00086413285028434,0.00086413607744521,-0.00086412728229664,0.00086414164543374,-0.00098136830204365,0.00098138151634379,-0.0009813683020448,0.00098138151634269,0.72119041627889,120135,2834,0.0071552927381571,0.0071552927381501,0.0032549198248513,29.315947009355,0.00014972757607484,0.00014972757607484,0.00014972757607484,2114321.4685323,0.017721178484903
33919200,0.9999893823028,0.017893942563055,0.0067295912753001,0.0067295912752931,0.0044347600124614,-0.0017269242743996,0.0017269242744071,4.1729901650737e-15,3.2037844795245e-15,-2.0666427478356e-15,9.9671072764203e-15,-0.0018536286752266,0.0018536286752304,-0.0018536286232585,0.0018536286232617,-0.0018536286755341,0.0018536286755458,-0.0018536286229376,0.0018536286229487,-0.0014544008653575,0.0014544008653699,-0.00145440156722,0.0014544015672303,-2.7117406875952e-15,-1.5008506573956e-14,8.3252711894633e-09,-8.3253111088317e-09,-0.0017269242744139,0.001726924274389,-0.0018536259226964,0.0018536314508514,-0.0018536313757976,0.0018536258476158,-0.0018536259227003,0.0018536314508473,-0.0018536313758014,0.0018536258476116,-0.0014543928129165,0.0014544091505026,-0.0014544096197254,0.001454393282052,-0.001737387403088,0.0017373818796469,-0.0017373874030997,0.0017373818796345,3.0188923822827e-09,3.0188933549685e-09,-0.0007826520682129,0.00078265877477489,-5.1664620307086e-09,1.1442319215897e-08,-0.00086741451401301,0.00086741635899384,-0.0008674089867624,0.00086742188624545,-0.00086741451401276,0.00086741635899412,-0.00086740898676207,0.00086742188624564,-0.00098151343649888,0.00098152526184172,-0.00098151343649988,0.0009815252618403,0.7142671799355,120135,2834,0.0071688482335616,0.0071688482335545,0.0032599890628283,30.068905706752,0.00015575124565402,0.00015575124565402,0.00015575124565402,2064820.7432541,0.017753936683335
34419200,0.99999150605064,0.017893978938053,0.0067296044699133,0.0067296044699063,0.0044347699982332,-0.001729160228368,0.0017291602283754,4.1486967895726e-15,3.1705502006913e-15,-2.0097621325582e-15,9.8314643613947e-15,-0.0018561007165444,0.0018561007165482,-0.0018561008254405,0.0018561008254436,-0.0018561007181243,0.0018561007181358,-0.0018561008238473,0.0018561008238584,-0.0014564705817956,0.0014564705818078,-0.0014564713439186,0.0014564713439288,-2.7515041787302e-15,-1.4845433315842e-14,8.1698134850077e-09,-8.1698533745948e-09,-0.0017291602283823,0.0017291602283574,-0.0018560980252874,0.0018561034428734,-0.0018561035167064,0.0018560980990937,-0.0018560980252913,0.0018561034428693,-0.0018561035167101,0.0018560980990896,-0.0014564626893443,0.0014564787249101,-0.0014564792364341,0.001456463200781,-0.0017394126433533,0.0017394072258791,-0.0017394126433648,0.001739407225867,2.3114924462268e-09,2.3114934149628e-09,-0.00078511676302046,0.00078512168674857,-5.7006081139087e-09,1.0583019298953e-08,-0.00086955826276636,0.00086955866801346,-0.00086955284617221,0.00086956408460866,-0.00086955826276611,0.00086955866801372,-0.0008695528461719,0.00086956408460882,-0.00098423081004496,0.00098424103845613,-0.00098423081004599,0.00098424103845475,0.6995653789778,120135,2834,0.0071780996702579,0.0071780996702509,0.0032702212938675,31.477738325427,0.00016702190660342,0.00016702190660342,0.00016702190660342,2059315.9162198,0.01778318037962
34919200,0.99999337534795,0.017894011751419,0.0067296163517534,0.0067296163517464,0.0044347790479196,-0.0017325726753222,0.0017325726753299,4.4760397306469e-15,3.4955402724676e-15,-1.91970606018e-15,9.8111708637001e-15,-0.0018598504791689,0.0018598504791729,-0.0018598507600461,0.0018598507600495,-0.0018598504820327,0.0018598504820445,-0.001859850757169,0.0018598507571803,-0.0014595401008518,0.0014595401008646,-0.0014595409282386,0.0014595409282494,-2.7931499653035e-15,-1.4774669852617e-14,7.9526827998941e-09,-7.9527217177333e-09,-0.0017325726753365,0.0017325726753121,-0.0018598478697599,0.0018598531357158,-0.0018598533694638,0.0018598481034824,-0.001859847869764,0.001859853135712,-0.0018598533694676,0.0018598481034784,-0.0014595324289,0.0014595480414108,-0.0014595486002543,0.0014595329876578,-0.0017426445895478,0.0017426393190965,-0.0017426445895594,0.0017426393190844,1.5569803109347e-09,1.5569812841141e-09,-0.00078930745096983,0.000789310473172,-6.2198255922594e-09,9.6146719326351e-09,-0.00087305417984546,0.00087305308005606,-0.00087304891521411,0.00087305834468807,-0.00087305417984525,0.0008730530800562,-0.00087304891521342,0.00087305834468807,-0.00098875375236184,0.00098876224326995,-0.00098875375236373,0.00098876224326921,0.71680102654761,120135,2834,0.0071922222912328,0.0071922222912261,0.0032876159322919,33.570286056073,0.00018376228844858,0.00018376228844858,0.00018376228844858,2058226.1757511,0.017829630215571
35419200,0.99999499154204,0.01789403846058,0.0067296260485563,0.0067296260485494,0.0044347863634739,-0.0017377245116403,0.0017377245116477,4.1354618997718e-15,3.1541389373382e-15,-1.9127650957511e-15,9.681233656722e-15,-0.0018646278314176,0.0018646278314214,-0.0018646281792009,0.0018646281792041,-0.0018646278342802,0.0018646278342917,-0.0018646281763252,0.0018646281763362,-0.0014651130536612,0.0014651130536733,-0.0014651139037097,0.0014651139037198,-2.7117995093276e-15,-1.4560336786375e-14,7.7081254518703e-09,-7.7081647758498e-09,-0.0017377245116544,0.00173772451163,-0.0018646253036516,0.0018646304063934,-0.0018646307069757,0.0018646256042077,-0.0018646253036553,0.0018646304063894,-0.0018646307069794,0.0018646256042037,-0.0014651056213242,0.0014651207546934,-0.0014651213361102,0.0014651062026552,-0.00174798559109,0.0017479804839226,-0.0017479855911013,0.0017479804839107,1.2370826866673e-09,1.2370836609727e-09,-0.00079403218517645,0.00079403440996356,-6.2940119374303e-09,9.0492142974115e-09,-0.00087852352002231,0.0008785218881456,-0.00087851841903801,0.00087852698913098,-0.00087852352002215,0.00087852188814594,-0.00087851841903767,0.00087852698913115,-0.0009929891821048,0.00099299683672694,-0.00099298918210584,0.00099299683672559,0.67521869512828,120135,2834,0.0072135284062014,0.0072135284061944,0.0033072390250947,35.925899497024,0.0002026071959762,0.0002026071959762,0.0002026071959762,2028686.2076108,0.017892979482606
35919200,0.99999629889623,0.017894060951397,0.0067296341884072,0.0067296341884002,0.0044347925745897,-0.0017392644438876,0.0017392644438942,3.7517677390121e-15,2.7906794525407e-15,-2.1355229965325e-15,8.7806141112073e-15,-0.0018670835699084,0.0018670835699113,-0.0018670837382224,0.0018670837382252,-0.0018670835708301,0.0018670835708399,-0.0018670837372892,0.001867083737299,-0.0014656544485016,0.0014656544485139,-0.001465655234838,0.0014656552348475,-3.3898964409907e-15,-1.4391023599402e-14,7.6273081953401e-09,-7.6273475742966e-09,-0.0017392644439015,0.0017392644438768,-0.0018670810544767,0.0018670861143134,-0.0018670862536631,0.0018670811937985,-0.0018670810544802,0.0018670861143096,-0.0018670862536669,0.0018670811937949,-0.0014656470844474,0.001465662055064,-0.0014656625989553,0.0014656476282562,-0.0017490921364688,0.0017490870793137,-0.0017490921364809,0.0017490870793033,1.9950802438199e-09,1.9950812066974e-09,-0.00079733668484174,0.0007973408372933,-5.4802150636567e-09,9.7192670125763e-09,-0.00087991230365503,0.00087991238796307,-0.00087990724714795,0.00087991744447183,-0.00087991230365496,0.00087991238796358,-0.00087990724714797,0.00087991744447208,-0.000997269411604,0.00099727861941779,-0.00099726941160549,0.00099727861941605,0.70236605595164,120135,2834,0.0072199152220199,0.0072199152220132,0.0033209514597621,37.533887260674,0.00021547109808539,0.00021547109808539,0.00021547109808539,2053824.7122092,0.017919933307606
36419200,0.99999726318127,0.017894077306071,0.0067296401124762,0.0067296401124692,0.004434797081126,-0.0017405042649888,0.0017405042649959,3.9969367198562e-15,3.0269663517852e-15,-1.7096536536074e-15,9.2169537225082e-15,-0.0018676858316375,0.0018676858316412,-0.0018676855848104,0.0018676855848135,-0.0018676858288341,0.001867685828845,-0.0018676855876011,0.0018676855876115,-0.0014674393891127,0.0014674393891244,-0.0014674400207912,0.0014674400208009,-3.1076109469717e-15,-1.4286005782808e-14,7.8579757282763e-09,-7.8580153866011e-09,-0.0017405042650028,0.0017405042649782,-0.0018676832116612,0.0018676884455476,-0.0018676882047957,0.0018676829708823,-0.0018676832116648,0.0018676884455438,-0.0018676882047991,0.0018676829708785,-0.0014674317766963,0.0014674471917063,-0.0014674476332708,0.0014674322181748,-0.0017507741446091,0.0017507689269813,-0.0017507741446197,0.00175076892697,3.7801909620728e-09,3.780191924261e-09,-0.00079688835702628,0.00079689702251581,-3.977303998593e-09,1.172432385991e-08,-0.0008808687649104,0.00088087260602655,-0.00088086353434297,0.00088087783659501,-0.00088086876491014,0.00088087260602683,-0.00088086353434265,0.0008808778365952,-0.0009961498928493,0.0009961630273601,-0.00099614989285033,0.00099616302735875,0.69281233043547,120135,2834,0.0072250323621855,0.0072250323621784,0.0033191118096377,37.48842840122,0.00021510742720976,0.00021510742720976,0.00021510742720976,2020711.6702817,0.01792848345247
36919200,0.99999795788455,0.017894088640407,0.0067296442233772,0.0067296442233703,0.0044348001936598,-0.0017390031898768,0.0017390031898841,4.0397001193461e-15,3.0680827427665e-15,-1.7284766079908e-15,9.2774812851974e-15,-0.0018664480983421,0.0018664480983459,-0.0018664477033878,0.0018664477033909,-0.0018664480946694,0.0018664480946805,-0.0018664477070477,0.0018664477070583,-0.0014655874793792,0.0014655874793909,-0.001465588058229,0.0014655880582387,-3.0990817957667e-15,-1.4361352630829e-14,8.1368361428581e-09,-8.1368758323265e-09,-0.0017390031898909,0.0017390031898663,-0.0018664453789782,0.0018664508034639,-0.0018664504227607,0.001866444998248,-0.0018664453789818,0.0018664508034601,-0.0018664504227642,0.0018664449982442,-0.0014655795884833,0.0014655955484258,-0.0014655959491882,0.0014655799891593,-0.0017491732725297,0.0017491678673276,-0.0017491732725404,0.0017491678673164,4.4381309518988e-09,4.4381319153812e-09,-0.00079511468159224,0.00079512500073877,-3.6105896075597e-09,1.2658898421529e-08,-0.00087874620345798,0.00087875130396408,-0.00087874078219275,0.00087875672523027,-0.00087874620345772,0.00087875130396432,-0.00087874078219241,0.00087875672523043,-0.00099474437539077,0.00099475908365775,-0.00099474437539178,0.00099475908365645,0.66632586250964,120135,2834,0.0072188249257176,0.0072188249257106,0.0033117520525252,36.86257008591,0.00021010056068728,0.00021010056068728,0.00021010056068728,2024167.501088,0.01790835311784
37419200,0.99999849400335,0.017894097480007,0.0067296474263305,0.0067296474263236,0.0044348026273532,-0.0017396756824364,0.0017396756824441,4.3206915352512e-15,3.3920140233588e-15,-1.4950131519038e-15,9.5147681538935e-15,-0.0018676803292482,0.0018676803292523,-0.0018676802928736,0.0018676802928773,-0.0018676803293096,0.001867680329321,-0.0018676802927999,0.001867680292811,-0.0014655964772216,0.0014655964772333,-0.00146559718969,0.0014655971897006,-3.2796645143827e-15,-1.4521091202212e-14,8.1369709266012e-09,-8.1370105918053e-09,-0.0017396756824506,0.0017396756824261,-0.0018676776375268,0.001867683041773,-0.0018676829846044,0.0018676775803323,-0.0018676776375307,0.001867683041769,-0.0018676829846078,0.0018676775803285,-0.0014655886079678,0.0014656045758788,-0.0014656050590068,0.0014655890910105,-0.0017496243968046,0.001749618998149,-0.001749624396815,0.0017496189981377,2.9263402838375e-09,2.9263412088436e-09,-0.00079670944288195,0.00079671592603806,-5.07368033878e-09,1.1160247035038e-08,-0.00087913646925435,0.00087913825360497,-0.00087913106661749,0.00087914365624297,-0.00087913646925393,0.00087913825360525,-0.00087913106661715,0.00087914365624296,-0.00099697093898249,0.00099698244875291,-0.00099697093898313,0.00099698244875241,0.67334137922747,120135,2834,0.0072216172599455,0.0072216172599384,0.0033183584053499,37.672798328593,0.00021658238662875,0.00021658238662875,0.00021658238662875,2038815.2344972,0.017920758513748
37919200,0.99999888943444,0.017894103787007,0.006729649714742,0.0067296497147351,0.0044348043575296,-0.001740235614798,0.0017402356148052,3.9902898640896e-15,3.0597888784913e-15,-1.7512406184483e-15,9.2993041479357e-15,-0.0018680296102523,0.0018680296102561,-0.0018680293735968,0.0018680293736,-0.0018680296085232,0.0018680296085342,-0.0018680293753131,0.0018680293753236,-0.0014662635759302,0.0014662635759419,-0.0014662642149133,0.001466264214923,-3.0587889090396e-15,-1.4362450598206e-14,8.2603336101498e-09,-8.2603733050451e-09,-0.0017402356148121,0.0017402356147874,-0.0018680268641692,0.0018680323603406,-0.0018680321196889,0.0018680266234905,-0.0018680268641728,0.0018680323603368,-0.0018680321196924,0.0018680266234867,-0.0014662555755263,0.0014662717816359,-0.0014662722153803,0.0014662560091845,-0.0017503996079429,0.0017503941238912,-0.0017503996079537,0.0017503941238798,3.7776624536629e-09,3.7776633763593e-09,-0.00079646254102514,0.00079647118235119,-4.3689983301386e-09,1.212882494148e-08,-0.00087936185815583,0.00087936543155086,-0.00087935636433873,0.00087937092536898,-0.0008793618581556,0.00087936543155112,-0.00087935636433841,0.00087937092536914,-0.00099652322301933,0.00099653661393088,-0.00099652322302029,0.00099653661392954,0.65161955251852,120135,2834,0.0072239297867772,0.0072239297867701,0.0033173426594271,37.676448111133,0.00021661158488906,0.00021661158488906,0.00021661158488906,2024004.5174248,0.017924434359575
38419200,0.99999917532273,0.017894108636828,0.0067296514681698,0.0067296514681628,0.0044348057004955,-0.0017386937873121,0.0017386937873192,3.961996610782e-15,3.0772001112959e-15,-1.8881187898553e-15,9.3855368077048e-15,-0.0018669544033709,0.0018669544033744,-0.0018669540416733,0.0018669540416762,-0.0018669544006927,0.0018669544007037,-0.0018669540443384,0.0018669540443487,-0.0014641137461408,0.0014641137461532,-0.001464114343374,0.0014641143433834,-2.925498863312e-15,-1.4447112763673e-14,8.4215609410111e-09,-8.4216005560677e-09,-0.0017386937873261,0.0017386937873015,-0.0018669515965701,0.0018669572053168,-0.0018669568484825,0.0018669512397098,-0.0018669515965737,0.0018669572053124,-0.0018669568484866,0.0018669512397055,-0.0014641055822671,0.0014641221026775,-0.0014641225073125,0.0014641059868163,-0.0017487091019298,0.0017487035086443,-0.001748709101941,0.0017487035086333,4.3131588951139e-09,4.3131597692238e-09,-0.0007952548550068,0.00079526484847246,-4.0082893220512e-09,1.2823542510432e-08,-0.00087723175079122,0.0008772364055248,-0.00087722614408208,0.00087724201223453,-0.00087723175079124,0.00087723640552506,-0.00087722614408202,0.00087724201223508,-0.00099588971025608,0.00099590433972249,-0.00099588971025783,0.00099590433972063,0.69258612427528,120135,2834,0.007217559486976,0.0072175594869689,0.0033123259357239,37.198693497644,0.00021278954798115,0.00021278954798115,0.00021278954798115,2038887.4987907,0.017906356056548
38880000,0.99999937495963,0.017894112070736,0.006729652709543,0.0067296527095361,0.0044348066516565,-0.001740454420994,0.001740454421001,3.8679406605973e-15,3.0300839036049e-15,-1.6181858596504e-15,8.9859019574516e-15,-0.0018677772352021,0.001867777235206,-0.0018677769962712,0.0018677769962744,-0.0018677772340687,0.0018677772340794,-0.0018677769973923,0.0018677769974026,-0.0014667888421294,0.001466788842141,-0.0014667894810846,0.0014667894810942,-3.0026141545516e-15,-1.4134176321829e-14,8.4982426090059e-09,-8.4982820906943e-09,-0.0017404544210079,0.0017404544209834,-0.0018677744142179,0.0018677800656909,-0.0018677798172643,0.001867774165764,-0.0018677744142214,0.001867780065687,-0.0018677798172676,0.0018677741657603,-0.0014667806117409,0.0014667972852654,-0.0014667977115372,0.0014667810379268,-0.0017510304340532,0.0017510247925054,-0.001751030434064,0.0017510247924943,3.8274422112984e-09,3.827443069918e-09,-0.00079489399517492,0.00079490274411399,-4.5507103094973e-09,1.2419644242964e-08,-0.00087886299942564,0.0008788665096859,-0.00087885734914423,0.00087887215996809,-0.0008788629994253,0.00087886650968592,-0.00087885734914392,0.00087887215996818,-0.00099450767652951,0.00099452132477863,-0.0009945076765307,0.00099452132477768,0.70236788426071,120135,2834,0.0072248260965958,0.0072248260965887,0.0033108399400899,37.193698270084,0.00021274958616067,0.00021274958616067,0.00021274958616067,1995249.2510853,0.017919643891797
