time,ASR_ext,ASR_strain,ASR_strain_xx,ASR_strain_yy,ASR_strain_zz,disp_x_101,disp_x_102,disp_x_103,disp_x_104,disp_x_105,disp_x_106,disp_x_p1_neg,disp_x_p1_pos,disp_x_p2_neg,disp_x_p2_pos,disp_x_p3_neg,disp_x_p3_pos,disp_x_p4_neg,disp_x_p4_pos,disp_x_p5_neg,disp_x_p5_pos,disp_x_p6_neg,disp_x_p6_pos,disp_y_101,disp_y_102,disp_y_103,disp_y_104,disp_y_105,disp_y_106,disp_y_p1_neg,disp_y_p1_pos,disp_y_p2_neg,disp_y_p2_pos,disp_y_p3_neg,disp_y_p3_pos,disp_y_p4_neg,disp_y_p4_pos,disp_y_p5_neg,disp_y_p5_pos,disp_y_p6_neg,disp_y_p6_pos,disp_y_p7_neg,disp_y_p7_pos,disp_y_p8_neg,disp_y_p8_pos,disp_z_101,disp_z_102,disp_z_103,disp_z_104,disp_z_105,disp_z_106,disp_z_p1_neg,disp_z_p1_pos,disp_z_p2_neg,disp_z_p2_pos,disp_z_p3_neg,disp_z_p3_pos,disp_z_p4_neg,disp_z_p4_pos,disp_z_p5_neg,disp_z_p5_pos,disp_z_p6_neg,disp_z_p6_pos,humidity,ndof,nelem,strain_xx,strain_yy,strain_zz,temp,thermal_strain_xx,thermal_strain_yy,thermal_strain_zz,vonmises,vstrain
2419200,0,0,0,0,0,0,0,0,0,0,0,0,0,0,0,0,0,0,0,0,0,0,0,0,0,0,0,0,0,0,0,0,0,0,0,0,0,0,0,0,0,0,0,0,0,0,0,0,0,0,0,0,0,0,0,0,0,0,0,0,0,0,0,0,0,0,0,0,0,0,0,0,0,0,0
2919200,0.076301711031517,0.0015574817709127,0.00051916059030423,0.00051916059030423,0.00051916059030423,-0.00016768683233087,0.00016768683233152,5.4735827858031e-16,3.9979661001741e-16,-1.6912718622173e-16,8.6493681206823e-16,-0.00016644974773646,0.00016644974773664,-0.00016645081843918,0.00016645081843932,-0.00016644975808754,0.00016644975808848,-0.00016645080808754,0.00016645080808817,-0.00016800229743817,0.00016800229743993,-0.0001680032683789,0.00016800326838076,4.1044334359053e-16,-6.1916174909608e-16,-9.2555387419347e-10,9.2555353022957e-10,-0.00016768683233135,0.00016768683233104,-0.00016645012815093,0.00016644945869787,-0.00016645043802551,0.00016645110747855,-0.00016645012815128,0.00016644945869733,-0.00016645043802586,0.00016645110747819,-0.00016800326070207,0.0001680014676059,-0.00016800230511806,0.00016800409821246,-0.00016929250839128,0.00016929314397471,-0.00016929250839145,0.00016929314397386,-5.1607345487668e-09,-5.160734401283e-09,-0.00016108212144713,0.00016106873397337,-4.1055157299748e-09,-6.054831606316e-09,-0.00016077500207133,0.00016076450405805,-0.00016077566771636,0.00016076383841331,-0.00016077500207125,0.00016076450405824,-0.00016077566771623,0.00016076383841341,-0.00016440939169656,0.00016439796416513,-0.00016440939169729,0.00016439796416598,0.81617707978214,120135,2834,0.00069845038304944,0.00069845038304944,0.0006709221535292,32.392147656967,0.00017433718125574,0.00017433718125574,0.00017433718125574,712266.2757181,0.0020699634353696
3419200,0.15587891732492,0.0031147053063361,0.0010462555509374,0.0010462555509438,0.0010221942044549,-0.0002949234040817,0.0002949234040826,6.3523059414139e-16,4.9407314169878e-16,-7.6159438087327e-16,1.6027304494496e-15,-0.00029491421587087,0.00029491421587084,-0.00029491591698378,0.00029491591698377,-0.00029491422111884,0.00029491422112069,-0.00029491591173615,0.00029491591173762,-0.00029251533108463,0.00029251533108703,-0.0002925176594281,0.00029251765943058,-5.7649709429185e-15,-8.1912381307151e-15,-1.9390245255914e-10,1.9387649288086e-10,-0.00029492340409083,0.00029492340407666,-0.00029491427197016,0.00029491415413325,-0.00029491586089436,0.0002949159787131,-0.00029491427197109,0.0002949141541323,-0.0002949158608951,0.00029491597871245,-0.00029251553159902,0.00029251515882012,-0.00029251745895515,0.00029251783167651,-0.00029587317009284,0.00029587331918038,-0.00029587317009449,0.00029587331917834,-2.7932373150764e-09,-2.7932371690366e-09,-0.00027418776981937,0.00027417970097324,-2.5483777711429e-09,-2.9725289703263e-09,-0.00027740563350218,0.00027739947124443,-0.00027740576177059,0.00027739934296616,-0.00027740563350209,0.00027739947124458,-0.00027740576177036,0.00027739934296615,-0.00028042298896366,0.00028041709435713,-0.00028042298896447,0.00028041709435814,0.78776537765794,120135,2834,0.0012280912201737,0.0012280912201804,0.0011417827288313,31.910922790612,0.00017048738232489,0.00017048738232489,0.00017048738232489,1068849.6266303,0.0036044469459339
3919200,0.24346770737778,0.0047930163759349,0.001632131382022,0.0016321313820245,0.0015287536118884,-0.00043843080198796,0.00043843080198877,5.8273219793136e-16,4.6411817444953e-16,-5.4357162955396e-16,1.3004308609651e-15,-0.00044188915626229,0.00044188915626226,-0.00044189061354509,0.00044189061354515,-0.00044188915576736,0.00044188915576884,-0.00044189061404008,0.00044189061404125,-0.00042824618790031,0.00042824618790252,-0.00042824763484169,0.00042824763484408,-4.0378619402071e-15,-5.9766126851291e-15,3.5833485995547e-10,-3.5835501125682e-10,-0.00043843080199411,0.00043843080198384,-0.00044188900580684,0.00044188926683823,-0.0004418907640078,0.00044189050296336,-0.00044188900580753,0.00044188926683741,-0.0004418907640084,0.00044189050296283,-0.00042824582101397,0.00042824653430284,-0.00042824800176185,0.00042824728842775,-0.00043837474141255,0.00043837451330401,-0.00043837474141346,0.00043837451330246,-2.1541781187531e-09,-2.1541780005614e-09,-0.00038930299469997,0.00038929664989999,-2.5275746888246e-09,-1.7889748906761e-09,-0.000396815947689,0.00039681051333301,-0.00039681568420606,0.00039681077680524,-0.00039681594768891,0.0003968105133332,-0.00039681568420585,0.00039681077680523,-0.00040143404746039,0.00040142981305877,-0.0004014340474612,0.00040142981306001,0.77553102066873,120135,2834,0.0018251227510448,0.0018251227510474,0.0016207828162194,32.495963680185,0.00017516770944148,0.00017516770944148,0.00017516770944148,1607284.6217755,0.0052849478987312
4419200,0.33925576744472,0.0066149049551021,0.0022786703818432,0.0022786703818449,0.0020575641914139,-0.00059801744654548,0.00059801744654675,8.1885733741161e-16,7.0339027661576e-16,-6.3559822996919e-16,1.871942813432e-15,-0.00060709347950657,0.00060709347950676,-0.00060709475738702,0.00060709475738733,-0.00060709347567745,0.00060709347567955,-0.0006070947612162,0.00060709476121805,-0.00057647465387025,0.00057647465387318,-0.00057647565810204,0.00057647565810513,-2.1677573059141e-15,-4.778096622042e-15,1.8995772752963e-09,-1.89959314977e-09,-0.00059801744655001,0.00059801744654298,-0.00060709281862535,0.00060709409852363,-0.00060709541827316,0.00060709413836794,-0.00060709281862624,0.00060709409852258,-0.00060709541827399,0.00060709413836712,-0.00057647278012537,0.00057647651502574,-0.00057647753187548,0.00057647379693937,-0.00059727607365469,0.00059727481963917,-0.00059727607365622,0.00059727481963691,-1.3500433558314e-09,-1.3500432391352e-09,-0.00050921835933578,0.00050921397273766,-3.2857114701542e-09,5.6443839918268e-10,-0.00052061507188605,0.00052061043998771,-0.00052061377154294,0.00052061174031981,-0.00052061507188594,0.00052061043998791,-0.00052061377154276,0.00052061174031981,-0.00053129400023271,0.00053129242146401,-0.00053129400023353,0.00053129242146525,0.77667598450989,120135,2834,0.0024886251801924,0.0024886251801941,0.0021195325919886,33.597313001191,0.00018397850400953,0.00018397850400953,0.00018397850400953,2055007.0777228,0.0071220336306416
4919200,0.44307723348687,0.0085848588768262,0.002988964408926,0.0029889644089259,0.0026069300589744,-0.00077498308271439,0.00077498308271567,8.139751336184e-16,7.2350730911305e-16,-3.4210719591882e-16,1.5882750087005e-15,-0.00079123501315315,0.00079123501315355,-0.00079123619205068,0.00079123619205123,-0.0007912350080772,0.00079123500807913,-0.00079123619712618,0.00079123619712784,-0.00073850319701835,0.00073850319702107,-0.00073850413232447,0.0007385041323274,-1.9761749233302e-15,-4.0061607602189e-15,2.2466692384188e-09,-2.2466849519915e-09,-0.00077498308271841,0.00077498308271159,-0.00079123423679632,0.00079123574999586,-0.0007912369684117,0.00079123545520458,-0.00079123423679702,0.00079123574999501,-0.00079123696841235,0.00079123545520396,-0.0007385010087353,0.00073850541739613,-0.00073850632063437,0.00073850191193778,-0.00077419293735054,0.00077419144579545,-0.00077419293735151,0.00077419144579376,-8.5388848281565e-10,-8.5388838929584e-10,-0.00063288226939198,0.00063287901706665,-3.1374130456648e-09,1.4211524176409e-09,-0.00064836542499132,0.0006483616723574,-0.00064836389016968,0.00064836320716908,-0.00064836542499122,0.00064836167235759,-0.00064836389016951,0.00064836320716906,-0.00066869618273162,0.00066869572518013,-0.00066869618273241,0.00066869572518139,0.77771912009912,120135,2834,0.0032238606220669,0.0032238606220668,0.0026336496602822,35.341419209908,0.00019793135367926,0.00019793135367926,0.00019793135367926,2457518.2090751,0.0091227500824631
5419200,0.54410079913801,0.010478120502944,0.0036842270907126,0.0036842270907112,0.0031096663215202,-0.00094735872691625,0.0009473587269173,6.872143001925e-16,6.1971636220817e-16,-1.9034712620242e-16,1.195816409806e-15,-0.00097190555409989,0.00097190555410024,-0.0009719065962944,0.00097190659629491,-0.00097190554668481,0.00097190554668632,-0.00097190660370855,0.00097190660370981,-0.0008930056519746,0.00089300565197689,-0.00089300641024564,0.00089300641024819,-2.0529961059076e-15,-3.5356334295426e-15,2.5112063222318e-09,-2.5112223890746e-09,-0.00094735872691987,0.00094735872691294,-0.00097190469302166,0.00097190637855432,-0.0009719074573766,0.00097190577183517,-0.00097190469302218,0.00097190637855366,-0.00097190745737706,0.00097190577183473,-0.00089300321977046,0.00089300814037601,-0.00089300884247607,0.00089300392183442,-0.00094691587720948,0.00094691420335071,-0.00094691587720992,0.00094691420334956,-1.904607233709e-10,-1.9046065082256e-10,-0.00074152991517097,0.00074152828300474,-2.743079368095e-09,2.3562267816029e-09,-0.00076186057405362,0.00076185806321506,-0.00076185886038014,0.00076185977687967,-0.00076186057405352,0.00076185806321524,-0.00076185886037998,0.00076185977687964,-0.00079272313115811,0.0007927242202887,-0.00079272313115886,0.00079272422028998,0.76998245497654,120135,2834,0.0039394955476328,0.0039394955476313,0.0030851816952608,36.271728117647,0.00020537382494117,0.00020537382494117,0.00020537382494117,2777406.4861487,0.011024532910224
5919200,0.63545023185683,0.012079284213199,0.0042825441125967,0.0042825441125954,0.0035141959880071,-0.0010958045023762,0.0010958045023774,7.1380172325909e-16,7.0833130214141e-16,-4.4716281007133e-16,1.5775400425287e-15,-0.0011316435095217,0.0011316435095219,-0.0011316443867157,0.0011316443867161,-0.0011316435001048,0.0011316435001066,-0.0011316443961308,0.0011316443961324,-0.001019277935111,0.0010192779351135,-0.0010192785610468,0.0010192785610498,-1.8260030403899e-15,-3.9469335943843e-15,2.8795271118945e-09,-2.8795436031383e-09,-0.0010958045023802,0.0010958045023728,-0.0011316425233029,0.0011316444552419,-0.0011316453729384,0.00113164344099,-0.0011316425233036,0.001131644455241,-0.0011316453729391,0.0011316434409893,-0.0010192751462155,0.0010192807856699,-0.0010192813499701,0.0010192757104782,-0.0010930770867494,0.0010930751635691,-0.0010930770867505,0.0010930751635673,5.2988207042982e-10,5.2988207852505e-10,-0.00082392489401616,0.00082392500313608,-2.4014987411138e-09,3.4474366704335e-09,-0.00085069624385441,0.00085069507257896,-0.00085069428033781,0.00085069703608745,-0.00085069624385433,0.00085069507257911,-0.00085069428033767,0.0008506970360874,-0.00088828801434606,0.00088829082434093,-0.00088828801434674,0.00088829082434227,0.72322607000575,120135,2834,0.0045553596129179,0.0045553596129166,0.0034275468880071,36.778423400181,0.00020942738720144,0.00020942738720144,0.00020942738720144,3111026.7749878,0.012617266975799
6419200,0.71260953953553,0.013394580175454,0.004777819161923,0.0047778191619214,0.0038389418516092,-0.0012172718331046,0.0012172718331059,7.826231502235e-16,6.9886100321725e-16,-4.3575139397638e-16,1.6295384540129e-15,-0.0012656261509392,0.0012656261509396,-0.001265626844256,0.0012656268442565,-0.0012656261392997,0.0012656261393016,-0.0012656268558934,0.001265626855895,-0.0011188002337626,0.0011188002337653,-0.0011188007392902,0.0011188007392931,-1.9049418053355e-15,-4.06371931894e-15,3.2317635670573e-09,-3.2317804462577e-09,-0.0012172718331087,0.001217271833101,-0.0012656250398852,0.0012656272113564,-0.0012656279553141,0.0012656257838328,-0.0012656250398859,0.0012656272113555,-0.0012656279553148,0.0012656257838321,-0.0011187970986038,0.0011188034258296,-0.0011188038744771,0.0011187975472131,-0.0012116244933861,0.0012116223323417,-0.0012116244933872,0.0012116223323399,1.2881388957353e-09,1.2881389838853e-09,-0.00088504841709331,0.00088505037490669,-2.0113594228301e-09,4.5587038671608e-09,-0.00091673553115567,0.0009167358173733,-0.00091673332643904,0.00091673802208235,-0.00091673553115557,0.00091673581737348,-0.00091673332643889,0.00091673802208233,-0.00096263748686407,0.00096264210139935,-0.00096263748686481,0.0009626421014006,0.70960752136299,120135,2834,0.0050590047610957,0.005059004761094,0.003681517861286,36.741547044268,0.00020913237635415,0.00020913237635415,0.00020913237635415,3346058.3451285,0.013895294707227
6919200,0.78193909372811,0.014612848673442,0.0052359434679271,0.0052359434679252,0.0041409617375892,-0.0013356516878955,0.001335651687897,7.2397788297263e-16,9.9073443962529e-16,-6.2251039449946e-16,2.0681721128793e-15,-0.0013945711097969,0.0013945711097971,-0.0013945718889442,0.0013945718889448,-0.0013945710985944,0.0013945710985966,-0.0013945719001439,0.0013945719001461,-0.0012178760388671,0.0012178760388698,-0.0012178766142346,0.0012178766142383,-1.7642990430518e-15,-4.5474760823228e-15,3.2638484944829e-09,-3.2638658427786e-09,-0.0013356516878998,0.0013356516878917,-0.0013945699983473,0.0013945721830356,-0.0013945730003979,0.0013945708156989,-0.0013945699983482,0.0013945721830345,-0.0013945730003988,0.001394570815698,-0.0012178728841574,0.0012178792769372,-0.0012178797689734,0.001217873376154,-0.0013293996970677,0.0013293975164871,-0.0013293996970695,0.0013293975164847,7.3840928891478e-10,7.3840902646405e-10,-0.00094147590562378,0.00094147640371877,-2.575502797367e-09,4.0487098625835e-09,-0.0009774102334121,0.0009774093303969,-0.00097740801359546,0.0009774115502064,-0.00097741023341211,0.00097740933039697,-0.00097740801359543,0.00097741155020626,-0.0010343578356863,0.0010343612962315,-0.0010343578356867,0.0010343612962331,0.73388447573372,120135,2834,0.0055495952135087,0.0055495952135068,0.0039159781905258,38.622030755984,0.00022417624604787,0.00022417624604787,0.00022417624604787,3334377.1073193,0.015128614165777
7419200,0.8415780523662,0.015593826344046,0.0056080299990176,0.0056080299990155,0.0043777663460129,-0.001435798157086,0.0014357981570872,5.4621860751413e-16,9.2303062557739e-16,-3.2798998013125e-16,1.5103656240728e-15,-0.0015050314332512,0.0015050314332514,-0.001505032265545,0.0015050322655457,-0.001505031422389,0.0015050314223907,-0.0015050322764048,0.0015050322764065,-0.0012980757447413,0.0012980757447435,-0.0012980763591923,0.0012980763591956,-2.1098178994526e-15,-4.0398889922526e-15,3.2163446569497e-09,-3.216361975695e-09,-0.0014357981570901,0.0014357981570821,-0.0015050303422633,0.0015050324921698,-0.0015050333565371,0.0015050312066195,-0.0015050303422639,0.001505032492169,-0.0015050333565377,0.0015050312066189,-0.0012980726423954,0.0012980789425501,-0.0012980794615666,0.0012980731613729,-0.0014282087094976,0.0014282065609247,-0.0014282087094985,0.0014282065609231,5.1132144234196e-10,5.1132106960996e-10,-0.00097917827443692,0.00097917823057704,-2.7480577956104e-09,3.7776452034715e-09,-0.0010222013827897,0.0010222000334988,-0.0010221991967742,0.0010222022195074,-0.0010222013827897,0.0010222000334988,-0.0010221991967742,0.0010222022195072,-0.0010842424353446,0.0010842453944401,-0.0010842424353449,0.0010842453944418,0.68603448178831,120135,2834,0.0059644116972301,0.005964411697228,0.0040727213417484,40.760342856944,0.00024128274285556,0.00024128274285556,0.00024128274285556,3267130.138793,0.01613047045236
7919200,0.88632803322253,0.016308052691144,0.0058796234978571,0.005879623497855,0.004548805695432,-0.001504162064903,0.001504162064904,3.4240130458106e-16,8.766791004082e-16,-1.3981925802941e-16,1.0653203963696e-15,-0.0015835324401846,0.0015835324401848,-0.0015835330037366,0.0015835330037373,-0.0015835324267369,0.001583532426738,-0.0015835330171822,0.0015835330171835,-0.0013485506412682,0.0013485506412697,-0.0013485511190325,0.0013485511190355,-2.3472224116136e-15,-3.6448964059719e-15,3.5426973000046e-09,-3.5427145440724e-09,-0.0015041620649069,0.001504162064899,-0.0015835312227197,0.0015835336034291,-0.0015835342212056,0.0015835318404848,-0.0015835312227202,0.0015835336034285,-0.001583534221206,0.0015835318404845,-0.0013485472071444,0.0013485541418906,-0.0013485545531838,0.0013485476183992,-0.0014948921426512,0.0014948897718311,-0.0014948921426515,0.0014948897718302,1.826294684374e-09,1.8262941542025e-09,-0.00099849593110862,0.00099849922159706,-1.7923187417126e-09,5.4136273289361e-09,-0.0010450635808662,0.0010450649215036,-0.0010450611642928,0.0010450673380705,-0.0010450635808663,0.0010450649215036,-0.0010450611642929,0.0010450673380703,-0.0011143503773675,0.001114356309569,-0.0011143503773676,0.0011143563095709,0.66517730764576,120135,2834,0.0062474793199573,0.0062474793199551,0.0041531292272107,40.955786540255,0.00024284629232204,0.00024284629232204,0.00024284629232204,3262732.9435097,0.016787712040843
8419200,0.91961756416181,0.016830235362128,0.0060776865417791,0.0060776865417769,0.0046748622785721,-0.0015566433587045,0.0015566433587055,3.6051839817511e-16,8.9909018047097e-16,-2.1575811462005e-16,1.1843755828448e-15,-0.001643746475077,0.0016437464750771,-0.001643747027138,0.0016437470271387,-0.0016437464619297,0.001643746461931,-0.001643747040283,0.0016437470402844,-0.0013866651101783,0.0013866651101799,-0.0013866655945516,0.0013866655945547,-2.2998709169928e-15,-3.7931758260455e-15,3.788924290107e-09,-3.7889416665359e-09,-0.0015566433587085,0.0015566433587004,-0.0016437451793935,0.0016437477212695,-0.0016437483228256,0.0016437457809381,-0.0016437451793941,0.0016437477212689,-0.001643748322826,0.0016437457809376,-0.0013866614388357,0.0013866688572507,-0.001386669265922,0.0013866618474683,-0.0015467049986536,0.0015467024643894,-0.0015467049986541,0.0015467024643883,1.8724252466595e-09,1.8724247127103e-09,-0.0010084973385593,0.0010085007056741,-1.9866081709436e-09,5.7096444390243e-09,-0.0010587065361213,0.0010587078272994,-0.0010587039571775,0.0010587104062369,-0.0010587065361214,0.0010587078272994,-0.0010587039571776,0.0010587104062367,-0.001133351774673,0.001133357956244,-0.0011333517746732,0.0011333579562458,0.65392244830855,120135,2834,0.0064647187744261,0.0064647187744239,0.0041948577005558,41.431758148334,0.00024665406518667,0.00024665406518667,0.00024665406518667,3170809.7394874,0.017272078009097
8919200,0.94387210375039,0.017195622177751,0.0062162013958476,0.0062162013958453,0.004763219386058,-0.001594837002105,0.0015948370021062,5.0010236927473e-16,9.7038212019821e-16,-4.0634052775227e-16,1.589657319413e-15,-0.0016879938340313,0.0016879938340314,-0.001687994352064,0.0016879943520647,-0.0016879938209115,0.0016879938209132,-0.001687994365181,0.0016879943651828,-0.0014132447569282,0.0014132447569303,-0.0014132452301686,0.001413245230172,-2.1392875874091e-15,-4.2284734195469e-15,3.9800985214888e-09,-3.9801162064099e-09,-0.0015948370021092,0.0015948370021008,-0.0016879924755525,0.0016879951441638,-0.0016879957105469,0.0016879930419239,-0.0016879924755532,0.001687995144163,-0.0016879957105475,0.0016879930419233,-0.0014132408995018,0.0014132486928743,-0.0014132490876237,0.0014132412942115,-0.0015845751953194,0.0015845725336907,-0.0015845751953205,0.001584572533689,2.0313446603395e-09,2.031344194241e-09,-0.0010115022199172,0.0010115059672268,-2.0182193666918e-09,6.0616034842149e-09,-0.0010651664168833,0.0010651679371313,-0.0010651637103504,0.0010651706436581,-0.0010651664168834,0.0010651679371313,-0.0010651637103504,0.0010651706436579,-0.0011433386448076,0.0011433452813188,-0.0011433386448078,0.0011433452813206,0.62734199363791,120135,2834,0.0066227777936467,0.0066227777936444,0.0042075284667053,41.890791423157,0.00025032633138525,0.00025032633138525,0.00025032633138525,3059178.7446511,0.017606644805527
9419200,0.96046892400978,0.017441377062353,0.0063090656780537,0.0063090656780514,0.0048232457062478,-0.0016178512540133,0.0016178512540145,3.6969458843703e-16,1.0452621856048e-15,-3.576949550176e-16,1.4918956000841e-15,-0.0017159463717246,0.0017159463717247,-0.0017159466403015,0.0017159466403022,-0.0017159463565412,0.0017159463565427,-0.0017159466554821,0.0017159466554839,-0.0014272260871074,0.0014272260871092,-0.0014272264508158,0.0014272264508193,-2.2208145085824e-15,-4.1646881438786e-15,4.4026353818692e-09,-4.4026531154915e-09,-0.0016178512540175,0.0016178512540091,-0.00171594485809,0.0017159478186887,-0.0017159481539402,0.0017159451933296,-0.0017159448580907,0.0017159478186879,-0.0017159481539408,0.001715945193329,-0.0014272218047246,0.0014272304228438,-0.0014272307332272,0.0014272221150684,-0.0016073019424113,0.0016072989956983,-0.0016073019424122,0.0016072989956967,3.1825424341977e-09,3.1825417621808e-09,-0.0010091057921343,0.0010091124145147,-1.3170746689549e-09,7.6313397716126e-09,-0.0010642514396532,0.0010642552398656,-0.0010642484403958,0.0010642582391169,-0.0010642514396533,0.0010642552398655,-0.0010642484403959,0.0010642582391167,-0.00114664662257,0.0011466559476639,-0.00114664662257,0.0011466559476659,0.61542001100732,120135,2834,0.0067180063981493,0.006718006398147,0.004197742059543,41.152076735655,0.00024441661388524,0.00024441661388524,0.00024441661388524,2986719.2293561,0.017790542644685
9919200,0.97162980965663,0.017605937665748,0.0063709936720435,0.0063709936720413,0.0048639503216635,-0.0016327812031714,0.0016327812031723,2.5446281457098e-16,9.2344237770453e-16,-1.7581815828772e-16,1.0607911229711e-15,-0.0017339945205523,0.0017339945205524,-0.0017339946430652,0.0017339946430659,-0.001733994504931,0.0017339945049321,-0.0017339946586841,0.0017339946586855,-0.0014358447223906,0.001435844722392,-0.0014358450275349,0.001435845027538,-2.4332197844529e-15,-3.764109043979e-15,4.9264044444509e-09,-4.9264220306665e-09,-0.0016327812031753,0.0016327812031671,-0.0017339928295981,0.0017339961412534,-0.0017339963340235,0.0017339930223562,-0.0017339928295986,0.0017339961412528,-0.0017339963340239,0.0017339930223558,-0.0014358399248253,0.0014358495687858,-0.0014358498251281,0.0014358401811286,-0.0016225206810853,0.0016225173844151,-0.0016225206810857,0.0016225173844141,3.8905059707255e-09,3.89050530491e-09,-0.0010041504059378,0.0010041587658123,-1.1398379796145e-09,8.8641426137419e-09,-0.0010608297598465,0.0010608347792924,-0.0010608264081858,0.0010608381309472,-0.0010608297598466,0.0010608347792923,-0.0010608264081859,0.0010608381309469,-0.0011458493515659,0.0011458604987174,-0.0011458493515659,0.0011458604987194,0.61191532849923,120135,2834,0.0067797727205815,0.0067797727205791,0.0041773064867826,39.829766814271,0.00023383813451416,0.00023383813451416,0.00023383813451416,2906749.2306118,0.0178954993373
10419200,0.97912838530136,0.017718260275993,0.0064130732843775,0.0064130732843753,0.0048921137072398,-0.0016420856479516,0.0016420856479549,1.8115328942077e-15,2.4668658154133e-15,4.6522108193294e-16,2.4275728981378e-15,-0.0017451970437038,0.0017451970437061,-0.0017451970595522,0.0017451970595557,-0.0017451970275239,0.0017451970275272,-0.0017451970757294,0.0017451970757334,-0.0014408194907588,0.0014408194907639,-0.0014408197545672,0.0014408197545729,-1.5441292984981e-15,-3.5659958406866e-15,5.2033233069996e-09,-5.2033378652543e-09,-0.0016420856479557,0.0016420856479495,-0.0017451952567089,0.0017451987555736,-0.0017451988465523,0.0017451953476798,-0.0017451952567092,0.001745198755573,-0.0017451988465531,0.0017451953476796,-0.0014408144190029,0.0014408246047224,-0.0014408248263551,0.0014408146406002,-0.0016323829294869,0.0016323794473095,-0.0016323829294897,0.001632379447307,4.3889694316833e-09,4.3889688001335e-09,-0.00099803329885242,0.00099804288702697,-9.2646241481396e-10,9.6394550942866e-09,-0.0010561381513515,0.001056144088182,-0.0010561346114721,0.0010561476280539,-0.0010561381513509,0.0010561440881811,-0.0010561346114723,0.0010561476280528,-0.0011427963171088,0.001142808687957,-0.0011427963171097,0.0011428086879599,0.62047456210085,120135,2834,0.0068182583501155,0.0068182583501131,0.0041520240968333,38.10212506546,0.00022001700052368,0.00022001700052368,0.00022001700052368,2833592.5866953,0.017948127228252
10919200,0.98462561747036,0.017797729069111,0.0064428563210766,0.0064428563210743,0.0049120164269605,-0.0016516614878524,0.0016516614878536,4.0116421529683e-16,1.0882608720244e-15,-3.4875405168547e-16,1.5309532304297e-15,-0.0017558942499408,0.0017558942499409,-0.0017558945606123,0.0017558945606131,-0.0017558942375339,0.0017558942375355,-0.0017558945730164,0.0017558945730183,-0.0014473075504897,0.0014473075504916,-0.0014473079426253,0.0014473079426289,-2.2168146307759e-15,-4.1932273685322e-15,5.2305276335217e-09,-5.2305454273908e-09,-0.0016516614878566,0.0016516614878482,-0.0017558924810131,0.0017558959783886,-0.0017558963295441,0.0017558928321568,-0.0017558924810138,0.0017558959783877,-0.0017558963295448,0.0017558928321562,-0.0014473024733526,0.0014473127191404,-0.0014473130197912,0.0014473027739636,-0.0016425585537287,0.0016425550595367,-0.0016425585537297,0.0016425550595351,3.0827638720413e-09,3.0827631890536e-09,-0.00099469428502097,0.00099470056765937,-2.211437723329e-09,8.3722092551218e-09,-0.0010546854080468,0.0010546884147538,-0.0010546818686731,0.0010546919541216,-0.0010546854080469,0.0010546884147537,-0.0010546818686732,0.0010546919541213,-0.0011414976610194,0.0011415073070289,-0.0011414976610194,0.0011415073070309,0.59839954923441,120135,2834,0.006857864040856,0.0068578640408536,0.0041382459298295,37.946481469785,0.00021877185175828,0.00021877185175828,0.00021877185175828,2755736.1527725,0.018014749402965
11419200,0.98863064737,0.017855412355681,0.0064644247401182,0.0064644247401159,0.0049265628754464,-0.0016562964347176,0.0016562964347191,5.5021848532061e-16,1.267078938667e-15,-2.6405075696004e-16,1.2594321134487e-15,-0.0017622991584481,0.0017622991584481,-0.0017622994267723,0.001762299426774,-0.0017622991456308,0.0017622991456331,-0.0017622994395869,0.0017622994395892,-0.0014488779726514,0.0014488779726535,-0.0014488783491432,0.0014488783491475,-2.2036973844399e-15,-3.8363470715318e-15,5.2605191573499e-09,-5.2605361364379e-09,-0.0016562964347214,0.0016562964347138,-0.0017622973765338,0.0017623008961432,-0.0017623012086909,0.0017622976890718,-0.0017622973765358,0.0017623008961425,-0.0017623012086914,0.0017622976890717,-0.0014488728641147,0.0014488831679781,-0.0014488834577105,0.0014488731538114,-0.0016470956548646,0.0016470921399591,-0.0016470956548654,0.0016470921399591,3.2610345814312e-09,3.2610338733007e-09,-0.00099174389860474,0.00099175062919165,-2.0685553310141e-09,8.5796982191106e-09,-0.001051288297386,0.001051291692597,-0.0010512847358517,0.0010512952541259,-0.0010512882973855,0.0010512916925968,-0.0010512847358511,0.0010512952541249,-0.0011408297360026,0.0011408397751645,-0.0011408297360037,0.001140839775167,0.59529609745278,120135,2834,0.006877040557875,0.0068770405578721,0.0041260510832319,37.628928312491,0.00021623142649993,0.00021623142649993,0.00021623142649993,2733652.4583333,0.018041383418399
11919200,0.99153303517312,0.017898069506389,0.0064803140603577,0.0064803140603555,0.0049374413856757,-0.0016604901860758,0.0016604901860773,6.4015691423393e-16,1.3553703590718e-15,9.4114771917145e-17,1.3657818057151e-15,-0.0017672575804551,0.0017672575804556,-0.0017672577990951,0.0017672577990961,-0.0017672575672004,0.0017672575672016,-0.0017672578123463,0.0017672578123493,-0.0014511020114711,0.0014511020114732,-0.001451102368335,0.0014511023683384,-2.6946235634527e-15,-4.0563366745299e-15,5.3232309132087e-09,-5.3232490467449e-09,-0.0016604901860802,0.0016604901860717,-0.001767255774516,0.0017672593381668,-0.001767259605038,0.0017672560413753,-0.0017672557745162,0.0017672593381663,-0.0017672596050386,0.0017672560413747,-0.0014510968389462,0.0014511072649734,-0.0014511075408888,0.0014510971148206,-0.0016516943976004,0.0016516908401632,-0.0016516943976012,0.0016516908401627,3.4872110151787e-09,3.4872103066483e-09,-0.00098846192463896,0.00098846921838982,-1.9111404894331e-09,8.8676155833151e-09,-0.0010486482336232,0.0010486520875898,-0.0010486446278184,0.0010486556933893,-0.0010486482336231,0.0010486520875893,-0.0010486446278183,0.0010486556933886,-0.0011390040988602,0.0011390146531499,-0.0011390040988605,0.0011390146531518,0.60696177088657,120135,2834,0.0068943846193926,0.0068943846193903,0.0041124818127196,37.105745147977,0.00021204596118382,0.00021204596118382,0.00021204596118382,2691347.5920536,0.018062888186114
12419200,0.99366964673712,0.017929776458299,0.0064921002859598,0.0064921002859575,0.0049455758863813,-0.0016647607640854,0.0016647607640868,5.3392486543245e-16,1.2586086091945e-15,-3.1763735522036e-18,1.424427072966e-15,-0.0017716737804883,0.0017716737804889,-0.0017716740399729,0.0017716740399739,-0.0017716737678136,0.0017716737678152,-0.0017716740526448,0.0017716740526466,-0.0014541920021081,0.0014541920021098,-0.0014541923748622,0.0014541923748661,-2.5218641352523e-15,-4.0460498794094e-15,5.3485312388689e-09,-5.3485490063669e-09,-0.0016647607640897,0.0016647607640814,-0.0017716719703004,0.0017716755477415,-0.0017716758501654,0.001771672272712,-0.0017716719703011,0.0017716755477411,-0.0017716758501656,0.0017716722727115,-0.0014541868078092,0.0014541972845114,-0.0014541975691894,0.0014541870924485,-0.0016565513542974,0.0016565477809578,-0.0016565513542971,0.0016565477809568,3.3120161876188e-09,3.3120154627305e-09,-0.00098550652482631,0.000985513373906,-2.1045165328358e-09,8.719588566858e-09,-0.0010471431852068,0.0010471466221614,-0.0010471395652218,0.0010471502421408,-0.0010471431852065,0.0010471466221611,-0.0010471395652219,0.0010471502421403,-0.0011369115214519,0.0011369217252686,-0.001136911521452,0.0011369217252711,0.61229629258794,120135,2834,0.0069120409965084,0.0069120409965063,0.0041002661317051,36.80285669866,0.00020962285358928,0.00020962285358928,0.00020962285358928,2637567.2312949,0.018086408352498
12919200,0.99522403681921,0.017952126986575,0.0065004172839367,0.0065004172839344,0.0049512924187043,-0.0016666583124204,0.0016666583124217,4.1710490479029e-16,1.1751405708504e-15,-2.0158207710003e-16,1.514189036682e-15,-0.0017738795535891,0.0017738795535895,-0.0017738797358646,0.0017738797358657,-0.0017738795401752,0.0017738795401768,-0.0017738797492762,0.0017738797492781,-0.0014550137645086,0.0014550137645109,-0.0014550141033588,0.0014550141033624,-2.2608721083796e-15,-4.0650194285792e-15,5.4219747487382e-09,-5.4219922274806e-09,-0.0016666583124246,0.0016666583124163,-0.001773877713626,0.0017738813438417,-0.0017738815758321,0.0017738779456046,-0.0017738777136266,0.0017738813438407,-0.0017738815758325,0.0017738779456041,-0.0014550084940583,0.0014550191133253,-0.0014550193738372,0.0014550087545317,-0.0016587321824006,0.0016587285588665,-0.0016587321824016,0.0016587285588651,3.6687800523782e-09,3.6687793009578e-09,-0.00098189428326802,0.00098190202546819,-1.8310956912688e-09,9.1478871265492e-09,-0.0010444414249031,0.0010444455958838,-0.0010444377519783,0.0010444492688029,-0.0010444414249029,0.0010444455958836,-0.0010444377519784,0.0010444492688025,-0.0011341436003807,0.0011341546009802,-0.0011341436003813,0.0011341546009824,0.59298586310676,120135,2834,0.0069198819550245,0.0069198819550223,0.0040853164571393,36.137721886107,0.00020430177508886,0.00020430177508886,0.00020430177508886,2601347.4243651,0.018087157861418
13419200,0.99633149032023,0.017967865151603,0.0065062695532675,0.0065062695532652,0.0049553260450703,-0.0016649876296026,0.0016649876296037,2.9416748397352e-16,1.058673540603e-15,-3.6387123692466e-16,1.3751932829068e-15,-0.001773142774569,0.0017731427745691,-0.0017731428110382,0.001773142811039,-0.0017731427597897,0.0017731427597909,-0.0017731428258149,0.0017731428258167,-0.0014518811479231,0.0014518811479247,-0.001451881427611,0.0014518814276144,-2.3259877661998e-15,-4.1644901949626e-15,5.5916270680848e-09,-5.5916445721775e-09,-0.0016649876296068,0.0016649876295984,-0.0017731408682949,0.0017731446186849,-0.0017731447173155,0.0017731409669142,-0.001773140868296,0.001773144618684,-0.0017731447173159,0.0017731409669135,-0.0014518757037354,0.0014518866530519,-0.0014518868718278,0.0014518759224718,-0.0016568914440189,0.0016568877050795,-0.0016568914440195,0.0016568877050783,4.3404394637878e-09,4.340438699283e-09,-0.00097752018118246,0.00097752959961536,-1.3472974290196e-09,9.9858821278817e-09,-0.0010393150623472,0.0010393206166483,-0.0010393112690931,0.0010393244098961,-0.0010393150623469,0.0010393206166483,-0.0010393112690932,0.0010393244098956,-0.0011310399774214,0.0011310524963861,-0.0011310399774214,0.0011310524963884,0.58571221593857,120135,2834,0.0069129706937477,0.0069129706937454,0.0040671855713511,34.797782605762,0.00019358226084609,0.00019358226084609,0.00019358226084609,2601131.5552792,0.018054626176132
13919200,0.99714693927098,0.017979305573795,0.0065105214262522,0.0065105214262499,0.0049582627212927,-0.0016645614594556,0.001664561459457,5.4521863806251e-16,1.3451941993582e-15,-2.6116849207008e-16,1.4508968525677e-15,-0.0017731223142848,0.0017731223142849,-0.0017731224216581,0.0017731224216591,-0.001773122300631,0.0017731223006326,-0.0017731224353093,0.0017731224353111,-0.0014504890068256,0.0014504890068278,-0.0014504893187936,0.0014504893187971,-2.2602838910551e-15,-4.076639822665e-15,5.6864152908007e-09,-5.6864330543845e-09,-0.0016645614594598,0.0016645614594513,-0.0017731203844645,0.0017731241922252,-0.0017731243514831,0.0017731205437098,-0.0017731203844652,0.0017731241922246,-0.0017731243514837,0.0017731205437091,-0.0014504834760287,0.0014504946131944,-0.0014504948496191,0.0014504837124127,-0.0016566159103566,0.0016566121100461,-0.0016566159103575,0.0016566121100449,4.0403609842503e-09,4.0403601899461e-09,-0.0009740335446358,0.0009740421963463,-1.7281379336533e-09,9.7844235439805e-09,-0.0010358165914729,0.0010358214167269,-0.0010358127404262,0.0010358252677683,-0.0010358165914729,0.0010358214167268,-0.0010358127404263,0.0010358252677675,-0.0011283290962744,0.0011283410460081,-0.0011283290962746,0.0011283410460101,0.57829083388806,120135,2834,0.0069112046797949,0.0069112046797922,0.0040527350705767,33.830418724619,0.00018584334979695,0.00018584334979695,0.00018584334979695,2586329.5789741,0.018036319911536
14419200,0.99774832029404,0.017987557265602,0.0065135890931521,0.0065135890931498,0.0049603790792999,-0.0016633447390095,0.0016633447390108,4.2875160781504e-16,1.2419620589116e-15,-3.3351922298138e-16,1.4457793618447e-15,-0.001772266015352,0.0017722660153522,-0.0017722660757034,0.0017722660757042,-0.0017722660013984,0.0017722660014001,-0.0017722660896538,0.0017722660896559,-0.0014484270170052,0.0014484270170068,-0.0014484273107185,0.0014484273107223,-2.588744445046e-15,-4.4772872798514e-15,5.7938654557291e-09,-5.7938843513616e-09,-0.0016633447390142,0.0016633447390049,-0.0017722640475822,0.0017722679285102,-0.0017722680434782,0.0017722641625363,-0.0017722640475825,0.0017722679285097,-0.0017722680434786,0.0017722641625356,-0.0014484213793187,0.0014484327265341,-0.0014484329484346,0.0014484216011773,-0.0016555240696273,0.0016555201971604,-0.0016555240696284,0.0016555201971587,4.2656493921324e-09,4.2656485827756e-09,-0.00097021506857003,0.00097022427847679,-1.6145495335116e-09,1.0116757857439e-08,-0.0010319357129566,0.0010319409661475,-0.0010319317885001,0.0010319448905987,-0.0010319357129568,0.0010319409661473,-0.0010319317885001,0.0010319448905983,-0.0011251993502189,0.0011252118415409,-0.0011251993502188,0.0011252118415431,0.5655316541976,120135,2834,0.0069061681113274,0.0069061681113252,0.0040369066461752,32.644566536827,0.00017635653229462,0.00017635653229462,0.00017635653229462,2574859.6339263,0.018009952027809
14919200,0.99817968935035,0.017993529113748,0.0065158052042654,0.0065158052042631,0.0049619187052198,-0.0016598681408841,0.0016598681408856,4.3010450766135e-16,1.2447266803367e-15,-1.6658314629335e-16,1.4704256677405e-15,-0.0017692682525843,0.0017692682525846,-0.0017692681315559,0.0017692681315569,-0.0017692682369374,0.001769268236939,-0.0017692681472002,0.001769268147202,-0.0014440491627228,0.0014440491627245,-0.001444049383377,0.0014440493833808,-2.3956915191509e-15,-4.128667415243e-15,6.0151059412239e-09,-6.0151238075525e-09,-0.0016598681408884,0.0016598681408799,-0.0017692661990263,0.00176927023611,-0.0017692701851177,0.0017692661480221,-0.0017692661990271,0.0017692702361092,-0.0017692701851181,0.0017692661480217,-0.0014440432988198,0.0014440550766094,-0.0014440552473087,0.0014440434694798,-0.0016520770624939,0.0016520730397222,-0.0016520770624947,0.0016520730397209,5.1078829823387e-09,5.1078821698824e-09,-0.00096480865601632,0.00096481996633495,-1.0161602867232e-09,1.1176063729878e-08,-0.0010260856342368,0.0010260926112305,-0.001026081553267,0.0010260966921946,-0.0010260856342367,0.0010260926112303,-0.0010260815532671,0.0010260966921941,-0.0011205737097378,0.0011205881098878,-0.0011205737097375,0.0011205881098898,0.57027521784688,120135,2834,0.0068917831182751,0.0068917831182726,0.004014486081568,30.582526269538,0.0001598602101563,0.0001598602101563,0.0001598602101563,2574123.2420728,0.017957840193072
15419200,0.99847363120845,0.017997886514613,0.0065174138933741,0.0065174138933718,0.0049630587278672,-0.0016546316571227,0.0016546316571233,2.4999236290492e-17,8.2744531034904e-16,-5.9727587127918e-16,1.0959665189751e-15,-0.0017639443759457,0.0017639443759455,-0.0017639439691853,0.0017639439691853,-0.0017639443578151,0.0017639443578158,-0.0017639439873129,0.0017639439873142,-0.0014383755899425,0.0014383755899437,-0.0014383756915297,0.001438375691533,-2.5974500614483e-15,-4.4012365241056e-15,6.4048065220971e-09,-6.4048258146038e-09,-0.0016546316571271,0.0016546316571177,-0.0017639421747757,0.0017639464844006,-0.0017639461703597,0.0017639418607206,-0.0017639421747763,0.0017639464843998,-0.00176394617036,0.0017639418607203,-0.0014383693301706,0.0014383818669988,-0.001438381951332,0.0014383694144611,-0.001647220094857,0.0016472158080972,-0.0016472200948577,0.0016472158080955,6.4641702769348e-09,6.4641694731774e-09,-0.0009561275023339,0.00095614219026452,-8.3004152644084e-11,1.2915923493229e-08,-0.001018143711145,0.0010181534130903,-0.0010181393569536,0.001018157767278,-0.0010181437111451,0.0010181534130905,-0.0010181393569535,0.0010181577672773,-0.001112272353525,0.001112289849387,-0.0011122723535252,0.0011122898493894,0.60998271932459,120135,2834,0.0068701064391078,0.0068701064391057,0.0039784896377014,27.076094763916,0.00013180875811133,0.00013180875811133,0.00013180875811133,2555648.3054707,0.017877070889029
15919200,0.99869946837952,0.018001489496049,0.0065187385943941,0.0065187385943919,0.0049640123072626,-0.0016544487740272,0.0016544487740283,2.2722835244746e-16,1.1167894122618e-15,-2.0164089883248e-16,1.2203744831031e-15,-0.0017627498302916,0.0017627498302917,-0.0017627497867333,0.0017627497867341,-0.0017627498169776,0.0017627498169788,-0.0017627498000447,0.0017627498000464,-0.0014386861023125,0.0014386861023139,-0.0014386863523204,0.0014386863523239,-2.4472193567756e-15,-3.971254255357e-15,6.530083786424e-09,-6.5301016933279e-09,-0.0016544487740313,0.0016544487740229,-0.0017627476217922,0.001762751989958,-0.0017627519952369,0.0017627476270589,-0.0017627476217928,0.0017627519899573,-0.0017627519952373,0.0017627476270585,-0.001438679746308,0.0014386925374785,-0.0014386927083533,0.0014386799171431,-0.0016478411985486,0.0016478368362013,-0.0016478411985492,0.0016478368362001,4.8780886572508e-09,4.8780877710612e-09,-0.00095052148422369,0.00095053217459211,-1.7332857481668e-09,1.1469950537473e-08,-0.0010152858010875,0.0010152918637093,-0.0010152813870872,0.001015296277704,-0.0010152858010877,0.0010152918637091,-0.0010152813870873,0.0010152962777036,-0.0011062165258949,0.0011062307783347,-0.0011062165258947,0.0011062307783369,0.65577889124334,120135,2834,0.0068693268972746,0.0068693268972722,0.0039552572652273,25.356673916224,0.0001180533913298,0.0001180533913298,0.0001180533913298,2498306.2852232,0.017851843905364
16419200,0.99888270109005,0.018004165497259,0.0065197285985474,0.0065197285985451,0.0049647083001662,-0.0016551570124654,0.0016551570124668,4.2463408654367e-16,1.1734347406094e-15,-4.3569257224393e-16,1.7233591172678e-15,-0.0017625736156889,0.001762573615689,-0.0017625737305856,0.0017625737305864,-0.0017625736038874,0.0017625736038891,-0.0017625737423841,0.0017625737423862,-0.001439992403166,0.0014399924031679,-0.0014399927119598,0.0014399927119637,-2.2029915236506e-15,-4.4730107560845e-15,6.4100374331363e-09,-6.4100555884996e-09,-0.0016551570124698,0.0016551570124611,-0.0017625714582419,0.0017625757381743,-0.0017625758880368,0.0017625716080921,-0.0017625714582427,0.0017625757381734,-0.0017625758880375,0.0017625716080914,-0.0014399861729816,0.0014399987321157,-0.0014399989421736,0.0014399863829989,-0.0016490396313955,0.0016490353519233,-0.0016490396313967,0.0016490353519214,4.1387266424471e-09,4.13872588153e-09,-0.00094612053506191,0.00094612938716578,-2.3329758104239e-09,1.0614968656863e-08,-0.001013684564099,0.0010136890536438,-0.0010136802377339,0.0010136933800032,-0.0010136845640991,0.0010136890536436,-0.001013680237734,0.0010136933800028,-0.0011013909480347,0.0011014035774523,-0.0011013909480346,0.0011014035774544,0.60060691655483,120135,2834,0.006872233608557,0.0068722336085546,0.0039370312141102,24.413557091884,0.00011050845673507,0.00011050845673507,0.00011050845673507,2444458.4266363,0.017839217323938
16919200,0.9990349758659,0.018006648651496,0.0065206392763674,0.0065206392763651,0.0049653700987638,-0.0016511660175576,0.0016511660175588,3.740473966382e-16,1.2056690499911e-15,-4.4069241950203e-16,1.438073714894e-15,-0.0017602163542861,0.0017602163542862,-0.001760216519315,0.001760216519316,-0.0017602163429581,0.0017602163429596,-0.0017602165306403,0.0017602165306422,-0.0014343957053324,0.0014343957053341,-0.001434396037424,0.0014343960374277,-2.2304612727039e-15,-4.226959679026e-15,6.3123318628819e-09,-6.3123498338764e-09,-0.0016511660175619,0.0016511660175532,-0.0017602142325232,0.0017602184453574,-0.0017602186410824,0.0017602144282357,-0.0017602142325238,0.0017602184453566,-0.001760218641083,0.0017602144282352,-0.0014343895743295,0.001434401942575,-0.0014344021684553,0.0014343898001701,-0.0016441130241725,0.0016441088103844,-0.0016441130241735,0.0016441088103828,3.8869607533466e-09,3.8869599246307e-09,-0.00094393239404828,0.00094394061554962,-2.4802283946313e-09,1.0266844475326e-08,-0.0010086904765498,0.0010086945087278,-0.0010086862181369,0.0010086987671352,-0.0010086904765499,0.0010086945087277,-0.001008686218137,0.0010086987671347,-0.0011009481150546,0.0011009601512476,-0.0011009481150545,0.0011009601512499,0.66895806703064,120135,2834,0.0068557362184402,0.0068557362184378,0.0039279348718664,23.780779129656,0.00010544623303725,0.00010544623303725,0.00010544623303725,2488270.8294758,0.017796367242993
17419200,0.99915443890605,0.018008485252615,0.0065213159266184,0.0065213159266161,0.0049658533993802,-0.0016520824313499,0.0016520824313512,3.8287065650543e-16,1.2144334881259e-15,-4.3557492877903e-16,1.7134182444841e-15,-0.0017594348223832,0.0017594348223832,-0.0017594347767756,0.0017594347767765,-0.0017594348087943,0.001759434808796,-0.0017594347903614,0.0017594347903635,-0.0014363882241246,0.0014363882241265,-0.001436388458677,0.0014363884586809,-2.224696742924e-15,-4.4769985708403e-15,6.4158679152548e-09,-6.4158861388546e-09,-0.0016520824313543,0.0016520824313456,-0.0017594326500107,0.0017594369433666,-0.0017594369491523,0.0017594326557841,-0.0017594326500115,0.0017594369433657,-0.001759436949153,0.0017594326557834,-0.0014363819781142,0.0014363945448285,-0.0014363947047169,0.0014363821379618,-0.0016462698085028,0.0016462655219549,-0.0016462698085041,0.001646265521953,4.8910133443489e-09,4.891012514278e-09,-0.00093817736796555,0.00093818810976369,-1.6096106514296e-09,1.1367371849928e-08,-0.0010070641857249,0.001007070304722,-0.0010070598464408,0.0010070746440005,-0.0010070641857251,0.0010070703047219,-0.0010070598464409,0.0010070746440001,-0.0010940279035926,0.0010940421157857,-0.0010940279035925,0.0010940421157879,0.63180121631283,120135,2834,0.0068594964929687,0.0068594964929664,0.0039041091273723,21.985675131193,9.1085401049547e-05,9.1085401049547e-05,9.1085401049547e-05,2410818.2625947,0.017779784184882
17919200,0.99924571130951,0.01800978689043,0.006521797679965,0.0065217976799627,0.0049661915305028,-0.0016454511001519,0.0016454511001536,6.3474531484869e-16,1.3361944742937e-15,-3.6681232354707e-16,2.0024094160021e-15,-0.0017539730610191,0.0017539730610191,-0.0017539728739428,0.0017539728739435,-0.0017539730461524,0.0017539730461545,-0.0017539728888066,0.0017539728888088,-0.0014285477454234,0.0014285477454262,-0.0014285479115123,0.0014285479115172,-2.1877566949465e-15,-4.6492132086984e-15,6.5897470519815e-09,-6.5897653354093e-09,-0.0016454511001564,0.0016454511001476,-0.0017539708214702,0.0017539752375402,-0.0017539751134959,0.0017539706974134,-0.0017539708214709,0.0017539752375394,-0.0017539751134969,0.0017539706974123,-0.0014285413221887,0.0014285542272673,-0.001428554334778,0.0014285414296593,-0.001638935998298,0.001638931593469,-0.0016389359982993,0.0016389315934667,5.5583213514749e-09,5.5583206538253e-09,-0.00093160681913216,0.00093161922440955,-1.1332558686475e-09,1.2205460698575e-08,-0.0009989106711034,0.0009989181550409,-0.00099890620922177,0.00099892261691713,-0.00099891067110366,0.00099891815504085,-0.00099890620922153,0.00099892261691605,-0.001088871197956,0.0010888869245942,-0.0010888711979575,0.0010888869245973,0.58584129934464,120135,2834,0.0068320628084562,0.0068320628084535,0.0038768422430142,19.506539367599,7.1252314940792e-05,7.1252314940792e-05,7.1252314940792e-05,2439051.0281848,0.017696187311147
18419200,0.99931826109946,0.018010850028509,0.006522189919751,0.0065221899197487,0.0049664701890096,-0.0016395407657404,0.0016395407657411,1.1723171276929e-16,6.4686259173302e-16,-7.5338874919674e-16,1.1840814741826e-15,-0.0017493804115752,0.0017493804115754,-0.0017493802969588,0.0017493802969591,-0.0017493803977721,0.0017493803977749,-0.0017493803107561,0.0017493803107587,-0.0014211005910791,0.0014211005910808,-0.0014211007993281,0.0014211007993292,-1.5444822288928e-15,-3.5502373607003e-15,6.6805334609686e-09,-6.6805506176577e-09,-0.0016395407657435,0.0016395407657361,-0.0017493781493826,0.0017493826205003,-0.0017493825591562,0.0017493780880281,-0.0017493781493822,0.0017493826204993,-0.0017493825591557,0.0017493780880283,-0.0014210940852257,0.0014211071705092,-0.0014211073052055,0.0014210942198807,-0.0016324755723986,0.0016324711088283,-0.0016324755724014,0.0016324711088251,5.2149910389969e-09,5.214990514296e-09,-0.00092711715239667,0.00092712868417892,-1.5539085770934e-09,1.1956936763634e-08,-0.00099192445924614,0.00099193116919505,-0.0009919199420873,0.00099193568634907,-0.00099192445924629,0.00099193116919482,-0.00099191994208743,0.00099193568634988,-0.0010858344056842,0.0010858494679023,-0.0010858344056868,0.0010858494679024,0.60198891429271,120135,2834,0.0068076212850585,0.0068076212850549,0.003858193929021,17.482598213087,5.5060785704697e-05,5.5060785704697e-05,5.5060785704697e-05,2479166.4097181,0.017627456032814
18919200,0.99938156851667,0.018011829273698,0.0065225498934027,0.0065225498934004,0.0049667294868944,-0.0016401561238925,0.0016401561238939,5.8257043816712e-16,1.0599087969844e-15,-2.9069700175908e-16,1.7075948929717e-15,-0.0017494522260298,0.0017494522260303,-0.0017494523874535,0.0017494523874542,-0.0017494522152651,0.0017494522152667,-0.0017494523982161,0.001749452398218,-0.0014218266547872,0.0014218266547896,-0.0014218269885088,0.001421826988512,-2.1134648468644e-15,-4.2082945782761e-15,6.5503507459533e-09,-6.5503681751383e-09,-0.0016401561238969,0.0016401561238885,-0.0017494500289997,0.0017494543974747,-0.0017494545844881,0.0017494502160018,-0.0017494500290003,0.0017494543974736,-0.0017494545844889,0.001749450216001,-0.0014218202934621,0.0014218331293892,-0.0014218333498631,0.0014218205138961,-0.0016336879160132,0.0016336835445041,-0.0016336879160138,0.0016336835445023,3.9379534881884e-09,3.937953017062e-09,-0.00092473010926972,0.00092473844168936,-2.6612752376918e-09,1.0558635562355e-08,-0.00099089559822013,0.00099089957413219,-0.00099089118320047,0.00099090398914592,-0.00099089559822007,0.00099089957413207,-0.00099089118320075,0.0009909039891456,-0.0010832198895483,0.0010832321879103,-0.0010832198895485,0.0010832321879112,0.63537812120953,120135,2834,0.0068101571374061,0.0068101571374043,0.0038483021085878,16.876008893593,5.0208071148744e-05,5.0208071148744e-05,5.0208071148744e-05,2446167.8339881,0.017622554647133
19419200,0.99944127087437,0.018012796781254,0.0065229046799637,0.0065229046799615,0.004966987421329,-0.0016435200452878,0.0016435200452891,5.2245462760505e-16,1.0156748541833e-15,-3.7663555286592e-16,1.5936571972195e-15,-0.001752015025331,0.0017520150253312,-0.0017520154303009,0.0017520154303017,-0.0017520150156264,0.0017520150156281,-0.0017520154400026,0.0017520154400044,-0.0014257186210487,0.0014257186210508,-0.0014257190621854,0.0014257190621889,-2.2274025426166e-15,-4.2856191921652e-15,5.8648794243461e-09,-5.8648974225419e-09,-0.0016435200452921,0.0016435200452836,-0.0017520130646495,0.0017520169702022,-0.0017520173909866,0.0017520134854217,-0.0017520130646502,0.0017520169702014,-0.0017520173909872,0.0017520134854211,-0.0014257129371121,0.0014257244322034,-0.0014257247461511,0.0014257132510196,-0.0016376169311812,0.0016376130190169,-0.0016376169311823,0.0016376130190152,2.700250927631e-09,2.7002504455848e-09,-0.00092454391933079,0.00092454919492222,-3.1974160041892e-09,8.6363515832054e-09,-0.00099280793756225,0.00099280966015226,-0.00099280398618014,0.00099281361152878,-0.00099280793756229,0.00099280966015222,-0.00099280398618016,0.00099281361152851,-0.0010825018675007,0.0010825111278297,-0.001082501867501,0.0010825111278315,0.66499872835146,120135,2834,0.0068240614138809,0.0068240614138786,0.0038475511321101,17.544789858568,5.5558318868548e-05,5.5558318868548e-05,5.5558318868548e-05,2400491.1145025,0.017650095120135
19919200,0.99949883845187,0.018013714339245,0.0065232415765601,0.0065232415765578,0.0049672311861275,-0.0016470381013437,0.0016470381013449,5.4892440720675e-16,9.5650019134043e-16,-3.5128338618074e-16,1.5377765513937e-15,-0.0017550132240145,0.0017550132240147,-0.0017550137166788,0.0017550137166796,-0.0017550132141904,0.0017550132141921,-0.0017550137265,0.0017550137265018,-0.0014296607740117,0.0014296607740139,-0.0014296612530621,0.0014296612530654,-2.2494606922847e-15,-4.215198089805e-15,5.4308503218328e-09,-5.4308682824813e-09,-0.0016470381013479,0.0016470381013394,-0.0017550114072711,0.0017550150239477,-0.0017550155334264,0.0017550119167378,-0.0017550114072718,0.0017550150239469,-0.001755015533427,0.0017550119167372,-0.0014296555145941,0.0014296661591047,-0.0014296665125087,0.001429655867958,-0.0016413708589639,0.0016413672362066,-0.0016413708589649,0.001641367236205,2.2174267561681e-09,2.2174264279094e-09,-0.00092507375395367,0.00092507784984722,-3.2461803216327e-09,7.7177397813437e-09,-0.00099507438660856,0.0009950753490689,-0.00099507072481173,0.00099507901086015,-0.00099507438660855,0.00099507534906891,-0.0009950707248117,0.00099507901085993,-0.0010827294676837,0.0010827374356461,-0.0010827294676841,0.0010827374356478,0.65387745750128,120135,2834,0.0068386051150254,0.0068386051150231,0.003849773639826,18.680112884401,6.4640903075211e-05,6.4640903075211e-05,6.4640903075211e-05,2363282.880307,0.017681962455772
20419200,0.99955024779389,0.018014565758442,0.0065235533260595,0.0065235533260572,0.0049674591063257,-0.0016463227955788,0.00164632279558,5.6951201356362e-16,9.4679460548647e-16,-3.4804819089609e-16,1.5460115939364e-15,-0.0017547567344967,0.0017547567344969,-0.0017547569972762,0.0017547569972769,-0.0017547567220301,0.0017547567220318,-0.0017547570097398,0.0017547570097417,-0.0014284219047932,0.0014284219047954,-0.0014284222763912,0.0014284222763945,-2.2716364854176e-15,-4.2605319530484e-15,5.4102139907752e-09,-5.4102320152323e-09,-0.0016463227955831,0.0016463227955745,-0.0017547549054055,0.0017547585225586,-0.0017547588263716,0.0017547552092063,-0.0017547549054062,0.0017547585225577,-0.0017547588263722,0.0017547552092058,-0.0014284166509284,0.0014284272492952,-0.0014284275302852,0.0014284169318781,-0.0016403706416489,0.0016403670277709,-0.0016403706416499,0.0016403670277693,3.2883667343127e-09,3.2883663611649e-09,-0.00092356899189392,0.00092357577782625,-2.1885696233106e-09,8.7595757105438e-09,-0.00099324875782374,0.00099325207368493,-0.0009932450966459,0.00099325573485717,-0.00099324875782375,0.00099325207368492,-0.00099324509664589,0.00099325573485694,-0.00108186666104,0.0010818768629077,-0.0010818666610403,0.0010818768629094,0.67876338440951,120135,2834,0.0068356450515143,0.0068356450515119,0.0038435417916445,18.601988090647,6.4015904725174e-05,6.4015904725174e-05,6.4015904725174e-05,2363949.5731482,0.017669593757431
20919200,0.9995930103361,0.018015248840532,0.0065238040224636,0.0065238040224613,0.0049676407956066,-0.0016451229735381,0.0016451229735402,1.3798401997702e-15,1.8507669897506e-15,-4.7339730274324e-16,1.8892952245042e-15,-0.0017531364747636,0.0017531364747652,-0.0017531365035593,0.0017531365035608,-0.0017531364599889,0.0017531364599913,-0.0017531365183321,0.0017531365183347,-0.0014273770475739,0.0014273770475774,-0.0014273773068075,0.0014273773068105,-1.8531198590486e-15,-4.3402410299393e-15,5.5620657837817e-09,-5.5620822250589e-09,-0.0016451229735428,0.001645122973535,-0.0017531345783447,0.0017531383089559,-0.001753138399983,0.0017531346693625,-0.0017531345783466,0.0017531383089553,-0.001753138399984,0.0017531346693628,-0.0014273716316329,0.0014273825227147,-0.0014273827227816,0.0014273718316593,-0.0016394846826937,0.0016394809634007,-0.0016394846826953,0.0016394809633996,4.4127615454929e-09,4.4127610802369e-09,-0.00091919139648363,0.00091920099600871,-1.2465904240991e-09,1.0028761548643e-08,-0.00099042186081297,0.00099042751083489,-0.00099041808644894,0.00099043128519168,-0.00099042186081239,0.00099042751083443,-0.00099041808644927,0.00099043128519023,-0.0010773711121372,0.0010773837735417,-0.0010773711121395,0.0010773837735433,0.6550999741549,120135,2834,0.0068306662990824,0.0068306662990815,0.0038254057568438,17.279467840109,5.3435742720871e-05,5.3435742720871e-05,5.3435742720871e-05,2335696.1369989,0.017641008380387
21419200,0.99962733119157,0.018015798093015,0.0065240054978084,0.0065240054978061,0.0049677870974009,-0.0016402094244658,0.0016402094244671,6.3051015011242e-16,1.0832610247663e-15,-4.1957541755312e-16,1.669184301683e-15,-0.0017489601649154,0.0017489601649154,-0.0017489600491504,0.0017489600491511,-0.0017489601490254,0.0017489601490273,-0.0017489600650373,0.0017489600650394,-0.0014215467034723,0.0014215467034752,-0.0014215468943356,0.0014215468943394,-2.3064001292945e-15,-4.490878087088e-15,5.820540009832e-09,-5.8205581482932e-09,-0.0016402094244703,0.0016402094244614,-0.0017489581743236,0.0017489620830906,-0.0017489620397467,0.001748958130967,-0.0017489581743243,0.0017489620830898,-0.0017489620397475,0.0017489581309664,-0.0014215410278906,0.0014215524235395,-0.0014215525699471,0.0014215411742576,-0.0016342384358426,0.0016342345421709,-0.0016342384358436,0.0016342345421691,5.1104524097298e-09,5.110451962524e-09,-0.00091391346064026,0.00091392479841625,-8.2273005028671e-10,1.0982322237239e-08,-0.00098418127037745,0.00098418828020387,-0.00098417731770652,0.00098419223286889,-0.00098418127037746,0.0009841882802039,-0.0009841773177064,0.00098419223286867,-0.0010730650853703,0.0010730793804289,-0.0010730650853713,0.0010730793804313,0.656007178927,120135,2834,0.006810337477983,0.0068103374779809,0.0038035060304198,15.234642793151,3.7077142345206e-05,3.7077142345206e-05,3.7077142345206e-05,2351123.8216274,0.017577345829294
21919200,0.99965651432705,0.018016259244572,0.006524174756409,0.0065241747564067,0.0049679097317562,-0.0016382238778386,0.0016382238778399,5.8768792889012e-16,1.0450857204074e-15,-3.9198802503491e-16,1.6129507254625e-15,-0.0017470345242783,0.0017470345242785,-0.001747034559009,0.0017470345590098,-0.0017470345104591,0.0017470345104609,-0.0017470345728252,0.0017470345728272,-0.0014192193996427,0.001419219399645,-0.0014192196646174,0.001419219664621,-2.2674013206814e-15,-4.3731275482567e-15,5.9366132832193e-09,-5.9366314074304e-09,-0.001638223877843,0.0016382238778343,-0.0017470325099159,0.0017470364851411,-0.0017470365733757,0.0017470325981382,-0.0017470325099166,0.0017470364851403,-0.0017470365733763,0.0017470325981376,-0.0014192136220814,0.0014192252493597,-0.0014192254422081,0.0014192138148893,-0.0016323781751138,0.0016323742077393,-0.001632378175115,0.0016323742077376,4.4274701175093e-09,4.4274696655173e-09,-0.0009102874367186,0.00091029704959663,-1.5954419347705e-09,1.0422466767893e-08,-0.00098084539036786,0.00098085083076134,-0.00098084137037469,0.00098085485074892,-0.00098084539036788,0.00098085083076129,-0.0009808413703747,0.00098085485074863,-0.0010697468662361,0.0010697598020118,-0.0010697468662364,0.0010697598020137,0.64802892564084,120135,2834,0.0068021170532803,0.0068021170532779,0.0037884655342994,13.998045068965,2.7184360551722e-05,2.7184360551722e-05,2.7184360551722e-05,2342382.1934193,0.017545312099076
22419200,0.99968482252605,0.018016716471367,0.0065243422978096,0.0065243422978074,0.0049680318757498,-0.0016397328772232,0.0016397328772245,5.5245371115364e-16,1.0142631326046e-15,-3.4875405168547e-16,1.5687756043939e-15,-0.0017487889155125,0.0017487889155127,-0.0017487893443141,0.0017487893443148,-0.0017487889058305,0.0017487889058322,-0.001748789353993,0.0017487893539949,-0.0014203110925528,0.001420311092555,-0.0014203115467008,0.0014203115467042,-2.2583427738843e-15,-4.2726952992974e-15,5.7257574914745e-09,-5.7257756061253e-09,-0.0016397328772275,0.0016397328772189,-0.00174878700127,0.0017487908141574,-0.0017487912585608,0.0017487874456612,-0.0017487870012707,0.0017487908141566,-0.0017487912585614,0.0017487874456605,-0.0014203055453426,0.0014203167676245,-0.0014203170939404,0.0014203058716179,-0.001633865443181,0.0016338616237843,-0.001633865443182,0.0016338616237826,2.5655194966165e-09,2.5655190406249e-09,-0.00091124244788384,0.00091124739238873,-3.1922413449498e-09,8.3624092258314e-09,-0.00098152404034632,0.00098152556448706,-0.00098152018194169,0.00098152942288614,-0.00098152404034632,0.00098152556448707,-0.00098152018194172,0.00098152942288583,-0.0010710756883039,0.0010710845767071,-0.0010710756883043,0.0010710845767089,0.66209698745148,120135,2834,0.0068083632246585,0.0068083632246562,0.0037924243960668,14.848690503031,3.398952402425e-05,3.398952402425e-05,3.398952402425e-05,2337857.0696263,0.017562050726361
22919200,0.99971159606527,0.018017127128296,0.0065244931924258,0.0065244931924235,0.0049681407434465,-0.0016416632825143,0.0016416632825157,6.4550969188671e-16,1.105260352702e-15,-2.7781504235292e-16,1.6171858901988e-15,-0.0017504357658027,0.0017504357658031,-0.0017504361324429,0.0017504361324435,-0.0017504357549875,0.0017504357549894,-0.0017504361432552,0.001750436143257,-0.0014223141992342,0.0014223141992367,-0.0014223146214856,0.0014223146214896,-2.279165667171e-15,-4.2656230199463e-15,5.5774804044119e-09,-5.5774982166992e-09,-0.0016416632825187,0.0016416632825101,-0.001750433892896,0.0017504376127825,-0.0017504380053537,0.001750434285455,-0.0017504338928968,0.0017504376127817,-0.0017504380053544,0.0017504342854543,-0.0014223087908493,0.0014223197204288,-0.0014223200298997,0.0014223091002803,-0.001636073272654,0.0016360695502222,-0.0016360732726548,0.0016360695502204,2.8219176401156e-09,2.8219171860435e-09,-0.00091117737294632,0.00091118297907783,-2.8015733829739e-09,8.4663275113507e-09,-0.00098239450060236,0.000982396684079,-0.00098239073572804,0.00098240044894765,-0.00098239450060227,0.00098239668407902,-0.00098239073572794,0.00098240044894739,-0.0010708852819216,0.0010708946144267,-0.0010708852819222,0.0010708946144287,0.62916621668083,120135,2834,0.0068163441789379,0.0068163441789355,0.0037921717791565,15.35661416433,3.8052913314636e-05,3.8052913314636e-05,3.8052913314636e-05,2314546.0581452,0.017578038551211
23419200,0.99973660691532,0.018017517876467,0.0065246364963481,0.0065246364963459,0.0049682448837726,-0.0016409696670248,0.0016409696670262,6.0721674406293e-16,1.0502032111304e-15,-4.5775072191201e-16,1.7909452878508e-15,-0.0017506073048904,0.0017506073048907,-0.0017506076373997,0.0017506076374004,-0.0017506072935032,0.0017506072935052,-0.0017506076487837,0.0017506076487858,-0.0014206497337683,0.0014206497337707,-0.0014206501432002,0.0014206501432039,-2.1396993395363e-15,-4.4847816510873e-15,5.4792550324946e-09,-5.4792731507274e-09,-0.0016409696670293,0.0016409696670205,-0.0017506054604466,0.001750609118137,-0.0017506094818478,0.0017506058241451,-0.0017506054604474,0.0017506091181361,-0.0017506094818485,0.0017506058241444,-0.0014206444186725,0.0014206551543936,-0.001420655458325,0.0014206447225632,-0.0016349973416964,0.0016349936835855,-0.0016349973416978,0.0016349936835835,2.966418386727e-09,2.9664179492914e-09,-0.00091153416667251,0.0009115401387654,-2.5657925020246e-09,8.5104662168746e-09,-0.00098109706815983,0.00098109964401938,-0.00098109336621956,0.00098110334595413,-0.00098109706815983,0.00098109964401936,-0.00098109336621958,0.0009811033459539,-0.0010721637896119,0.0010721733603112,-0.0010721637896122,0.001072173360313,0.6404103070356,120135,2834,0.0068134854667074,0.006813485466705,0.003793643718843,15.705180866623,4.0841446932982e-05,4.0841446932982e-05,4.0841446932982e-05,2334763.8570018,0.017573713207822
23919200,0.99976125426918,0.018017931994785,0.0065247876917595,0.0065247876917572,0.0049683566112678,-0.0016444456994173,0.0016444456994186,5.2198405374546e-16,9.6455876868583e-16,-4.3475142452476e-16,1.6726547838975e-15,-0.0017537684417116,0.0017537684417117,-0.0017537689540432,0.0017537689540438,-0.0017537684318866,0.0017537684318885,-0.0017537689638654,0.0017537689638672,-0.0014242284034622,0.0014242284034643,-0.0014242288972047,0.0014242288972082,-2.0442316677728e-15,-4.2485369150768e-15,5.2693485014703e-09,-5.269365968222e-09,-0.0016444456994214,0.0016444456994132,-0.0017537666785936,0.001753770187985,-0.0017537707171651,0.0017537672077622,-0.0017537666785944,0.0017537701879841,-0.0017537707171657,0.0017537672077615,-0.0014242233027319,0.0014242336303033,-0.001424233997964,0.0014242236703532,-0.0016388066618443,0.0016388031465617,-0.0016388066618454,0.0016388031465596,2.1045653359044e-09,2.1045648994575e-09,-0.00091337576864338,0.00091337958582228,-3.1968642769669e-09,7.442920266632e-09,-0.00098374335923216,0.00098374419110514,-0.00098373980540445,0.00098374774492693,-0.00098374335923217,0.00098374419110525,-0.00098373980540456,0.0009837477449268,-0.0010738049157381,0.001073812540799,-0.0010738049157384,0.0010738125408008,0.6882783924742,120135,2834,0.0068278642312693,0.0068278642312669,0.0038012956567975,17.002473527124,5.1219788216991e-05,5.1219788216991e-05,5.1219788216991e-05,2310792.5901887,0.017610765403681
24419200,0.99978475883936,0.018018315372364,0.0065249279487314,0.0065249279487291,0.004968459474903,-0.001648443726423,0.0016484437264243,4.9474959162194e-16,1.1448473786396e-15,-4.7339730274324e-16,1.7828867105054e-15,-0.0017567483030606,0.0017567483030608,-0.0017567487373292,0.00175674873733,-0.0017567482917561,0.0017567482917579,-0.0017567487486306,0.0017567487486327,-0.0014290596521546,0.0014290596521568,-0.0014290601054062,0.00142906010541,-2.13834643969e-15,-4.4785682609388e-15,5.0823563720963e-09,-5.0823745014991e-09,-0.0016484437264274,0.0016484437264187,-0.0017567465917846,0.0017567499839825,-0.0017567504486094,0.0017567470563995,-0.0017567465917854,0.0017567499839815,-0.0017567504486101,0.0017567470563988,-0.0014290547257706,0.0014290646842741,-0.0014290650318199,0.0014290550732756,-0.0016434387276887,0.0016434353347418,-0.0016434387276901,0.0016434353347398,2.4272964259965e-09,2.4272957920444e-09,-0.00091368912930608,0.00091369377628716,-2.7057645440134e-09,7.5731820154281e-09,-0.00098661314397932,0.00098661480286818,-0.00098660970771105,0.00098661823913089,-0.0009866131439794,0.00098661480286809,-0.00098660970771112,0.00098661823913056,-0.0010732531219222,0.0010732613062152,-0.0010732531219223,0.0010732613062172,0.66831882385623,120135,2834,0.0068443892645749,0.0068443892645725,0.0038026280169551,17.880398257878,5.8243186063023e-05,5.8243186063023e-05,5.8243186063023e-05,2261402.5431079,0.017645761555524
24919200,0.99980652924022,0.018018652945938,0.0065250517560756,0.0065250517560733,0.0049685494337892,-0.0016483584283247,0.001648358428326,4.2716342103894e-16,1.0783199992407e-15,-4.2239886071063e-16,1.7045361628844e-15,-0.0017572635967517,0.0017572635967519,-0.0017572639518608,0.0017572639518615,-0.0017572635845221,0.0017572635845238,-0.0017572639640872,0.0017572639640893,-0.0014283905850856,0.0014283905850876,-0.0014283910024672,0.0014283910024706,-2.2580486652221e-15,-4.4859024808173e-15,5.0531204389307e-09,-5.0531385474095e-09,-0.001648358428329,0.0016483584283203,-0.0017572618883866,0.0017572652662412,-0.00175726566023,0.0017572622823632,-0.0017572618883874,0.0017572652662403,-0.0017572656602308,0.0017572622823626,-0.0014283856824184,0.0014283955815173,-0.0014283959051629,0.0014283860060237,-0.0016429613155499,0.0016429579402985,-0.001642961315551,0.0016429579402965,2.7935479072831e-09,2.7935472626958e-09,-0.00091367417022434,0.0009136797380168,-2.3219619512629e-09,7.9070787146481e-09,-0.00098579013465794,0.00098579261592394,-0.00098578671344418,0.00098579603713194,-0.00098579013465795,0.00098579261592396,-0.00098578671344437,0.00098579603713165,-0.0010739419749159,0.0010739509085425,-0.0010739419749158,0.0010739509085442,0.63528365693534,120135,2834,0.0068440403559087,0.0068440403559064,0.003802567662098,18.351207504151,6.2009660033207e-05,6.2009660033207e-05,6.2009660033207e-05,2269311.4414041,0.017644986460586
25419200,0.99982790977505,0.018019015972801,0.0065251840512488,0.0065251840512465,0.0049686478703057,-0.0016500305204074,0.0016500305204087,3.8334123036502e-16,1.1089073001138e-15,-3.2346070673274e-16,1.4781901364237e-15,-0.0017597512651837,0.0017597512651838,-0.0017597518250782,0.001759751825079,-0.0017597512547256,0.0017597512547272,-0.0017597518355333,0.0017597518355352,-0.001429160377886,0.0014291603778879,-0.0014291608973426,0.0014291608973462,-2.263813195002e-15,-4.1638223615041e-15,4.7753531165695e-09,-4.7753710315238e-09,-0.0016500305204117,0.0016500305204032,-0.0017597496620873,0.0017597528456384,-0.0017597534281787,0.0017597502446155,-0.001759749662088,0.0017597528456377,-0.0017597534281793,0.001759750244615,-0.0014291557579044,0.0014291651159558,-0.0014291655173531,0.0014291561592617,-0.0016442695516914,0.0016442663647274,-0.0016442695516923,0.0016442663647259,1.8119620881901e-09,1.8119613675887e-09,-0.00091671385152824,0.00091671696130955,-3.0017291415312e-09,6.6525957897109e-09,-0.00098716218756005,0.00098716272123553,-0.00098715896097455,0.00098716594781549,-0.00098716218756017,0.0009871627212354,-0.00098715896097466,0.00098716594781513,-0.0010778211371052,0.0010778278262433,-0.0010778211371053,0.0010778278262454,0.69486034656755,120135,2834,0.0068509719371795,0.0068509719371771,0.0038151684694834,19.917688943545,7.4541511548358e-05,7.4541511548358e-05,7.4541511548358e-05,2286524.5525353,0.017671912357449
25919200,0.99984781013963,0.018019350770438,0.0065253062112671,0.0065253062112648,0.0049687383479066,-0.0016546991171764,0.0016546991171776,4.0375237152455e-16,1.0837904203584e-15,-3.1993140278584e-16,1.4724844283762e-15,-0.0017630378159712,0.0017630378159713,-0.001763038236878,0.0017630382368789,-0.0017630378036926,0.0017630378036942,-0.0017630382491538,0.0017630382491556,-0.0014349162260433,0.0014349162260451,-0.0014349166731686,0.0014349166731721,-2.2592250998711e-15,-4.2455873268759e-15,4.7321337322528e-09,-4.7321517646148e-09,-0.0016546991171807,0.0016546991171721,-0.001763036214323,0.0017630393783118,-0.0017630398385305,0.0017630366745295,-0.0017630362143237,0.001763039378311,-0.0017630398385311,0.0017630366745289,-0.0014349116372728,0.0014349209073265,-0.0014349212619683,0.0014349119918742,-0.0016498841050401,0.0016498809438733,-0.0016498841050411,0.0016498809438717,2.4379748410869e-09,2.437974130652e-09,-0.00091704705224539,0.00091705174698692,-2.3561420351785e-09,7.2290914601731e-09,-0.00099068375786244,0.00099068567921007,-0.00099068055099787,0.0009906888860691,-0.00099068375786255,0.00099068567920995,-0.00099068055099797,0.00099068888606875,-0.0010769232601751,0.0010769312397662,-0.0010769232601752,0.0010769312397682,0.68893724079922,120135,2834,0.006870267607465,0.0068702676074627,0.0038165897440634,20.733151292274,8.1065210338193e-05,8.1065210338193e-05,8.1065210338193e-05,2226308.6242684,0.017712642914396
26419200,0.99986508692209,0.018019655545615,0.0065254171138647,0.0065254171138624,0.0049688213178882,-0.0016536093831856,0.0016536093831868,3.8963515573698e-16,1.0907902065197e-15,-3.5104809925095e-16,1.4962484082853e-15,-0.0017622696046649,0.001762269604665,-0.0017622698076574,0.0017622698076582,-0.001762269590285,0.0017622695902866,-0.0017622698220344,0.0017622698220362,-0.001433523597668,0.0014335235976698,-0.0014335239400651,0.0014335239400687,-2.2647543427212e-15,-4.2043068784064e-15,4.8757273772567e-09,-4.8757453746234e-09,-0.0016536093831898,0.0016536093831813,-0.0017622679397911,0.0017622712108707,-0.0017622714725354,0.0017622682014437,-0.0017622679397917,0.0017622712108699,-0.001762271472536,0.0017622682014431,-0.0014335188563782,0.0014335284033438,-0.0014335286813841,0.0014335191343782,-0.0016485212160761,0.0016485179552341,-0.0016485212160771,0.0016485179552326,3.4754621932172e-09,3.4754614993604e-09,-0.00091506565705701,0.00091507295293778,-1.4898854373957e-09,8.4036820407996e-09,-0.000988626008937,0.00098863009016149,-0.00098862269568929,0.00098863340340368,-0.0009886260089371,0.00098863009016139,-0.00098862269568938,0.00098863340340336,-0.0010754162153521,0.0010754264676754,-0.0010754162153521,0.0010754264676775,0.72144032824147,120135,2834,0.006865756259142,0.0068657562591397,0.0038083790064574,20.399371784149,7.8394974273188e-05,7.8394974273188e-05,7.8394974273188e-05,2225378.6497226,0.017695102938434
26919200,0.99988117071424,0.018019930528318,0.0065255173909161,0.0065255173909138,0.0049688957464878,-0.001656531491635,0.0016565314916361,3.3510740975748e-16,1.0956724103129e-15,-2.5846269237746e-16,1.3520763420547e-15,-0.0017646642169403,0.0017646642169404,-0.0017646646474511,0.001764664647452,-0.0017646642049267,0.0017646642049281,-0.001764664659462,0.0017646646594637,-0.0014368904626332,0.0014368904626349,-0.0014368909153738,0.0014368909153773,-2.3527516544637e-15,-4.058429096821e-15,4.8024440626259e-09,-4.8024620161775e-09,-0.0016565314916392,0.0016565314916307,-0.0017646625938008,0.0017646658031972,-0.0017646662705949,0.0017646630611863,-0.0017646625938014,0.0017646658031965,-0.0017646662705954,0.0017646630611858,-0.0014368858064827,0.0014368952149035,-0.0014368955715532,0.0014368861630924,-0.0016517027141625,0.0016516995066595,-0.0016517027141632,0.0016516995066581,2.4056575878765e-09,2.4056568363056e-09,-0.00091540926930717,0.00091541387509526,-2.4557483585458e-09,7.2683106493865e-09,-0.00099059827898387,0.00099060007989642,-0.00099059502628806,0.0009906033325867,-0.00099059827898399,0.00099060007989629,-0.00099059502628818,0.00099060333258633,-0.0010753814157054,0.0010753893729597,-0.0010753814157055,0.0010753893729617,0.6995623163892,120135,2834,0.0068778345031716,0.0068778345031693,0.0038098234234614,21.285749300716,8.5485994405729e-05,8.5485994405729e-05,8.5485994405729e-05,2193463.9368932,0.017721161424857
27419200,0.99989610105386,0.018020183744268,0.0065256097276073,0.006525609727605,0.0049689642890554,-0.0016574023686141,0.0016574023686152,2.0464080718734e-16,9.6791160743538e-16,-3.231665980705e-16,1.3187244197565e-15,-0.0017661465599298,0.0017661465599298,-0.0017661470060908,0.0017661470060915,-0.0017661465480145,0.0017661465480158,-0.0017661470180031,0.0017661470180047,-0.0014371066011341,0.0014371066011355,-0.0014371070623428,0.0014371070623463,-2.3806919773766e-15,-4.1217016353958e-15,4.7528618190067e-09,-4.7528800692102e-09,-0.0016574023686184,0.0016574023686098,-0.0017661449539552,0.0017661481299283,-0.0017661486120697,0.0017661454360843,-0.0017661449539558,0.0017661481299275,-0.0017661486120702,0.0017661454360837,-0.0014371019944457,0.0014371113057856,-0.0014371116690597,0.0014371023576793,-0.0016522273511041,0.0016522241767526,-0.0016522273511047,0.0016522241767512,2.3232165726595e-09,2.3232158149104e-09,-0.00091656829206667,0.00091657269532259,-2.4869727847694e-09,7.1365336038982e-09,-0.00099085941094757,0.00099086107113755,-0.00099085619198714,0.00099086429009261,-0.00099085941094777,0.00099086107113748,-0.00099085619198736,0.00099086429009234,-0.0010772565587858,0.0010772643103332,-0.0010772565587855,0.0010772643103352,0.6937334271432,120135,2834,0.006881443422935,0.0068814434229328,0.003814633408051,22.249554661411,9.3196437291287e-05,9.3196437291287e-05,9.3196437291287e-05,2200904.2247477,0.017733398608068
27919200,0.99990963370686,0.018020420257565,0.0065256958064058,0.0065256958064035,0.0049690286447559,-0.0016585955486139,0.001658595548615,3.3698970519583e-16,1.0586147188705e-15,-2.868147674175e-16,1.350017581419e-15,-0.0017675518356727,0.0017675518356728,-0.0017675522256789,0.0017675522256798,-0.0017675518231203,0.0017675518231218,-0.0017675522382285,0.0017675522382303,-0.0014379211264682,0.00143792112647,-0.0014379215603173,0.0014379215603206,-2.378515573276e-15,-4.1181708379283e-15,4.7518737610669e-09,-4.7518917914455e-09,-0.0016585955486181,0.0016585955486096,-0.0017675502253796,0.0017675534041308,-0.0017675538359761,0.0017675506572126,-0.0017675502253802,0.0017675534041301,-0.0017675538359767,0.0017675506572121,-0.0014379165171688,0.0014379258252512,-0.0014379261696457,0.0014379168615234,-0.0016534017141032,0.0016533985392237,-0.0016534017141041,0.0016533985392224,2.5826937652054e-09,2.5826930470885e-09,-0.00091721966516615,0.00091722472281845,-2.2347253772564e-09,7.3929150673337e-09,-0.00099134127748314,0.00099134350385676,-0.00099133805605167,0.00099134672528267,-0.00099134127748325,0.00099134350385661,-0.00099133805605179,0.0009913467252823,-0.0010782366022334,0.0010782448986375,-0.0010782366022336,0.0010782448986394,0.71478773355889,120135,2834,0.006886381383133,0.0068863813831307,0.0038173443685976,22.917557879791,9.8540463038328e-05,9.8540463038328e-05,9.8540463038328e-05,2196459.3305315,0.01774620785111
28419200,0.99992173711866,0.018020640658027,0.0065257758646942,0.0065257758646919,0.0049690889286404,-0.0016606253433055,0.0016606253433066,3.1551977285223e-16,1.0555559887832e-15,-2.8210902882164e-16,1.4064864445693e-15,-0.0017692108300456,0.0017692108300457,-0.0017692111929802,0.001769211192981,-0.0017692108172413,0.0017692108172428,-0.0017692112057816,0.0017692112057834,-0.0014401504114445,0.0014401504114461,-0.0014401508307323,0.0014401508307357,-2.3385756169437e-15,-4.1230557989902e-15,4.7746749683455e-09,-4.77469302924e-09,-0.0016606253433097,0.0016606253433012,-0.0017692092103426,0.0017692124055772,-0.0017692128126874,0.0017692096174405,-0.0017692092103432,0.0017692124055764,-0.001769212812688,0.00176920961744,-0.0014401457781218,0.0014401551303893,-0.001440155464084,0.0014401461117764,-0.0016557228943493,0.0016557197038434,-0.00165572289435,0.001655719703842,2.7124739949341e-09,2.7124732629508e-09,-0.00091721769620886,0.00091722307963924,-2.1313200785886e-09,7.5447382737997e-09,-0.00099246885853321,0.00099247134701168,-0.0009924656204791,0.00099247458506031,-0.00099246885853334,0.00099247134701156,-0.00099246562047922,0.00099247458505998,-0.0010779923248709,0.0010780009096532,-0.0010779923248709,0.0010780009096551,0.74447171706627,120135,2834,0.0068947715610847,0.0068947715610824,0.0038173543997112,23.440665987561,0.00010272532790048,0.00010272532790048,0.00010272532790048,2172257.0027871,0.017763299519762
28919200,0.99993252484654,0.018020828962581,0.0065258444306996,0.0065258444306973,0.0049691401011839,-0.0016627173320033,0.0016627173320046,4.0392883672189e-16,1.0958488755103e-15,-3.3498976629259e-16,1.5024246901923e-15,-0.0017708657883153,0.0017708657883155,-0.0017708661555389,0.0017708661555397,-0.0017708657756087,0.0017708657756102,-0.0017708661682427,0.0017708661682446,-0.0014426042304598,0.0014426042304617,-0.0014426046501994,0.0014426046502029,-2.2842243361615e-15,-4.2183898581075e-15,4.7958869309053e-09,-4.7959049913468e-09,-0.0016627173320076,0.0016627173319991,-0.0017708641622832,0.001770867371065,-0.0017708677815753,0.0017708645727813,-0.0017708641622839,0.0017708673710642,-0.0017708677815759,0.0017708645727808,-0.0014425995767624,0.0014426089708174,-0.001442609303926,0.0014425999098306,-0.001658036703942,0.0016580334995273,-0.0016580367039429,0.0016580334995258,2.6964608646691e-09,2.6964601790807e-09,-0.00091690962545222,0.00091691496789614,-2.1674448410847e-09,7.5502821005287e-09,-0.00099359966292239,0.00099360209685636,-0.00099359641109486,0.00099360534867836,-0.00099359966292248,0.00099360209685625,-0.00099359641109496,0.00099360534867802,-0.0010773719505451,0.0010773805162409,-0.0010773719505452,0.0010773805162429,0.71381036333499,120135,2834,0.0069034160120948,0.0069034160120925,0.0038160967930195,23.982914826188,0.00010706331860951,0.00010706331860951,0.00010706331860951,2144816.049903,0.017779619481424
29419200,0.99994222111802,0.018020982829737,0.0065259007219806,0.0065259007219783,0.0049691813857783,-0.0016629977361595,0.0016629977361609,2.9316751452191e-16,1.1079661523946e-15,-3.3551916188462e-16,1.3549586069446e-15,-0.0017719149616251,0.0017719149616259,-0.0017719153749565,0.0017719153749577,-0.0017719149494049,0.0017719149494073,-0.0017719153871749,0.0017719153871767,-0.0014420407066876,0.0014420407066883,-0.0014420411518285,0.0014420411518322,-2.0024682377346e-15,-3.8111329980545e-15,4.7753432508606e-09,-4.7753592994447e-09,-0.0016629977361634,0.001662997736156,-0.0017719133459288,0.0017719165385289,-0.001771916990657,0.0017719137980475,-0.0017719133459287,0.0017719165385293,-0.0017719169906575,0.0017719137980469,-0.0014420360762128,0.0014420454309804,-0.0014420457823324,0.0014420364275265,-0.0016579310181202,0.0016579278282296,-0.00165793101812,0.0016579278282289,2.4765982975433e-09,2.4765974928525e-09,-0.00091795062547569,0.00091795541457746,-2.3602265201319e-09,7.311547156813e-09,-0.00099331187273826,0.00099331385094045,-0.00099330863714996,0.00099331708652059,-0.00099331187273766,0.00099331385094038,-0.00099330863715047,0.00099331708652054,-0.001079276562752,0.0010792846519681,-0.0010792765627497,0.0010792846519701,0.64935522836699,120135,2834,0.006904585036377,0.006904585036375,0.0038204112393768,24.777340572447,0.00011341872457958,0.00011341872457958,0.00011341872457958,2158618.0844121,0.017786385204174
29919200,0.9999508248767,0.018021127368414,0.0065259533646403,0.006525953364638,0.0049692206391355,-0.0016617686852481,0.0016617686852494,3.805177872075e-16,1.2066690194427e-15,-4.1104626634813e-16,1.6644785630871e-15,-0.0017721924118547,0.0017721924118548,-0.0017721928022434,0.0017721928022443,-0.001772192399394,0.0017721923993957,-0.0017721928147009,0.001772192814703,-0.0014391245434328,0.0014391245434347,-0.0014391249823281,0.001439124982332,-2.1977563894627e-15,-4.3722210961688e-15,4.7712787291924e-09,-4.7712967940331e-09,-0.0016617686852524,0.0016617686852438,-0.0017721907956438,0.0017721939870729,-0.0017721944184584,0.0017721912270172,-0.0017721907956446,0.001772193987072,-0.0017721944184591,0.0017721912270166,-0.0014391199160601,0.001439129262298,-0.0014391296097302,0.0014391202634518,-0.0016560599983671,0.0016560568105852,-0.0016560599983683,0.0016560568105834,2.5780610721099e-09,2.5780602509113e-09,-0.00091994817753744,0.0009199532223791,-2.257588840047e-09,7.4083588717245e-09,-0.00099196199503361,0.00099196421117275,-0.00099195876113849,0.00099196744506236,-0.00099196199503375,0.0009919642111726,-0.00099195876113863,0.00099196744506197,-0.0010827885937871,0.0010827968920306,-0.0010827885937871,0.0010827968920327,0.68704427035858,120135,2834,0.0068995247375634,0.006899524737561,0.0038286757187762,25.464113959265,0.00011891291167412,0.00011891291167412,0.00011891291167412,2203450.1152771,0.017784486152101
30419200,0.99995840160662,0.018021242382846,0.0065259954741986,0.0065259954741963,0.0049692514344513,-0.0016654330202501,0.0016654330202526,1.2859607147829e-15,2.0898773321526e-15,-1.221139165625e-16,2.0009388726909e-15,-0.0017748324097528,0.0017748324097536,-0.0017748327982587,0.0017748327982605,-0.0017748323972456,0.0017748323972484,-0.0017748328107617,0.0017748328107649,-0.0014435119404264,0.0014435119404298,-0.001443512375203,0.001443512375209,-2.6143318986609e-15,-4.8509476248946e-15,4.7697428129203e-09,-4.769761857792e-09,-0.0016654330202555,0.0016654330202462,-0.0017748307938128,0.001774833984252,-0.0017748344142027,0.0017748312237517,-0.0017748307938132,0.0017748339842515,-0.0017748344142038,0.0017748312237507,-0.0014435073137968,0.0014435166570218,-0.0014435170018624,0.0014435076585958,-0.0016605472577725,0.0016605440710499,-0.0016605472577747,0.0016605440710503,2.5871997012612e-09,2.5871989029377e-09,-0.00092036732554137,0.00092037239468524,-2.2477508582579e-09,7.4156048905024e-09,-0.00099464952190526,0.00099465174900952,-0.0009946462886537,0.00099465498225642,-0.00099464952190489,0.0009946517490088,-0.00099464628865361,0.00099465498225537,-0.0010822990169943,0.0010823073348582,-0.0010822990169947,0.0010823073348622,0.62192904476936,120135,2834,0.0069146712035238,0.006914671203522,0.0038304399356602,26.129456747849,0.0001242356539828,0.0001242356539828,0.0001242356539828,2158435.0993724,0.01781712112584
30919200,0.9999651397389,0.018021354243401,0.0065260361799866,0.0065260361799843,0.0049692818834305,-0.001664635697929,0.00166463569793,1.5564230405798e-16,1.0317920088741e-15,-5.9762880167387e-17,8.9550205479163e-16,-0.0017755416988155,0.0017755416988155,-0.0017755421483828,0.0017755421483837,-0.0017755416868909,0.0017755416868918,-0.0017755421603051,0.0017755421603064,-0.0014411648160591,0.0014411648160601,-0.0014411652853816,0.0014411652853848,-2.540451802706e-15,-3.5943589448015e-15,4.6965817054847e-09,-4.6965993504225e-09,-0.001664635697933,0.0016646356979248,-0.0017755401113267,0.0017755432502194,-0.0017755437358758,0.001775540596971,-0.0017755401113271,0.0017755432502189,-0.0017755437358761,0.0017755405969707,-0.001441160265022,0.0014411694658342,-0.0014411698364466,0.0014411606355954,-0.0016590254894389,0.0016590223523564,-0.001659025489439,0.0016590223523558,2.2999432161424e-09,2.2999423445166e-09,-0.00092310880256808,0.00092311314859925,-2.4537494580979e-09,7.0569947446657e-09,-0.00099391768374492,0.00099391934450156,-0.00099391450249901,0.00099392252574196,-0.00099391768374508,0.00099391934450139,-0.00099391450249918,0.00099392252574156,-0.0010864818033909,0.0010864894674435,-0.0010864818033908,0.0010864894674457,0.67884297934591,120135,2834,0.0069113984277831,0.0069113984277807,0.0038417845164254,27.118126530873,0.00013214501224698,0.00013214501224698,0.00013214501224698,2206012.4844242,0.017821995384884
31419200,0.99997116791944,0.01802145532514,0.0065260729634866,0.0065260729634844,0.0049693093981695,-0.0016703672429878,0.0016703672429888,3.4422477828696e-16,9.5838248677877e-16,-1.2364328160615e-16,1.0760847734077e-15,-0.0017797875553491,0.0017797875553493,-0.0017797880713111,0.0017797880713119,-0.0017797875437586,0.0017797875437598,-0.0017797880828992,0.0017797880829006,-0.0014481127168914,0.0014481127168929,-0.0014481132116618,0.0014481132116649,-2.4827476831743e-15,-3.7735724497314e-15,4.5581627099097e-09,-4.5581805039424e-09,-0.0016703672429918,0.0016703672429835,-0.0017797860166518,0.0017797890610774,-0.0017797896100127,0.001779786565575,-0.0017797860166523,0.0017797890610768,-0.001779789610013,0.0017797865655746,-0.0014481083027061,0.0014481172332248,-0.0014481176258754,0.0014481086953173,-0.0016658190286286,0.0016658159846948,-0.001665819028629,0.0016658159846939,1.9711663437303e-09,1.9711657288283e-09,-0.00092470510010717,0.00092470862873598,-2.6395726476818e-09,6.5901795101454e-09,-0.00099874254288893,0.00099874357005568,-0.00099873945568769,0.00099874665725141,-0.000998742542889,0.0009987435700556,-0.00099873945568777,0.00099874665725108,-0.0010866656624462,0.0010866725483254,-0.0010866656624463,0.0010866725483273,0.68615598787306,120135,2834,0.0069350917651132,0.0069350917651109,0.0038484388326356,28.434828109506,0.00014267862487605,0.00014267862487605,0.00014267862487605,2144049.5093889,0.017877011209172
31919200,0.99997636037288,0.018021543605701,0.0065261050594295,0.0065261050594273,0.004969333486844,-0.001672139553122,0.0016721395531238,7.828584371533e-16,1.4006042713245e-15,1.8411202256291e-16,1.2731963988416e-15,-0.0017815139780949,0.0017815139780954,-0.0017815144007224,0.0017815144007237,-0.0017815139654611,0.0017815139654631,-0.0017815144133538,0.001781514413355,-0.0014499698257203,0.0014499698257225,-0.0014499702766841,0.0014499702766885,-2.3942797975722e-15,-3.6078259047187e-15,4.560895911579e-09,-4.5609128285012e-09,-0.0016721395531258,0.001672139553118,-0.0017815124308605,0.0017815154827315,-0.0017815159479615,0.0017815128960809,-0.0017815124308611,0.0017815154827306,-0.0017815159479624,0.0017815128960808,-0.0014499654030296,0.0014499743367254,-0.0014499746993994,0.0014499657656676,-0.0016675478922708,0.0016675448446294,-0.0016675478922709,0.0016675448446286,2.3981573266421e-09,2.398156715782e-09,-0.00092546683412263,0.00092547144073537,-2.2287377764401e-09,7.0164896439345e-09,-0.0009999214217088,0.00099992337899084,-0.00099991832752589,0.00099992647316826,-0.00099992142170916,0.00099992337899037,-0.00099991832752605,0.00099992647316796,-0.0010874379867957,0.0010874457719778,-0.0010874379867959,0.0010874457719807,0.6950189956963,120135,2834,0.0069424207949501,0.0069424207949462,0.0038516098584406,29.267834463453,0.00014934267570763,0.00014934267570763,0.00014934267570763,2132146.6776927,0.017895159826605
32419200,0.99998062415367,0.018021619651347,0.0065261326378781,0.0065261326378758,0.004969354375593,-0.001672520939087,0.001672520939088,3.5975371565328e-16,9.7738190635955e-16,-1.5605405618512e-16,1.1427297962715e-15,-0.0017818154075225,0.0017818154075227,-0.0017818156738248,0.0017818156738256,-0.0017818153934904,0.0017818153934916,-0.0017818156878544,0.0017818156878559,-0.0014503881925062,0.0014503881925077,-0.0014503885679242,0.0014503885679274,-2.473395027715e-15,-3.870600276039e-15,4.7048205396253e-09,-4.7048384321728e-09,-0.0016725209390911,0.0016725209390827,-0.0017818138020807,0.0017818169574236,-0.0017818172792709,0.0017818141239158,-0.0017818138020812,0.001781816957423,-0.0017818172792713,0.0017818141239154,-0.0014503836206065,0.0014503928334424,-0.0014503931398523,0.0014503839269768,-0.0016679573630789,0.001667954216886,-0.0016679573630793,0.001667954216885,3.1376969552508e-09,3.1376963432658e-09,-0.00092459103856879,0.00092459750186676,-1.6518245736045e-09,7.8956671955416e-09,-0.00099956156896566,0.00099956503814466,-0.00099955837163197,0.00099956823547285,-0.00099956156896573,0.00099956503814457,-0.00099955837163205,0.00099956823547253,-0.0010865834904297,0.0010865929243197,-0.0010865834904299,0.0010865929243217,0.72871754749688,120135,2834,0.0069439935973159,0.0069439935973136,0.0038479892580188,29.299038825043,0.00014959231060034,0.00014959231060034,0.00014959231060034,2120469.2784176,0.01789467746762
32919200,0.99998409793667,0.018021677245716,0.0065261536089604,0.0065261536089581,0.0049693700277975,-0.0016734633593138,0.0016734633593149,4.6369171688928e-16,1.0248510444453e-15,-9.5879423890591e-17,1.1469649610078e-15,-0.0017822250420322,0.0017822250420325,-0.0017822252793579,0.0017822252793586,-0.0017822250279837,0.0017822250279851,-0.0017822252934037,0.0017822252934052,-0.0014518065671455,0.0014518065671474,-0.0014518069262869,0.0014518069262902,-2.5366872118293e-15,-3.8248986620817e-15,4.8166459979448e-09,-4.8166638849378e-09,-0.0016734633593179,0.0016734633593095,-0.0017822233991747,0.0017822266291472,-0.0017822269222196,0.0017822236922351,-0.0017822233991754,0.0017822266291466,-0.0017822269222199,0.0017822236922347,-0.0014518018853941,0.0014518113172205,-0.0014518116080665,0.0014518021762005,-0.0016691552770805,0.0016691520562884,-0.001669155277081,0.0016691520562875,3.2961953003329e-09,3.2961947148082e-09,-0.00092300673446807,0.00092301358906526,-1.606232353184e-09,8.1664891661181e-09,-0.00099958734558893,0.00099959107204724,-0.0009995840730925,0.00099959434453826,-0.00099958734558892,0.0009995910720473,-0.00099958407309244,0.0009995943445379,-0.0010845929967604,0.0010846028372536,-0.0010845929967608,0.0010846028372557,0.67786406817173,120135,2834,0.0069478794700763,0.006947879470074,0.0038414365542768,29.174807073162,0.0001485984565853,0.0001485984565853,0.0001485984565853,2092871.7172315,0.017895922859546
33419200,0.9999869684748,0.018021727935473,0.0065261719875936,0.0065261719875913,0.0049693839602878,-0.001671754749304,0.0016717547493051,5.5004202012326e-16,9.0667818395679e-16,-2.7240344296769e-16,1.3843106514363e-15,-0.0017816456081052,0.0017816456081054,-0.0017816458922533,0.001781645892254,-0.0017816455948379,0.0017816455948395,-0.0017816459055177,0.0017816459055194,-0.0014489133546449,0.001448913354647,-0.0014489137396725,0.0014489137396756,-2.3506340720956e-15,-4.10687338894e-15,4.9420443231283e-09,-4.9420623229766e-09,-0.0016717547493082,0.0016717547492997,-0.0017816439291572,0.0017816472385762,-0.0017816475712055,0.0017816442617743,-0.0017816439291578,0.0017816472385755,-0.001781647571206,0.0017816442617738,-0.0014489085548565,0.001448918234251,-0.0014489185394899,0.0014489088600552,-0.0016668603119032,0.0016668570088671,-0.001666860311904,0.0016668570088657,3.0864793663166e-09,3.0864790152436e-09,-0.00092321784752782,0.00092322416684615,-1.9314200100456e-09,8.0854339283358e-09,-0.0009975154719518,0.00099751867324796,-0.00099751211963564,0.00099752202555864,-0.00099751547195178,0.00099751867324797,-0.00099751211963563,0.00099752202555841,-0.0010860264052998,0.0010860358855739,-0.0010860264053002,0.0010860358855756,0.72119040958826,120135,2834,0.0069408254179224,0.0069408254179201,0.0038422965274531,29.315883682232,0.00014972706945786,0.00014972706945786,0.00014972706945786,2123734.2691195,0.017882429909636
33919200,0.99998940748701,0.018021770562159,0.0065261874610774,0.0065261874610752,0.0049693956400063,-0.0016751674121855,0.0016751674121867,6.0262864893197e-16,8.1197519471516e-16,-2.2164028786488e-16,1.2901958795192e-15,-0.0017841581043884,0.0017841581043887,-0.0017841585104271,0.0017841585104278,-0.0017841580923272,0.0017841580923287,-0.0017841585224856,0.0017841585224871,-0.0014530512066414,0.0014530512066435,-0.0014530516485533,0.0014530516485562,-2.3973973493919e-15,-4.0008761675235e-15,4.8764984083784e-09,-4.8765163627651e-09,-0.0016751674121897,0.0016751674121813,-0.0017841564561707,0.0017841597152448,-0.0017841601586491,0.0017841568995628,-0.0017841564561712,0.0017841597152441,-0.0017841601586496,0.0017841568995624,-0.0014530464776887,0.0014530560311487,-0.0014530563775347,0.0014530468240348,-0.0016708755630561,0.0016708723060704,-0.0016708755630567,0.0016708723060692,2.5198161378299e-09,2.5198159351764e-09,-0.00092372120415104,0.00092372609818433,-2.4167857323659e-09,7.456876720487e-09,-0.0010001643661165,0.0010001663675264,-0.0010001610634743,0.0010001696701631,-0.0010001643661164,0.0010001663675264,-0.0010001610634742,0.0010001696701629,-0.0010857116795542,0.0010857199263961,-0.0010857116795547,0.0010857199263976,0.71426717313045,120135,2834,0.0069549301626703,0.006954930162668,0.0038444070606906,30.068558532843,0.00015574846826275,0.00015574846826275,0.00015574846826275,2083927.2015712,0.017913299390568
34419200,0.99999152613312,0.018021806840123,0.0065262006403969,0.0065262006403947,0.0049694055593316,-0.0016774740617845,0.0016774740617857,6.2715731136287e-16,8.4120959574193e-16,-2.0211147269207e-16,1.3336063180659e-15,-0.0017867105191413,0.0017867105191416,-0.0017867110536493,0.00178671105365,-0.0017867105082303,0.0017867105082319,-0.0017867110645575,0.0017867110645592,-0.0014551281228159,0.0014551281228181,-0.001455128628153,0.0014551286281559,-2.3871623679459e-15,-4.0214254018909e-15,4.7520856557491e-09,-4.7521035288154e-09,-0.0016774740617887,0.0016774740617803,-0.0017867089207779,0.0017867120907793,-0.0017867126520172,0.0017867094820037,-0.0017867089207784,0.0017867120907786,-0.0017867126520177,0.0017867094820032,-0.0014551235225486,0.0014551328345395,-0.0014551332284489,0.0014551239164187,-0.0016729986934982,0.0016729955215731,-0.001672998693499,0.0016729955215718,1.9093620373636e-09,1.9093618287774e-09,-0.00092588281132381,0.00092588617254836,-2.8872514547937e-09,6.7254147482226e-09,-0.0010020679518321,0.0010020687127489,-0.0010020647381719,0.0010020719264037,-0.0010020679518321,0.0010020687127489,-0.0010020647381718,0.0010020719264035,-0.0010881778472226,0.0010881847290522,-0.0010881778472231,0.0010881847290537,0.69956537219348,120135,2834,0.0069644751992496,0.0069644751992474,0.0038533778831567,31.477079689597,0.00016701663751677,0.00016701663751677,0.00016701663751677,2081079.7462485,0.017941861615618
34919200,0.99999339092883,0.018021839566296,0.0065262125090114,0.0065262125090091,0.0049694145482758,-0.0016809452047271,0.0016809452047279,3.8198833051871e-16,6.4580380054896e-16,-4.5528020914919e-16,1.1689054672109e-15,-0.0017905305002702,0.00179053050027,-0.0017905311721323,0.0017905311721323,-0.001790530490447,0.0017905304904483,-0.0017905311819521,0.0017905311819531,-0.0014582036150024,0.0014582036150035,-0.0014582041888066,0.0014582041888097,-2.4384549186408e-15,-4.1602081566583e-15,4.5443195307355e-09,-4.5443371137198e-09,-0.0016809452047309,0.0016809452047228,-0.0017905289790343,0.0017905320048254,-0.0017905326933705,0.0017905296675685,-0.0017905289790348,0.0017905320048249,-0.0017905326933708,0.001790529667568,-0.0014581992248315,0.0014582081317112,-0.0014582085790049,0.0014581996720874,-0.0016763112804472,0.0016763082489947,-0.0016763112804477,0.0016763082489934,1.2531250796585e-09,1.2531248268967e-09,-0.00092984276209025,0.00092984447789493,-3.3205980575455e-09,5.8642425414939e-09,-0.0010053617690504,0.0010053612433262,-0.0010053586998297,0.0010053643125411,-0.0010053617690502,0.0010053612433264,-0.0010053586998297,0.0010053643125409,-0.0010925067780042,0.0010925121435172,-0.0010925067780044,0.0010925121435189,0.71680101960876,120135,2834,0.0069788423620216,0.006978842362019,0.0038698072489206,33.569296094574,0.00018375436875659,0.00018375436875659,0.00018375436875659,2081812.0662327,0.017987834107797
35419200,0.99999500324439,0.018021866201686,0.0065262221969749,0.0065262221969727,0.0049694218077382,-0.0016862132979805,0.0016862132979817,5.9192309362639e-16,8.5591502885398e-16,-2.7187404737565e-16,1.3796637345729e-15,-0.0017954732378146,0.0017954732378149,-0.0017954739643326,0.0017954739643333,-0.0017954732279659,0.0017954732279675,-0.0017954739741785,0.0017954739741801,-0.001463733928405,0.0014637339284072,-0.0014637345271867,0.0014637345271898,-2.3131058067936e-15,-4.0625257088047e-15,4.3087079182464e-09,-4.3087258713418e-09,-0.0016862132979848,0.0016862132979763,-0.001795471795051,0.0017954746637326,-0.0017954754071004,0.0017954725384067,-0.0017954717950516,0.0017954746637319,-0.001795475407101,0.0017954725384062,-0.0014637297688381,0.001463738214137,-0.0014637386867827,0.0014637302414438,-0.0016817999207121,0.0016817970464613,-0.0016817999207129,0.00168179704646,9.6140784961274e-10,9.6140759201094e-10,-0.00093399436326576,0.00093399535910365,-3.3761196373607e-09,5.3359511567942e-09,-0.0010103366856928,0.0010103356882638,-0.001010333773939,0.0010103386000122,-0.0010103366856928,0.0010103356882639,-0.001010333773939,0.001010338600012,-0.001096335503145,0.0010963401030756,-0.0010963355031455,0.0010963401030772,0.67521868812164,120135,2834,0.0070006335903237,0.0070006335903214,0.0038870464834024,35.924768571546,0.00020259814857237,0.00020259814857237,0.00020259814857237,2059057.3707999,0.018049754062756
35919200,0.99999630750176,0.018021888631524,0.0065262303309393,0.006526230330937,0.0049694279696479,-0.0016877449462768,0.0016877449462779,5.5880645825805e-16,8.0597537800545e-16,-1.9193531297853e-16,1.2079630975566e-15,-0.0017979029505752,0.0017979029505755,-0.0017979035317046,0.0017979035317053,-0.0017979029388652,0.0017979029388667,-0.0017979035434119,0.0017979035434133,-0.0014643134632362,0.0014643134632383,-0.0014643139928508,0.0014643139928537,-2.408044082965e-15,-3.904770762485e-15,4.187209458128e-09,-4.1872273239214e-09,-0.001687744946281,0.0016877449462726,-0.0017979015345609,0.0017979043325286,-0.0017979049477231,0.0017979021497433,-0.0017979015345614,0.001797904332528,-0.0017979049477236,0.0017979021497428,-0.0014643094123135,0.0014643176154286,-0.0014643180438022,0.0014643098406474,-0.0016829060089036,0.0016829032120942,-0.0016829060089041,0.0016829032120931,1.6184514450773e-09,1.6184512043678e-09,-0.00093744848177053,0.00093745114343958,-2.6212979052623e-09,5.8649626612723e-09,-0.0010118266256237,0.0010118271403319,-0.0010118237859681,0.001011829979982,-0.0010118266256236,0.0010118271403319,-0.0010118237859681,0.0010118299799818,-0.0011006830948471,0.0011006889972885,-0.0011006830948476,0.0011006889972901,0.70236604920696,120135,2834,0.0070069854967727,0.0070069854967703,0.0039013696870392,37.533099498229,0.00021546479598583,0.00021546479598583,0.00021546479598583,2080972.1820739,0.018077263003279
36419200,0.99999726954483,0.018021904942553,0.0065262362505759,0.0065262362505736,0.0049694324414031,-0.0016890715828872,0.0016890715828883,6.4792138291709e-16,8.7973783049551e-16,-2.5087468889164e-16,1.3076659340563e-15,-0.0017986433984041,0.0017986433984043,-0.0017986436479972,0.0017986436479979,-0.0017986433833572,0.0017986433833587,-0.001798643663041,0.0017986436630424,-0.0014660417014256,0.0014660417014276,-0.001466042068795,0.0014660420687979,-2.4244553463181e-15,-4.0846340637405e-15,4.3619095552636e-09,-4.3619277821592e-09,-0.0016890715828914,0.0016890715828828,-0.0017986418998411,0.0017986448320711,-0.0017986451465642,0.0017986422143214,-0.0017986418998417,0.0017986448320706,-0.0017986451465648,0.001798642214321,-0.0014660374598877,0.0014660459986331,-0.0014660463103622,0.001466037771576,-0.0016846914958038,0.0016846885764792,-0.0016846914958047,0.0016846885764779,3.1562657658645e-09,3.1562655406072e-09,-0.00093653879609341,0.00093654533218405,-1.3026061662758e-09,7.5671910705485e-09,-0.0010123707902962,0.0010123745362911,-0.0010123678170033,0.0010123775095782,-0.001012370790296,0.001012374536291,-0.0010123678170033,0.001012377509578,-0.0010992664827404,0.0010992757346195,-0.001099266482741,0.0010992757346211,0.69281232387724,120135,2834,0.0070124636135069,0.0070124636135044,0.0038976194757411,37.488431385099,0.00021510745108079,0.00021510745108079,0.00021510745108079,2054022.753455,0.018084604093118
36919200,0.99999796264134,0.018021916245566,0.0065262403596701,0.0065262403596678,0.0049694355262277,-0.0016875845459849,0.001687584545986,5.718060611291e-16,8.0174021326917e-16,-2.8034437684819e-16,1.3340180701931e-15,-0.0017974204095084,0.0017974204095086,-0.0017974205393887,0.0017974205393893,-0.0017974203937085,0.00179742039371,-0.0017974205551858,0.0017974205551874,-0.0014641957216924,0.0014641957216946,-0.0014641960324369,0.0014641960324398,-2.3946327279668e-15,-4.1081273717714e-15,4.6206486612713e-09,-4.6206666994254e-09,-0.0016875845459891,0.0016875845459806,-0.0017974188192187,0.0017974219279322,-0.0017974221296827,0.0017974190209568,-0.0017974188192192,0.0017974219279316,-0.0017974221296832,0.0017974190209563,-0.001464191222098,0.0014642002665265,-0.0014642005320601,0.0014641914875916,-0.0016831124425454,0.001683109349306,-0.0016831124425462,0.0016831093493047,3.7379482867759e-09,3.7379480636348e-09,-0.0009347304164542,0.0009347384040919,-9.9048090327874e-10,8.4059825368299e-09,-0.0010102095503393,0.0010102143917289,-0.0010102064003231,0.0010102175417397,-0.0010102095503393,0.001010214391729,-0.001010206400323,0.0010102175417395,-0.0010978258665994,0.0010978365100212,-0.0010978258666,0.0010978365100228,0.66632585602392,120135,2834,0.0070063126246499,0.0070063126246476,0.0038901187868374,36.862865680329,0.00021010292544264,0.00021010292544264,0.00021010292544264,2057286.2411671,0.018064442148687
37419200,0.99999849750309,0.01802192506071,0.0065262435609806,0.0065262435609783,0.004969437938751,-0.0016882524464013,0.0016882524464021,4.9563191760866e-16,6.9474348194587e-16,-6.5303887364009e-16,1.2946663311852e-15,-0.0017986422606448,0.0017986422606445,-0.0017986426763264,0.0017986426763268,-0.0017986422481424,0.0017986422481428,-0.0017986426888266,0.0017986426888278,-0.0014642198895924,0.001464219889595,-0.0014642203408257,0.0014642203408285,-2.7626803078953e-15,-4.8000973860551e-15,4.6360037626095e-09,-4.636023404807e-09,-0.001688252446406,0.0016882524463963,-0.0017986406892423,0.0017986437906041,-0.0017986442477353,0.0017986411463572,-0.0017986406892431,0.0017986437906037,-0.0017986442477359,0.0017986411463574,-0.0014642153939924,0.0014642244751515,-0.0014642248364564,0.0014642157552541,-0.0016835645199599,0.001683561422397,-0.0016835645199585,0.0016835614223963,2.4399826565227e-09,2.43998246424e-09,-0.00093640594482019,0.00093641064874629,-2.2608518607573e-09,7.1342574457872e-09,-0.0010106382638394,0.0010106402665113,-0.0010106351200222,0.0010106434103251,-0.0010106382638389,0.0010106402665122,-0.0010106351200224,0.0010106434103246,-0.0011000921844566,0.0011001001059093,-0.001100092184459,0.001100100105913,0.67334137311636,120135,2834,0.0070090853024864,0.0070090853024844,0.0038970567802811,37.672421573686,0.00021657937258949,0.00021657937258949,0.00021657937258949,2070052.0558774,0.018077147117727
37919200,0.99999889201508,0.01802193135019,0.0065262458482909,0.0065262458482886,0.0049694396536101,-0.0016888576081339,0.0016888576081351,6.6139155964773e-16,8.6097369784453e-16,-3.608713285698e-16,1.5475997807125e-15,-0.0017990655587691,0.0017990655587694,-0.0017990658153599,0.0017990658153605,-0.001799065544738,0.0017990655447398,-0.001799065829388,0.0017990658293897,-0.0014648563489904,0.0014648563489928,-0.0014648567227149,0.001464856722718,-2.2668719250893e-15,-4.2730654626215e-15,4.7546465854951e-09,-4.7546646815187e-09,-0.0016888576081382,0.0016888576081296,-0.0017990639367151,0.0017990671252822,-0.0017990674374181,0.0017990642488388,-0.0017990639367158,0.0017990671252814,-0.0017990674374187,0.0017990642488382,-0.0014648517284273,0.001464861039084,-0.0014648613433073,0.0014648520326101,-0.0016843951370678,0.0016843919576808,-0.0016843951370688,0.0016843919576792,3.1731857625719e-09,3.173185569212e-09,-0.00093593315807985,0.00093593971308329,-1.666428539173e-09,7.9814568697976e-09,-0.0010106456289363,0.0010106491527565,-0.0010106423982214,0.001010652383466,-0.0010106456289363,0.0010106491527566,-0.0010106423982214,0.0010106523834658,-0.0010995005573729,0.0010995100990536,-0.0010995005573734,0.0010995100990551,0.65161954650909,120135,2834,0.0070115855589057,0.0070115855589034,0.0038951056543049,37.676437463062,0.0002166114997045,0.0002166114997045,0.0002166114997045,2058102.9673484,0.018080253320666
38419200,0.99999917724171,0.018021936187017,0.0065262476008038,0.0065262476008015,0.0049694409854115,-0.0016872931874242,0.0016872931874255,6.8492025262702e-16,8.849729646834e-16,-2.5134526275122e-16,1.5218358619002e-15,-0.0017979590333833,0.0017979590333833,-0.0017979591892922,0.0017979591892928,-0.0017979590185363,0.0017979590185381,-0.0017979592041361,0.0017979592041378,-0.00146272118726,0.0014627211872624,-0.0014627215160942,0.0014627215160972,-2.4004560794792e-15,-4.2605730823066e-15,4.9095905559022e-09,-4.9096084697725e-09,-0.0016872931874285,0.00168729318742,-0.0017979573537807,0.0017979606499419,-0.0017979608688989,0.0017979575727255,-0.0017979573537813,0.0017979606499412,-0.0017979608688995,0.001797957572725,-0.0014627164102672,0.0014627260231311,-0.0014627262931157,0.0014627166802119,-0.0016826800420651,0.0016826767579241,-0.0016826800420658,0.0016826767579226,3.6447807750857e-09,3.644780574573e-09,-0.00093488484055094,0.00093489257707244,-1.3610099579146e-09,8.6061236572369e-09,-0.0010086207585297,0.0010086252179004,-0.0010086174201101,0.0010086285563144,-0.0010086207585297,0.0010086252179004,-0.0010086174201101,0.0010086285563143,-0.0010989731635791,0.0010989837972896,-0.0010989731635797,0.0010989837972913,0.69258611841584,120135,2834,0.007005119722107,0.0070051197221047,0.0038907509785731,37.19891912863,0.00021279135302904,0.00021279135302904,0.00021279135302904,2070416.1516719,0.018062651713104
38880000,0.99999937641413,0.018021939611792,0.0065262488413797,0.0065262488413774,0.0049694419290348,-0.0016891541429375,0.0016891541429388,7.4691835862744e-16,8.1685739850837e-16,-3.8663524738212e-16,1.610656677897e-15,-0.0017989427263631,0.0017989427263635,-0.0017989429815157,0.0017989429815163,-0.0017989427130186,0.0017989427130205,-0.0017989429948572,0.001798942994859,-0.0014653223075774,0.00146532230758,-0.0014653226811781,0.0014653226811812,-2.2509312355959e-15,-4.3597228566579e-15,5.0287535485119e-09,-5.0287717236007e-09,-0.0016891541429419,0.0016891541429332,-0.0017989410179404,0.0017989443855256,-0.0017989446899427,0.0017989413223453,-0.0017989410179412,0.0017989443855248,-0.0017989446899433,0.0017989413223446,-0.0014653174221221,0.0014653272712663,-0.0014653275666628,0.001465317717478,-0.0016851229604669,0.0016851195995238,-0.001685122960468,0.0016851195995221,3.2272070275236e-09,3.2272069687188e-09,-0.00093395191307925,0.00093395858402524,-1.8789625939108e-09,8.3128997312518e-09,-0.0010097553777359,0.0010097588239552,-0.0010097519668643,0.0010097622348214,-0.0010097553777357,0.0010097588239553,-0.0010097519668641,0.0010097622348212,-0.0010972237466519,0.0010972335793886,-0.0010972237466526,0.00109723357939,0.70236787853534,120135,2834,0.0070128040650223,0.00701280406502,0.0038868979058455,37.193706593998,0.00021274965275198,0.00021274965275198,0.00021274965275198,2034597.8915171,0.01807438203134
