time,ASR_ext,ASR_strain,ASR_strain_xx,ASR_strain_yy,ASR_strain_zz,disp_x_101,disp_x_102,disp_x_103,disp_x_104,disp_x_105,disp_x_106,disp_x_p1_neg,disp_x_p1_pos,disp_x_p2_neg,disp_x_p2_pos,disp_x_p3_neg,disp_x_p3_pos,disp_x_p4_neg,disp_x_p4_pos,disp_x_p5_neg,disp_x_p5_pos,disp_x_p6_neg,disp_x_p6_pos,disp_y_101,disp_y_102,disp_y_103,disp_y_104,disp_y_105,disp_y_106,disp_y_p1_neg,disp_y_p1_pos,disp_y_p2_neg,disp_y_p2_pos,disp_y_p3_neg,disp_y_p3_pos,disp_y_p4_neg,disp_y_p4_pos,disp_y_p5_neg,disp_y_p5_pos,disp_y_p6_neg,disp_y_p6_pos,disp_y_p7_neg,disp_y_p7_pos,disp_y_p8_neg,disp_y_p8_pos,disp_z_101,disp_z_102,disp_z_103,disp_z_104,disp_z_105,disp_z_106,disp_z_p1_neg,disp_z_p1_pos,disp_z_p2_neg,disp_z_p2_pos,disp_z_p3_neg,disp_z_p3_pos,disp_z_p4_neg,disp_z_p4_pos,disp_z_p5_neg,disp_z_p5_pos,disp_z_p6_neg,disp_z_p6_pos,humidity,ndof,nelem,strain_xx,strain_yy,strain_zz,temp,thermal_strain_xx,thermal_strain_yy,thermal_strain_zz,vonmises,vstrain
2419200,0,0,0,0,0,0,0,0,0,0,0,0,0,0,0,0,0,0,0,0,0,0,0,0,0,0,0,0,0,0,0,0,0,0,0,0,0,0,0,0,0,0,0,0,0,0,0,0,0,0,0,0,0,0,0,0,0,0,0,0,0,0,0,0,0,0,0,0,0,0,0,0,0,0,0
2919200,0.076371513387021,0.0015588817057975,0.00051962723526583,0.00051962723526583,0.00051962723526583,-0.00016234233008112,0.00016233050538991,-4.4441674708125e-09,-4.4441672818036e-09,-3.6605421803882e-09,-5.1344931965073e-09,-0.00016228119118202,0.00016227197765639,-0.00016228213845572,0.00016227292493011,-0.00016228169022064,0.00016227147854027,-0.00016228262011559,0.00016227240843535,-0.00016453331217642,0.00016452351172717,-0.00016453414187329,0.00016452434142472,-4.4361907810197e-10,9.2966096937788e-10,-5.1344743681266e-10,9.7955495656259e-10,-0.00016904537230672,0.00016904584031706,-0.00016803807714518,0.00016803749495578,-0.0001680384559497,0.00016803896011297,-0.00016803849638924,0.00016803891829409,-0.0001680388751938,0.00016804038345079,-0.00016948311078806,0.00016948260596895,-0.00016948251039578,0.00016948489534619,-0.00016948302942785,0.00016948268873255,-0.00016948253794435,0.00016948486692103,-4.4566269368231e-09,-4.4566270815145e-09,-0.00016234234259332,0.00016233049287761,-3.6216442644155e-09,-5.2000013537367e-09,-0.00016228117766945,0.00016227198048805,-0.000162281728227,0.00016227145108503,-0.00016228212633408,0.00016227292915222,-0.00016228265686038,0.00016227237971792,-0.00016453417370538,0.00016452431148666,-0.00016453334690805,0.00016452348468959,0.81617708595724,122718,2924,0.0006761725708551,0.00070410786641049,0.00067617257085492,32.402102311036,0.00017441681848829,0.00017441681848829,0.00017441681848829,799593.11105913,0.0020585701961327
3419200,0.15585601692735,0.0031105195485585,0.0010288920103766,0.0010527355278062,0.0010288920103757,-0.00027829005382581,0.00027827935009901,-4.0815664224631e-09,-4.0816619535381e-09,-3.8311609687863e-09,-4.0502049103437e-09,-0.00028220631472935,0.0002821973256169,-0.00028220792598387,0.0002821989366691,-0.00028220638443524,0.00028219726143669,-0.00028220798439281,0.00028219886119118,-0.00028134660490193,0.00028133806000216,-0.00028134837321754,0.00028133982806904,-2.1515240822691e-10,-6.780457992545e-11,-1.7206792244308e-10,-1.1980940866951e-10,-0.00029929186086094,0.00029929157363859,-0.00029956545569607,0.0002995650757864,-0.00029956672193211,0.00029956640365148,-0.00029956669179463,0.00029956643614035,-0.00029956795798721,0.00029956776394341,-0.00029728927652522,0.00029728900792584,-0.00029729114579137,0.00029729096554649,-0.00029728933577175,0.00029728894649753,-0.00029729111216672,0.00029729100058295,-4.0654167732917e-09,-4.0655126135161e-09,-0.0002782900375614,0.000278279366363,-3.8628892533114e-09,-3.984154193105e-09,-0.00028220631155503,0.0002821973236531,-0.00028220635574911,0.00028219729544488,-0.00028220792291261,0.00028219893480703,-0.0002822079554177,0.00028219889491057,-0.00028134834069626,0.00028133986078942,-0.00028134657281026,0.00028133809315174,0.78776538270193,122718,2924,0.0011588488171929,0.0012462688753357,0.001158848817192,31.910922997479,0.00017048738397983,0.00017048738397983,0.00017048738397983,1261621.0612877,0.003570327462119
3919200,0.2431698641538,0.0047684937091613,0.0015526130689633,0.0016632675712356,0.0015526130689624,-0.00039891461963646,0.00039890646211454,-3.1273745974943e-09,-3.1274562575661e-09,-3.4345014326412e-09,-2.4765131880015e-09,-0.00040895330882859,0.00040894588347384,-0.00040895455950693,0.00040894713398437,-0.00040895298944067,0.00040894621412382,-0.00040895423491873,0.0004089474594326,-0.00040195342006414,0.00040194707837601,-0.00040195449545006,0.00040194815351077,1.4786490831384e-10,-8.4070275221094e-10,2.7941137198321e-10,-9.5948778776259e-10,-0.00045058329937993,0.00045058262132984,-0.00045648582328672,0.00045648588438566,-0.00045648725767509,0.00045648650337558,-0.0004564871757938,0.00045648658975191,-0.00045648861010629,0.00045648720865451,-0.00044097212010795,0.00044097234883731,-0.00044097429670624,0.00044097207524298,-0.00044097228755073,0.00044097217505441,-0.00044097422425003,0.00044097215188893,-3.0822524939142e-09,-3.0823344726683e-09,-0.00039891457431608,0.00039890650743454,-3.5033408592239e-09,-2.3106845401238e-09,-0.00040895330654503,0.0004089458904206,-0.0004089529035427,0.00040894629594839,-0.00040895455574459,0.00040894713945123,-0.00040895414990793,0.0004089475421444,-0.00040195441013553,0.00040194823775347,-0.00040195333177471,0.00040194715964374,0.77553102477399,122718,2924,0.0016607549191947,0.0018756585979376,0.0016607549191939,32.496230733668,0.00017516984586935,0.00017516984586935,0.00017516984586935,1835158.9878574,0.0052107034498374
4419200,0.3386742785636,0.006562349687592,0.0021051756430817,0.0023519984014293,0.002105175643081,-0.00052614382051478,0.00052613806270988,-2.0939654666287e-09,-2.094049327066e-09,-3.1162231800025e-09,-9.7500970124055e-10,-0.00054336622305744,0.00054336072246444,-0.00054336721636221,0.00054336171561512,-0.00054336550902673,0.0005433614518967,-0.0005433665032159,0.00054336244592987,-0.0005296565194738,0.0005296527639354,-0.00052965703258105,0.0005296532767866,3.8628387714565e-10,-1.7335082396014e-09,5.988099977362e-10,-1.9154395590186e-09,-0.00062262950478617,0.00062262818916443,-0.00063805982273414,0.00063806006216745,-0.00063806152226371,0.00063806008819728,-0.0006380613932201,0.00063806022456727,-0.00063806309269992,0.00063806025053544,-0.00060129206683325,0.00060129252685713,-0.00060129538794032,0.00060129090331209,-0.00060129233364664,0.00060129224906983,-0.00060129527851996,0.00060129102003353,-2.023840780955e-09,-2.0239251246468e-09,-0.00052614375021701,0.00052613813300733,-3.2196013873876e-09,-7.1928729751956e-10,-0.00054336622091366,0.00054336073516223,-0.00054336537549494,0.00054336157612693,-0.00054336721134471,0.00054336172543801,-0.00054336637130383,0.00054336257177983,-0.00052965690052188,0.00052965340633613,-0.00052965638124361,0.00052965288731426,0.77667598752434,122718,2924,0.0021898806546519,0.0025908995131243,0.0021898806546513,33.597824547542,0.00018398259638033,0.00018398259638033,0.00018398259638033,2398027.2763657,0.0069950277927659
4919200,0.44226249215847,0.008495788984771,0.0026865052628694,0.0031227784590327,0.0026865052628689,-0.00065945996956036,0.00065945586756888,-1.3705545677285e-09,-1.3706309390521e-09,-2.5802936560721e-09,-8.5711469720494e-11,-0.00068536591685485,0.00068536191188465,-0.00068536672205854,0.00068536271692661,-0.00068536507962779,0.00068536276056884,-0.00068536588785162,0.00068536356863028,-0.00066349964715053,0.00066349741019655,-0.00066350003491093,0.00066349779769707,4.115156865959e-10,-2.0327256706849e-09,6.7368230123284e-10,-2.2554159358855e-09,-0.00081717421837607,0.00081717263677576,-0.0008462956128027,0.00084629582892254,-0.00084629726236641,0.00084629553615272,-0.00084629710110905,0.00084629570307727,-0.0008462987506169,0.00084629541023715,-0.00077941453434662,0.00077941503252887,-0.000779418059158,0.00077941279149052,-0.00077941486923662,0.00077941468646835,-0.00077941792500176,0.00077941293331933,-1.3037094662343e-09,-1.3037863194063e-09,-0.00065945990274667,0.00065945593438235,-2.7264408251337e-09,2.0796987778983e-10,-0.00068536593025442,0.0006853619085944,-0.00068536493872911,0.00068536289308241,-0.00068536673208781,0.00068536271026494,-0.00068536574859772,0.00068536370278859,-0.00066349989246835,0.00066349793718036,-0.0006634994965676,0.00066349754153981,0.77771912205531,122718,2924,0.0027440442099029,0.0033990429874928,0.0027440442099025,35.342236740654,0.00019793789392523,0.00019793789392523,0.00019793789392523,2908187.6512317,0.0089267718015082
5419200,0.54314840486624,0.010347675659734,0.0032278740794548,0.0038919275008242,0.0032278740794545,-0.00077957162147698,0.00077956972606507,-4.0878650534551e-10,-4.0887002522482e-10,-1.9412538991178e-09,1.0606314518195e-09,-0.00081596270344401,0.00081596062208985,-0.00081596332873908,0.00081596124724056,-0.00081596169703938,0.00081596164118998,-0.00081596232804008,0.00081596227204575,-0.00078290696686993,0.00078290689685476,-0.00078290712008407,0.00078290704981577,5.5391532500234e-10,-2.3731204622106e-09,9.0075427628105e-10,-2.671179535387e-09,-0.001011049612551,0.0010110478417654,-0.0010569504870631,0.0010569508983713,-0.0010569522475431,0.0010569502830948,-0.0010569520326808,0.0010569505042082,-0.0010569537931212,0.0010569498888786,-0.00095296638569954,0.00095296716228478,-0.00095297055345779,0.00095296430655012,-0.0009529668308245,0.00095296670550916,-0.00095297037262062,0.00095296449544953,-3.3927144832286e-10,-3.3935551145194e-10,-0.00077957155228301,0.00077956979525889,-2.1594222108396e-09,1.4336791410331e-09,-0.00081596274173104,0.00081596059679527,-0.00081596152764304,0.00081596179950231,-0.00081596336308584,0.00081596121800462,-0.00081596216067442,0.00081596243238867,-0.00078290694939854,0.0007829072172024,-0.0007829067866051,0.00078290705466254,0.769982456359,122718,2924,0.0032431001749872,0.0042037381028717,0.0032431001749869,36.272177902067,0.00020537742321654,0.00020537742321654,0.00020537742321654,3314868.5775604,0.010747339704589
5919200,0.63446969239653,0.011908878861269,0.0036695438472274,0.0045697911668147,0.0036695438472271,-0.00087315370584411,0.00087315402962557,5.2063847622693e-10,5.2056101221369e-10,-1.3261765663173e-09,2.332125001535e-09,-0.00092208478837995,0.00092208456231226,-0.00092208524661543,0.00092208502039603,-0.00092208356391507,0.00092208580278986,-0.00092208403081408,0.00092208626953677,-0.00087220808836202,0.00087221010488479,-0.00087220817330067,0.00087221018956274,7.0183562634455e-10,-2.8495573365676e-09,1.1575619495711e-09,-3.2441282560498e-09,-0.0011828942802691,0.0011828921921899,-0.0012499285793043,0.0012499291699031,-0.001249930402342,0.0012499280561077,-0.0012499301190987,0.0012499283470468,-0.0012499319420874,0.0012499272331892,-0.0010998046568815,0.0010998057195518,-0.0010998094338499,0.0010998018476979,-0.0010998052411855,0.0010998051211691,-0.001099809193587,0.0010998020976905,6.0192941360746e-10,6.0185164818029e-10,-0.00087315362493311,0.00087315411053644,-1.6273334813439e-09,2.8156368904279e-09,-0.00092208485033651,0.00092208451736315,-0.00092208334915499,0.00092208600314803,-0.00092208530361204,0.00092208497048614,-0.00092208381840714,0.00092208647224812,-0.00087220795773853,0.00087221040104341,-0.00087220786155427,0.00087221030511984,0.72322607096974,122718,2924,0.0036318087564748,0.0049164370536697,0.0036318087564746,36.778668907274,0.00020942935125819,0.00020942935125819,0.00020942935125819,3632435.9840246,0.012254635315119
6419200,0.71168858804072,0.013190083543142,0.004024203241533,0.0051416770600765,0.0040242032415328,-0.00094358305856983,0.0009435856723465,1.4839384576767e-09,1.4838597681348e-09,-1.156602509159e-09,4.0756381481404e-09,-0.0010037065527453,0.0010037079945515,-0.0010037068447819,0.0010037082864618,-0.0010037048171466,0.0010037097643364,-0.0010037051184284,0.001003710065485,-0.00093881093309538,0.00093881544697212,-0.00093881095980626,0.00093881547342737,1.1067390875276e-09,-3.9807482398738e-09,1.8769551730726e-09,-4.6640777432147e-09,-0.0013270986977607,0.0013270959067889,-0.0014166473848959,0.0014166485039652,-0.0014166496935411,0.0014166464522449,-0.0014166492147667,0.0014166469481943,-0.0014166515231801,0.0014166448962641,-0.0012191219634019,0.001219123910397,-0.0012191287156406,0.0012191178187354,-0.0012191229464416,0.0012191229017419,-0.0012191282972363,0.0012191182546593,1.6222465343698e-09,1.6221669598798e-09,-0.00094358292039904,0.00094358581051718,-1.6824835466061e-09,4.911183019014e-09,-0.0010037066641614,0.0010037079125546,-0.0010037044435957,0.0010037101129384,-0.00100370694826,0.0010037081965258,-0.0010037047483444,0.0010037104175535,-0.00093881058909804,0.00093881583828317,-0.00093881054724827,0.0009388157966902,0.70960752230946,122718,2924,0.0039242979331936,0.0055141024188945,0.0039242979331934,36.741535389415,0.00020913228311532,0.00020913228311532,0.00020913228311532,3867590.0720952,0.013452529731344
6919200,0.78114926405216,0.014377730926228,0.0043519941902116,0.0056737425458054,0.0043519941902114,-0.0010087988502912,0.0010088005469138,1.1793997501546e-09,1.179320874651e-09,-1.4690718336856e-09,3.776071381376e-09,-0.0010794604398735,0.0010794612513217,-0.0010794608010351,0.001079461612354,-0.0010794586954842,0.0010794630266122,-0.001079459064667,0.0010794633956596,-0.0010026463287561,0.0010026501815731,-0.0010026464429377,0.0010026502954968,1.0094386628712e-09,-4.0828421706801e-09,1.8476779409425e-09,-4.8320400459052e-09,-0.001468767535095,0.001468764547044,-0.0015787170320824,0.001578717997332,-0.0015787194024213,0.0015787159221025,-0.0015787188805716,0.0015787164637644,-0.0015787212506931,0.0015787143883369,-0.0013386168116901,0.001338618698604,-0.0013386237363958,0.0013386125035624,-0.0013386178837681,0.001338617595035,-0.0013386232766813,0.0013386129848883,1.3349212610424e-09,1.3348415226015e-09,-0.0010087986949126,0.0010088007022923,-2.0367700728371e-09,4.6951406557512e-09,-0.0010794605533047,0.0010794611649825,-0.0010794582890102,0.0010794634120287,-0.001079460905648,0.0010794615171953,-0.0010794586609762,0.0010794637838589,-0.00100264603437,0.0010026506982267,-0.0010026459045252,0.001002650568641,0.73388447461926,122718,2924,0.0041951003322911,0.0061008909853058,0.004195100332291,38.622910646546,0.00022418328517236,0.00022418328517236,0.00022418328517236,3944370.0497096,0.014596796811903
7419200,0.84095225370054,0.015332687947861,0.0046110992627913,0.0061104894222783,0.0046110992627913,-0.0010548367873477,0.0010548382300522,1.0913889497579e-09,1.0913100578708e-09,-1.5493270637559e-09,3.6609164925729e-09,-0.001138381014379,0.0011383816457191,-0.0011383814050397,0.0011383820362499,-0.0011383792788185,0.0011383834096496,-0.001138379676659,0.0011383838073544,-0.0010450797008344,0.001045083353143,-0.001045079832716,0.0010450834847652,9.6990323653366e-10,-4.0849003858031e-09,1.8381959902566e-09,-4.8640739004694e-09,-0.0015912915568309,0.0015912885277109,-0.0017207778983706,0.0017207788161646,-0.0017207803278701,0.0017207767875061,-0.0017207797856115,0.0017207773493744,-0.0017207822148982,0.0017207753205216,-0.0014388055956199,0.0014388074772233,-0.0014388125969889,0.0014388013128143,-0.0014388067079421,0.0014388063314033,-0.0014388121183501,0.0014388018145688,1.2442979697975e-09,1.2442183228014e-09,-0.0010548366347561,0.0010548383826438,-2.1464861229106e-09,4.6072949922785e-09,-0.0011383811388745,0.0011383815464525,-0.001138378868674,0.0011383838014973,-0.0011383815204279,0.0011383819278749,-0.0011383792686891,0.0011383842013764,-0.001045079417615,0.0010450838943693,-0.0010450792701909,0.0010450837472055,0.68603447942911,122718,2924,0.0043863091214971,0.0066080673969538,0.0043863091214971,40.761372331909,0.00024129097865527,0.00024129097865527,0.00024129097865527,3916411.7114655,0.015499851908352
7919200,0.88585029722088,0.016027696722366,0.0047981445155664,0.0064314076912334,0.0047981445155665,-0.0010801831547612,0.0010801877591777,2.323785563777e-09,2.323706736327e-09,-6.3993303062305e-10,5.1947651259618e-09,-0.0011725693326779,0.0011725725410108,-0.0011725694908987,0.0011725726991017,-0.00117256738751,0.0011725745162298,-0.0011725675568839,0.0011725746854682,-0.0010672940635431,0.0010673005024852,-0.0010672941229238,0.0010673005616064,1.1250652795574e-09,-4.5168551709986e-09,2.0478564056866e-09,-5.3413142959853e-09,-0.0016773572676176,0.0016773539706526,-0.0018252866416864,0.0018252877450327,-0.0018252890863189,0.0018252852478878,-0.0018252885111207,0.0018252858441719,-0.001825290955547,0.0018252833468381,-0.0015048904287129,0.0015048925122284,-0.0015048979995717,0.0015048855790206,-0.0015048916082076,0.0015048912964694,-0.0015048974943791,0.0015048861092616,2.4855997480585e-09,2.4855201038353e-09,-0.0010801829934945,0.0010801879204445,-1.2709694356973e-09,6.1966447368423e-09,-0.0011725694668156,0.0011725724355839,-0.0011725669525357,0.0011725749300724,-0.001172569615094,0.0011725725837313,-0.0011725671242725,0.0011725751016733,-0.0010672936835263,0.0010673009952274,-0.0010672936070531,0.0010673009190147,0.66517730491274,122718,2924,0.0044916378484252,0.0069641829853788,0.0044916378484253,40.955902190657,0.00024284721752525,0.00024284721752525,0.00024284721752525,3906086.7380634,0.016075628060066
8419200,0.91926542509872,0.01653632191856,0.0049354889892796,0.0066653439400009,0.0049354889892797,-0.0010950056166539,0.0010950104416561,2.433049460487e-09,2.4329704701882e-09,-7.2921814680897e-10,5.5079288396724e-09,-0.0011954006098905,0.0011954039505824,-0.0011954007591251,0.0011954040996869,-0.0011953985338829,0.0011954060608982,-0.0011953986935985,0.0011954062204783,-0.0010797051270785,0.0010797119156824,-0.001079705209708,0.0010797119980519,1.226996909969e-09,-4.8079412568714e-09,2.2287107428872e-09,-5.7050173564006e-09,-0.0017444293155566,0.001744425835513,-0.0019066974405267,0.0019066986722946,-0.0019067000320569,0.0019066959626311,-0.001906699407755,0.0019066966104518,-0.0019067019990819,0.0019066939006016,-0.0015562699972477,0.0015562723023594,-0.0015562780941716,0.0015562648254233,-0.0015562712768076,0.0015562709829098,-0.0015562775444487,0.0015562654027583,2.6047007709974e-09,2.6046213602818e-09,-0.0010950054456861,0.0010950106126239,-1.4201101857851e-09,6.5937544711285e-09,-0.0011954007608314,0.0011954038307397,-0.0011953980649386,0.0011954065070954,-0.0011954008993458,0.0011954039691232,-0.0011953982270227,0.0011954066690438,-0.0010797047362379,0.0010797124656928,-0.001079704635497,0.0010797123652122,0.65392244500965,122718,2924,0.0045532930268593,0.0072415983701273,0.0045532930268594,41.431986081741,0.00024665588865393,0.00024665588865393,0.00024665588865393,3826003.3464515,0.016482928260713
8919200,0.94361925259488,0.01689237117683,0.005031649454261,0.0068290722683076,0.0050316494542612,-0.0011016816272468,0.0011016869060985,2.6238618489246e-09,2.6237828357771e-09,-6.935312437473e-10,5.8578435843701e-09,-0.0012090549422072,0.0012090586164328,-0.0012090550640886,0.0012090587381842,-0.0012090527636169,0.0012090608322973,-0.0012090528956264,0.0012090609641714,-0.0010842356514809,0.0010842429369267,-0.0010842357404186,0.0010842430256041,1.3100924991028e-09,-5.0305514132251e-09,2.3978296857137e-09,-6.0089694766954e-09,-0.0017942341171557,0.0017942305021208,-0.0019677389798087,0.0019677403372719,-0.0019677416849709,0.0019677374269764,-0.0019677410066177,0.0019677381314225,-0.0019677437115776,0.0019677352209411,-0.0015936787175036,0.0015936812501927,-0.0015936872585714,0.0015936732890004,-0.0015936801068928,0.0015936798173582,-0.0015936866582827,0.0015936739194279,2.8042064655313e-09,2.8041271415374e-09,-0.0011016814476779,0.0011016870856675,-1.4542963784204e-09,7.0351128506628e-09,-0.0012090551134803,0.0012090584780973,-0.0012090522591686,0.001209061312918,-0.0012090552239528,0.0012090585884391,-0.0012090523934763,0.0012090614470903,-0.001084235231202,0.0010842435289959,-0.0010842351234522,0.0010842434215065,0.62734198996608,122718,2924,0.004581138342516,0.0074475282458243,0.0045811383425163,41.891014352336,0.00025032811481869,0.00025032811481869,0.00025032811481869,3721791.4600011,0.016748941950068
9419200,0.96028712441351,0.017132034861025,0.0050967434710253,0.0069385479189739,0.0050967434710255,-0.0011017531956616,0.0011017611489636,3.6745104636247e-09,3.6744312399014e-09,2.5196544968729e-12,7.266437721139e-09,-0.0012134153314447,0.0012134211668978,-0.0012134152556218,0.0012134210909449,-0.0012134129170622,0.0012134236233635,-0.001213412854209,0.0012134235603749,-0.00108283857888,0.0010828483003634,-0.001082838640399,0.0010828483616217,1.4975686230124e-09,-5.5225527690979e-09,2.6990494167754e-09,-6.6043654204639e-09,-0.0018255341315622,0.0018255302217485,-0.0020080822527794,0.0020080838625919,-0.0020080850341379,0.0020080804125897,-0.002008084285514,0.0020080811909202,-0.0020080870666717,0.0020080777407334,-0.0016153361258571,0.0016153390110299,-0.0016153454355542,0.0016153300664145,-0.0016153376585055,0.0016153374304749,-0.0016153447719208,0.0016153307633207,3.8698160723489e-09,3.8697370131023e-09,-0.0011017530012246,0.0011017613434007,-8.4378948122231e-10,8.5643701811474e-09,-0.0012134155268216,0.0012134210093312,-0.0012134123612342,0.001213424151319,-0.0012134154384532,0.0012134209208323,-0.0012134123009878,0.0012134240909376,-0.0010828380812141,0.0010828489145583,-0.0010828379992633,0.0010828488328674,0.61542000788681,122718,2924,0.004581555770634,0.0075769296811157,0.0045815557706343,41.151732346803,0.00024441385877442,0.00024441385877442,0.00024441385877442,3647734.1990961,0.016881395970498
9919200,0.97149731543503,0.017292677489362,0.0051407146284248,0.0070112482325118,0.005140714628425,-0.0010986231612318,0.0010986327288693,4.3189767155312e-09,4.3188975890218e-09,2.5385362032115e-10,8.3193964873245e-09,-0.0012138615636791,0.0012138685986177,-0.0012138613760296,0.0012138684108383,-0.001213858888997,0.0012138713244054,-0.0012138587144756,0.0012138711497488,-0.0010786687737981,0.0010786801060436,-0.0010786688321609,0.0010786801641458,1.7264733180723e-09,-6.075730862828e-09,3.1071120058022e-09,-7.3250577669839e-09,-0.0018466651354822,0.0018466609121759,-0.002035211996338,0.0020352139358923,-0.0020352150064997,0.0020352099603034,-0.0020352141461411,0.0020352108561311,-0.0020352171561024,0.0020352068803579,-0.0016299441065387,0.0016299475240448,-0.0016299544477844,0.0016299373985899,-0.0016299458664854,0.0016299457093618,-0.0016299536804125,0.0016299382040351,4.5364892216183e-09,4.536410080399e-09,-0.0010986229445815,0.0010986329455196,-7.3364491859251e-10,9.8104934901912e-09,-0.0012138617983446,0.0012138684079073,-0.0012138582527327,0.0012138719278789,-0.0012138615965833,0.0012138682060155,-0.001213858081158,0.0012138717561692,-0.0010786681942767,0.0010786807952884,-0.0010786681137499,0.0010786807150218,0.61191532660462,122718,2924,0.0045686708067018,0.0076642656191068,0.0045686708067021,39.82913679725,0.000233833094378,0.000233833094378,0.000233833094378,3572584.4311896,0.01694402575198
10419200,0.9790297509779,0.017402429064975,0.005171017053412,0.0070603949581507,0.0051710170534123,-0.0010938570535995,0.001093867759558,4.7704424088141e-09,4.77036325914e-09,5.2731906171132e-10,8.9585435199978e-09,-0.0012120070803305,0.0012120150197183,-0.0012120068125476,0.0012120147518075,-0.0012120042852169,0.0012120178686847,-0.0012120040312412,0.0012120176145759,-0.0010732504123383,0.0010732628098107,-0.0010732504729999,0.0010732628702137,1.833525788281e-09,-6.3207762655062e-09,3.3086181336342e-09,-7.6597606715694e-09,-0.0018606078275659,0.0018606034707535,-0.0020530504637526,0.0020530525727836,-0.0020530535485623,0.0020530483095237,-0.0020530526287992,0.0020530492675414,-0.002053055713408,0.0020530450040977,-0.0016395424796631,0.0016395461704863,-0.0016395532944691,0.0016395354691203,-0.0016395443600097,0.0016395442319297,-0.0016395524711936,0.0016395363329601,4.9969382015636e-09,4.9968590489118e-09,-0.0010938568279792,0.0010938679851793,-5.3870014755086e-10,1.0549972278504e-08,-0.0012120073382005,0.0012120148081798,-0.0012120036095,0.0012120185099232,-0.0012120070555903,0.0012120145254394,-0.0012120033585054,0.0012120182587927,-0.0010732497960662,0.0010732635402906,-0.0010732497125815,0.0010732634570714,0.62047456210115,122718,2924,0.0045489799916882,0.0077218746231152,0.0045489799916904,38.101303554539,0.00022001042843631,0.00022001042843631,0.00022001042843631,3505823.5766332,0.016962579486794
10919200,0.98455245173065,0.017480085292246,0.0051924468438589,0.0070951916045276,0.0051924468438592,-0.0010915773815639,0.0010915850974986,3.6175773443667e-09,3.6174981412738e-09,-5.1988869899792e-10,7.7061644846706e-09,-0.001212702934767,0.0012127083067464,-0.0012127028992044,0.001212708271054,-0.0012127002140568,0.0012127110843496,-0.0012127001864942,0.0012127110566519,-0.0010703868630602,0.0010703967671745,-0.0010703869601692,0.0010703968640223,1.7932801231114e-09,-6.1891920958417e-09,3.3999600583776e-09,-7.6626862066669e-09,-0.0018739483561981,0.0018739440879765,-0.0020688678194723,0.0020688699566557,-0.0020688711690947,0.0020688659309628,-0.0020688701646093,0.0020688669779396,-0.0020688735140305,0.0020688629520617,-0.0016499126350797,0.0016499165754779,-0.0016499236511992,0.0016499058777188,-0.0016499146871164,0.0016499144600902,-0.0016499227417449,0.0016499068314383,3.8567601341253e-09,3.8566810718246e-09,-0.0010915771431758,0.0010915853358868,-1.7037051397422e-09,9.4461678788973e-09,-0.0012127032239526,0.0012127080629808,-0.0012126994836795,0.0012127117821314,-0.0012127031730375,0.0012127080119353,-0.0012126994586442,0.0012127117569612,-0.0010703862265214,0.0010703975912317,-0.0010703861071136,0.0010703974720843,0.59839954953269,122718,2924,0.0045395842776384,0.0077769837404362,0.0045395842776387,37.946390350734,0.00021877112280588,0.00021877112280588,0.00021877112280588,3432907.3326302,0.016999532426041
11419200,0.98857625175737,0.017536478998148,0.0052080794032885,0.0071203201915709,0.0052080794032887,-0.0010892112441016,0.0010892193878695,3.7848135411436e-09,3.7847342405283e-09,-3.5078969695746e-10,7.8677837934881e-09,-0.0012109132693378,0.001210919039547,-0.0012109132004777,0.0012109189705571,-0.0012109105492716,0.0012109218154658,-0.001210910488879,0.0012109217549381,-0.0010677962255476,0.0010678064784567,-0.0010677963219251,0.0010678065745729,1.769050018501e-09,-6.1991450314922e-09,3.4532729235885e-09,-7.7501234259316e-09,-0.0018809776652199,0.0018809733630524,-0.002079143604828,0.0020791457551792,-0.0020791469631337,0.0020791416409192,-0.0020791459098389,0.0020791427399714,-0.0020791492679445,0.0020791386255272,-0.0016536358855798,0.0016536399332573,-0.0016536470241443,0.001653629082891,-0.0016536380378838,0.0016536377136782,-0.0016536460654373,0.0016536300886472,4.0376227308493e-09,4.0375437909116e-09,-0.0010892109921482,0.001089219639823,-1.5949972657519e-09,9.6997151401281e-09,-0.0012109135708239,0.0012109187835749,-0.0012109097815149,0.0012109225512291,-0.001210913486106,0.0012109186987268,-0.0012109097234586,0.0012109224930381,-0.0010677955494586,0.0010678073407606,-0.0010677954306163,0.0010678072221785,0.59529609808928,122718,2924,0.0045298060492603,0.0078060447450604,0.0045298060492606,37.628778190719,0.00021623022552575,0.00021623022552575,0.00021623022552575,3405892.3130714,0.017009200104721
11919200,0.99149235162425,0.017578216884407,0.0052197335397188,0.0071387498049691,0.005219733539719,-0.0010865078936504,0.0010865165590276,3.9896110250593e-09,3.9895317558884e-09,-1.7674254832213e-10,8.105298749334e-09,-0.0012095686267743,0.0012095748410206,-0.0012095685202645,0.0012095747343814,-0.0012095658845039,0.0012095776385992,-0.0012095657870816,0.001209577541042,-0.0010648010961845,0.0010648117993693,-0.0010648011923695,0.0010648118952932,1.788227878454e-09,-6.2376002772991e-09,3.5067431385807e-09,-7.8224178666214e-09,-0.0018873263927139,0.0018873220717429,-0.00208718575856,0.002087187955906,-0.0020871891142702,0.0020871837510287,-0.0020871880390173,0.0020871848729154,-0.0020871913945263,0.0020871806678552,-0.0016580760851908,0.0016580802167147,-0.0016580873251018,0.0016580692225167,-0.0016580782817616,0.0016580779516922,-0.0016580863449222,0.0016580702506304,4.2442901029702e-09,4.2442111422188e-09,-0.0010865076398514,0.0010865168128274,-1.4520497878757e-09,9.9733610822633e-09,-0.0012095689379154,0.001209574575562,-0.0012095651040025,0.001209578387207,-0.001209568815377,0.0012095744528924,-0.0012095650088207,0.0012095782918905,-0.001064800406864,0.0010648126745927,-0.0010648002881741,0.0010648125561616,0.60696177208561,122718,2924,0.0045186317990339,0.0078322704026789,0.0045186317990354,37.105498270253,0.00021204398616203,0.00021204398616203,0.00021204398616203,3365711.9669033,0.01701315124969
12419200,0.99363913656326,0.017609253459829,0.0052284349346222,0.007152383590584,0.0052284349346225,-0.0010840930855057,0.0010841013532615,3.8369254338743e-09,3.8368462547728e-09,-3.1840389980479e-10,7.9456253245416e-09,-0.001209099141989,0.0012091050025205,-0.0012090990686865,0.0012091049290883,-0.0012090964065315,0.0012091077934915,-0.00120909634133,0.0012091077281549,-0.0010621430051736,0.0010621533809543,-0.0010621431065573,0.0010621534820766,1.798279011987e-09,-6.2150060758894e-09,3.5671569268633e-09,-7.850965576979e-09,-0.0018935628413171,0.0018935585522375,-0.0020940665879731,0.0020940688368874,-0.0020940700035506,0.0020940646385646,-0.0020940688955093,0.0020940657942925,-0.0020940723108858,0.0020940615957849,-0.0016633291943144,0.0016633334510128,-0.001663340530774,0.001663322376712,-0.0016633314565232,0.0016633311189403,-0.0016633395177742,0.0016633234387093,4.0924603913869e-09,4.0923813343296e-09,-0.0010840928308057,0.0010841016079616,-1.643088061964e-09,9.8662188111563e-09,-0.0012090994691253,0.0012091047208169,-0.0012090956087246,0.0012091085599696,-0.0012090993796533,0.0012091046312146,-0.0012090955455879,0.0012091084966981,-0.0010621423032956,0.0010621542792511,-0.0010621421796506,0.0010621541558668,0.61229629413516,122718,2924,0.0045086538596263,0.0078580153060677,0.0045086538596266,36.802710364947,0.00020962168291957,0.00020962168291957,0.00020962168291957,3315952.6096982,0.017019050930176
12919200,0.99520095308603,0.017631127256323,0.0052345568716925,0.0071620135129381,0.0052345568716928,-0.0010808703278316,0.0010808794112321,4.1544003921219e-09,4.1543212099008e-09,-4.7118960268696e-11,8.3132184601178e-09,-0.0012072159810682,0.0012072225250849,-0.0012072158491791,0.0012072223930666,-0.0012072132122499,0.0012072253488794,-0.0012072130895329,0.0012072252260275,-0.001058840194946,0.0010588512698614,-0.0010588402924176,0.0010588513670715,1.8299368940369e-09,-6.2712227116274e-09,3.6241542183999e-09,-7.93160176554e-09,-0.0018969752546817,0.0018969709419165,-0.0020982288920808,0.0020982311998568,-0.0020982322863778,0.0020982268814882,-0.0020982311621386,0.0020982280539056,-0.0020982345562343,0.0020982237353515,-0.0016657317772978,0.0016657361135561,-0.00166574321257,0.0016657248708184,-0.0016657340719103,0.0016657337483366,-0.0016657421841823,0.0016657259487601,4.4101965616657e-09,4.4101175064788e-09,-0.0010808700728671,0.0010808796661967,-1.3955621335348e-09,1.0258890333443e-08,-0.0012072163164956,0.0012072222354767,-0.0012072124059251,0.0012072261236546,-0.0012072161683061,0.0012072220871572,-0.0012072122852392,0.001207226002834,-0.0010588394807033,0.0010588521726795,-0.0010588393609023,0.0010588520531384,0.5929858649957,122718,2924,0.0044953176872912,0.0078720965368844,0.0044953176872917,36.137410228517,0.00020429928182813,0.00020429928182813,0.00020429928182813,3280314.9425606,0.017006253033492
13419200,0.99631370375265,0.017646531984652,0.0052388743115737,0.0071687833615046,0.005238874311574,-0.001076671065107,0.0010766816737714,4.7506244069813e-09,4.7505452550306e-09,4.1253301633703e-10,9.0476147780497e-09,-0.0012027479635765,0.0012027557827868,-0.0012027477188247,0.001202755537905,-0.001202745102312,0.0012027586999964,-0.0012027448687555,0.0012027584663054,-0.0010547201115205,0.0010547325289234,-0.001054720201421,0.0010547326185628,1.8909587633901e-09,-6.4663597736182e-09,3.7178210139436e-09,-8.1553862217843e-09,-0.0018961531330556,0.0018961486899727,-0.0020990570264187,0.0020990594095218,-0.0020990604010329,0.0020990548468394,-0.0020990592573062,0.0020990560403054,-0.0020990626317196,0.0020990514774382,-0.0016632650463501,0.0016632694739145,-0.0016632767351549,0.0016632578669106,-0.0016632673813825,0.0016632670664034,-0.0016632756895808,0.0016632589633298,5.0143154244477e-09,5.014236353934e-09,-0.0010766708023178,0.0010766819365608,-9.5531898319023e-10,1.1030592189603e-08,-0.0012027483024569,0.0012027554916427,-0.0012027442779722,0.0012027594911793,-0.0012027480409438,0.001202755229999,-0.001202744046598,0.0012027592596692,-0.0010547193721325,0.0010547334415738,-0.0010547192591797,0.0010547333288813,0.58571221834906,122718,2924,0.0044779138734605,0.0078687068932477,0.0044779138734609,34.79715775919,0.00019357726207352,0.00019357726207352,0.00019357726207352,3276498.511391,0.016967402839177
13919200,0.9971330748764,0.017657732363691,0.0052420163524694,0.0071736996587523,0.0052420163524697,-0.0010733979904204,0.0010734079038604,4.4857722062585e-09,4.4856930493435e-09,9.746557561673e-11,8.8356000560715e-09,-0.0011998054363258,0.0011998126179736,-0.0011998052465498,0.0011998124280681,-0.0011998025443618,0.0011998155688375,-0.0011998023641036,0.0011998153884441,-0.00105136170426,0.0010513735967954,-0.0010513618023778,0.0010513736946519,1.9219786653417e-09,-6.5456725002571e-09,3.7842233626915e-09,-8.2685091967786e-09,-0.0018965762429233,0.0018965717529868,-0.0021003467503879,0.0021003491735099,-0.002100350239262,0.0021003446158548,-0.0021003490732953,0.0021003458327235,-0.0021003525619691,0.0021003412748843,-0.001662736620355,0.0016627411439643,-0.0016627485122392,0.0016627293841207,-0.0016627390006099,0.0016627386898444,-0.0016627474456182,0.0016627305025807,4.7538560134914e-09,4.7537769478985e-09,-0.0010733977232588,0.0010734081710223,-1.2989606363501e-09,1.0857443196185e-08,-0.0011998057829942,0.001199812319961,-0.0011998017041907,0.0011998163751959,-0.0011998055761751,0.0011998121130118,-0.0011998015261326,0.0011998161970035,-0.0010513609573871,0.0010513745333832,-0.0010513608359415,0.0010513744121982,0.57829083672103,122718,2924,0.0044643506236914,0.0078704513888898,0.0044643506236922,33.829960532573,0.00018583968426058,0.00018583968426058,0.00018583968426058,3261906.4380173,0.016941592266478
14419200,0.9977373542846,0.01766581081405,0.0052442813941648,0.00717724802572,0.0052442813941651,-0.0010697610448442,0.001069771464237,4.6847112974363e-09,4.684632120046e-09,2.2895764117586e-10,9.1045319732096e-09,-0.0011964042784831,0.0011964118681022,-0.0011964040527852,0.0011964116422744,-0.0011964013410529,0.001196414865375,-0.0011964011253033,0.00119641464949,-0.001047660800032,0.0010476731548273,-0.0010476608973856,0.0010476732519208,1.958494546336e-09,-6.6407589312554e-09,3.8564839950023e-09,-8.3975664750497e-09,-0.0018960706365311,0.0018960660896919,-0.0021006065432888,0.0021006090241548,-0.0021006100564332,0.0021006043536845,-0.0021006088680846,0.002100605594119,-0.0021006123810291,0.0021006009234643,-0.0016613995319918,0.0016614041512611,-0.001661411600981,0.0016613921748423,-0.0016614019577751,0.0016614016502032,-0.0016614105131696,0.0016613933155023,4.9574346535904e-09,4.9573556222199e-09,-0.001069760773061,0.0010697717360208,-1.1958713135993e-09,1.1165584378631e-08,-0.0011964046327483,0.0011964115634627,-0.0011964004847479,0.0011964156871623,-0.0011964043897133,0.0011964113202975,-0.0011964002712277,0.0011964154735068,-0.0010476600363986,0.0010476741066046,-0.0010476599154253,0.0010476739858925,0.56553165730834,122718,2924,0.0044492776126782,0.0078683581810144,0.0044492776126795,32.644014371249,0.00017635211496999,0.00017635211496999,0.00017635211496999,3250654.6759196,0.016908808621015
14919200,0.99817079948469,0.017671659239302,0.0052459267090962,0.0071798058211091,0.0052459267090965,-0.0010644996793551,0.0010645120004952,5.4279928706945e-09,5.4279136347268e-09,8.0052192747226e-10,1.0023748671241e-08,-0.001190998512683,0.0011910076836128,-0.0011909981471859,0.001191007317986,-0.0011909954584308,0.0011910107989335,-0.0011909951053694,0.0011910104457369,-0.0010423858352932,0.0010423998644818,-0.0010423859236895,0.0010423999526173,2.0476680946747e-09,-6.8773640074857e-09,3.991373145349e-09,-8.6752448139906e-09,-0.0018931317726099,0.0018931270826937,-0.0020985993683901,0.0020986019695815,-0.0020986028625369,0.0020985969893007,-0.0020986016462016,0.0020985982593408,-0.0020986051401488,0.0020985932788759,-0.0016575234473797,0.0016575282143406,-0.0016575358477756,0.0016575157661827,-0.0016575259303291,0.0016575256542411,-0.0016575347349207,0.001657516933204,5.7081633045348e-09,5.7080843371779e-09,-0.0010644994001603,0.00106451227969,-6.5683073050734e-10,1.2134294824211e-08,-0.001190998875368,0.001191007372922,-0.0011909945798739,0.0011910116409334,-0.001190998492013,0.0011910069894372,-0.0011909942292314,0.0011910112901563,-0.001042385041275,0.0010424008284837,-0.0010423849285135,0.0010424007159828,0.5702752218708,122718,2924,0.0044274641718867,0.0078562137658764,0.0044274641718867,30.581579518959,0.00015985263615167,0.00015985263615167,0.00015985263615167,3249834.2044248,0.016852094572538
15419200,0.99846615020892,0.017675930436439,0.0052471398527857,0.0071816507308671,0.0052471398527859,-0.0010560999338647,0.0010561153060647,6.621078359987e-09,6.6209992074653e-09,1.6920710507585e-09,1.1533873462553e-08,-0.0011835327734868,0.0011835444341482,-0.0011835321892099,0.0011835438497416,-0.0011835295128983,0.0011835477586328,-0.0011835289446679,0.0011835471902665,-0.0010338939339582,0.0010339106707313,-0.0010338940084154,0.0010339107449274,2.2365378832441e-09,-7.2755903952958e-09,4.2496934370767e-09,-9.1352118424312e-09,-0.0018887075925387,0.0018887027003464,-0.0020942425256713,0.0020942453846519,-0.0020942460098344,0.0020942398924422,-0.0020942447503756,0.0020942412071442,-0.0020942482343394,0.002094235714751,-0.0016528424338087,0.0016528474994797,-0.0016528554137654,0.0016528342315852,-0.0016528450034173,0.001652844850934,-0.0016528542633125,0.0016528354374789,6.9060024330371e-09,6.9059233831165e-09,-0.0010560996498784,0.0010561155900508,1.7801280800738e-10,1.3712581604734e-08,-0.0011835331556607,0.0011835441079534,-0.00118352860598,0.0011835486253477,-0.0011835325528348,0.0011835435049977,-0.0011835280405203,0.0011835480597532,-0.0010338930997914,0.0010339116465194,-0.0010338929999604,0.0010339115469486,0.60998272593939,122718,2924,0.0043926442812811,0.0078379039361696,0.0043926442812808,27.074507717415,0.00013179606173932,0.00013179606173932,0.00013179606173932,3235674.0311836,0.016762673578563
15919200,0.99869308273398,0.017679464744433,0.0052481515625351,0.0071831616193623,0.0052481515625353,-0.001050897306895,0.0010509090224663,5.2035304361104e-09,5.2034513171132e-09,3.117655042466e-10,1.0091128573772e-08,-0.0011810562183375,0.0011810646361311,-0.0011810559172016,0.0011810643348657,-0.0011810529892722,0.0011810679353306,-0.0011810526969825,0.0011810676429059,-0.0010285217128908,0.0010285354499813,-0.0010285218156596,0.0010285355524887,2.2804850466296e-09,-7.213333673196e-09,4.4161417444893e-09,-9.1971145338759e-09,-0.0018897479897199,0.0018897432018914,-0.0020938580395586,0.0020938610277468,-0.0020938618921223,0.0020938557970218,-0.0020938605527493,0.0020938571940057,-0.0020938644051111,0.0020938519630949,-0.0016548109072065,0.001654816322472,-0.001654824238585,0.0016548029416525,-0.0016548136364569,0.0016548135114165,-0.0016548230085814,0.0016548042292139,5.4910108245098e-09,5.4909317060537e-09,-0.0010508970201482,0.0010509093092131,-1.3226304036667e-09,1.2398141009477e-08,-0.0011810566393214,0.0011810642711222,-0.00118105203871,0.0011810688462829,-0.0011810563193011,0.0011810639509718,-0.0011810517489389,0.0011810685563769,-0.0010285208630911,0.001028536498244,-0.0010285207355187,0.0010285363709326,0.65577889878149,122718,2924,0.0043710891798388,0.0078421438334363,0.0043710891798391,25.355877002061,0.00011804701601649,0.00011804701601649,0.00011804701601649,3185280.5884912,0.016723172477581
16419200,0.9988772093712,0.017682086656965,0.0052488939894765,0.0071842986780116,0.0052488939894768,-0.001046843676528,0.0010468537169422,4.5443811667564e-09,4.5443023955863e-09,-1.5693273241753e-10,9.2405101380524e-09,-0.0011797446318554,0.0011797516638345,-0.0011797444553359,0.0011797514871856,-0.0011797415292267,0.0011797548336269,-0.0011797413592889,0.0011797546635543,-0.0010245507532929,0.0010245629843663,-0.0010245508638404,0.0010245630946529,2.2024154458964e-09,-6.9287929917185e-09,4.4041306221267e-09,-8.9848236605693e-09,-0.0018916686787513,0.0018916640915978,-0.0020943695714064,0.0020943725488599,-0.0020943734832806,0.0020943675418799,-0.0020943720993199,0.0020943689842055,-0.0020943760109909,0.0020943639770387,-0.0016575931130557,0.0016575986346977,-0.0016576062780839,0.0016575855212566,-0.0016575959307459,0.0016575957340574,-0.0016576050001613,0.001657586857644,4.8287236341219e-09,4.8286442229192e-09,-0.0010468433927525,0.0010468540007177,-1.8657686699302e-09,1.1616742627291e-08,-0.0011797450773777,0.0011797512714686,-0.0011797405600428,0.0011797557662793,-0.0011797448821871,0.0011797510761476,-0.0011797403921508,0.0011797555982522,-0.001024549890908,0.0010245640611129,-0.0010245497567643,0.0010245639272309,0.60060692427015,122718,2924,0.0043543047834623,0.0078500208201782,0.0043543047834625,24.413123314865,0.00011050498651892,0.00011050498651892,0.00011050498651892,3133744.0477205,0.016697069663318
16919200,0.99903022913291,0.017684523534398,0.0052495951714202,0.0071853331915576,0.0052495951714205,-0.0010444365451974,0.001044446018941,4.3246901642392e-09,4.32461133222e-09,-2.9014660411379e-10,8.9196034238851e-09,-0.0011749802517611,0.0011749868851815,-0.0011749801109157,0.0011749867442071,-0.0011749772110519,0.0011749899928536,-0.0011749770761771,0.0011749898578435,-0.0010227373623794,0.001022749070972,-0.0010227374730354,0.0010227491813672,2.0829512935031e-09,-6.8616042766993e-09,4.2928201611143e-09,-8.9260096109452e-09,-0.0018874378525207,0.0018874332131181,-0.0020926226699936,0.0020926254746407,-0.0020926265701921,0.002092620572666,-0.0020926251835501,0.0020926220210107,-0.0020926290835487,0.0020926171188509,-0.001651162433228,0.0016511677985861,-0.0016511754621894,0.0016511548812666,-0.0016511652607159,0.0016511648840649,-0.0016511741795512,0.0016511562250915,4.6285498845058e-09,4.6284705203154e-09,-0.0010444362420427,0.0010444463220957,-1.9837681485389e-09,1.1324020666644e-08,-0.0011749806803997,0.0011749865096271,-0.0011749762223654,0.0011749909456683,-0.00117498052039,0.0011749863494884,-0.0011749760894402,0.0011749908126093,-0.0010227364786692,0.0010227501693568,-0.0010227363439556,0.0010227500349036,0.66895807420507,122718,2924,0.0043443019666059,0.007832583185651,0.0043443019666059,23.78049103871,0.00010544392830968,0.00010544392830968,0.00010544392830968,3167392.6327116,0.016658977182855
17419200,0.99915027388042,0.017686324533132,0.0052501090859447,0.0071861063612419,0.005250109085945,-0.0010392063526295,0.0010392181130248,5.2102805527685e-09,5.2102016059669e-09,5.1539230498835e-10,9.9076957805184e-09,-0.0011736766228033,0.0011736851419792,-0.0011736763245332,0.0011736848435795,-0.0011736735168741,0.0011736883115261,-0.0011736732277517,0.0011736880222687,-0.0010170090829152,0.001017022714172,-0.0010170091841213,0.0010170228151169,2.2046492937127e-09,-6.9062582721975e-09,4.4352191839807e-09,-8.9920079617997e-09,-0.0018898068336387,0.0018898022705207,-0.0020925219508823,0.0020925249754449,-0.0020925257399308,0.0020925198031455,-0.0020925243370397,0.0020925212648049,-0.0020925281258846,0.0020925160923184,-0.0016553051998936,0.0016553107832563,-0.0016553183272052,0.0016552975641385,-0.0016553080553349,0.0016553078442579,-0.0016553170298633,0.0016552989204204,5.493527416773e-09,5.4934481679192e-09,-0.0010392060699196,0.0010392183957347,-1.2237446196184e-09,1.2312680912645e-08,-0.001173677078854,0.0011736847385644,-0.0011736725394497,0.0011736892530776,-0.0011736767619105,0.0011736844214907,-0.0011736722522369,0.0011736889657298,-0.0010170082025181,0.0010170237902625,-0.0010170080779657,0.0010170236659716,0.63180122426808,122718,2924,0.0043226560096671,0.0078422887498231,0.0043226560096674,21.984883995252,9.1079071962019e-05,9.1079071962019e-05,9.1079071962019e-05,3100585.2303602,0.016624865906151
17919200,0.9992419897511,0.017687599615235,0.0052504699979329,0.0071866596193693,0.0052504699979331,-0.0010325683803333,0.0010325816481214,5.7994629270282e-09,5.7993841000751e-09,9.5792331024931e-10,1.0641989698931e-08,-0.0011658188663352,0.0011658286372895,-0.0011658184576954,0.0011658282285206,-0.0011658156631767,0.0011658319062565,-0.0011658152656217,0.0011658315085672,-0.0010109607672596,0.0010109757350764,-0.0010109608507257,0.0010109758182804,2.2467207019895e-09,-7.1353773422966e-09,4.5023590320221e-09,-9.2405285491958e-09,-0.0018832955125006,0.0018832907676849,-0.0020877342964239,0.0020877373498595,-0.0020877380693561,0.0020877319383411,-0.0020877366535643,0.0020877334158345,-0.0020877404262943,0.0020877280041307,-0.0016471534595443,0.0016471590760419,-0.0016471668321638,0.001647145487859,-0.001647156344137,0.0016471561042558,-0.001647165524393,0.0016471468569692,6.0983610711892e-09,6.0982816990689e-09,-0.0010325680820436,0.0010325819464107,-7.8224695689242e-10,1.3083223717528e-08,-0.0011658193156943,0.0011658282433347,-0.0011658146632172,0.0011658328680834,-0.001165818887627,0.0011658278151366,-0.0011658142678149,0.0011658324725466,-0.0010109598469,0.0010109768153088,-0.0010109597389756,0.0010109767076437,0.58584130670194,122718,2924,0.0042951162892712,0.0078153966834502,0.0042951162892705,19.505447686408,7.1243581491263e-05,7.1243581491263e-05,7.1243581491263e-05,3121595.5162652,0.016541517596039
18419200,0.99931489334894,0.017688641849042,0.0052507666291859,0.0071871085906701,0.0052507666291861,-0.0010279509216156,0.0010279633947771,5.4966811369511e-09,5.4966028564189e-09,5.8611546270729e-10,1.0398598541894e-08,-0.001159098551353,0.0011591076372482,-0.0011590981961682,0.0011591072819358,-0.0011590953095996,0.0011591109490503,-0.0011590949639674,0.0011591106032892,-0.0010065445912408,0.0010065589617091,-0.0010065446832094,0.0010065590534092,2.2406931568327e-09,-7.2725453952597e-09,4.5233290099331e-09,-9.4011943747886e-09,-0.0018771549682323,0.0018771500835826,-0.0020837561816341,0.002083759191667,-0.0020837600736067,0.0020837537878949,-0.0020837586430357,0.0020837552831083,-0.0020837625348073,0.0020837498791527,-0.0016390960913031,0.0016391017061063,-0.0016391096866714,0.0016390879801511,-0.0016390990090129,0.0016390986978653,-0.001639108365316,0.0016390893650806,5.8127670388835e-09,5.8126871319569e-09,-0.0010279506062761,0.0010279637101151,-1.1575238063834e-09,1.2881361056108e-08,-0.001159098993139,0.0011591072527874,-0.0011590942851555,0.0011591119339421,-0.0011590986178795,0.0011591068773919,-0.0011590939418256,0.0011591115904757,-0.0010065436546096,0.0010065600751699,-0.0010065435372444,0.0010065599580622,0.60198892211805,122718,2924,0.0042759445946793,0.0077900598003928,0.0042759445946761,17.481697496124,5.5053579968989e-05,5.5053579968989e-05,5.5053579968989e-05,3157323.6233184,0.016476768728357
18919200,0.99937851215536,0.017689602588896,0.0052510418617495,0.0071875188653972,0.0052510418617497,-0.0010257850742378,0.001025794644515,4.3673814794753e-09,4.3673033052422e-09,-3.9184404582859e-10,9.1170289340831e-09,-0.0011583147256552,0.0011583213482712,-0.001158314584507,0.0011583212069942,-0.0011583115893278,0.0011583245555369,-0.0011583114532247,0.0011583244192989,-0.001004086660089,0.0010040985559368,-0.0010040867794686,0.0010040986750566,2.185114624954e-09,-7.0577829856333e-09,4.4809632381195e-09,-9.204456794869e-09,-0.0018784317360598,0.0018784270060223,-0.0020843678644465,0.0020843708291676,-0.0020843719074788,0.0020843657647076,-0.0020843704664322,0.0020843672697224,-0.0020843745092621,0.0020843622050772,-0.0016408016373906,0.0016408072723884,-0.0016408151159671,0.0016407938875068,-0.001640804574781,0.00164080424533,-0.0016408137818056,0.0016407952847579,4.6764016436582e-09,4.6763216213133e-09,-0.001025784765893,0.0010257949528598,-2.1612760143249e-09,1.1610432953283e-08,-0.001158315178616,0.0011583209504977,-0.0011583105670593,0.0011583255403346,-0.0011583150177496,0.0011583207895005,-0.0011583104329575,0.0011583254060974,-0.0010040857522173,0.0010040996958317,-0.0010040856083206,0.0010040995521983,0.63537812943517,122718,2924,0.004266972056398,0.0077953086799887,0.0042669720563983,16.875726737628,5.0205813901023e-05,5.0205813901023e-05,5.0205813901023e-05,3129114.7831245,0.016463875464022
19419200,0.99943851026895,0.01769055221579,0.0052513152207733,0.007187921774243,0.0052513152207736,-0.0010258320040938,0.0010258388562063,3.2985119123834e-09,3.298433577299e-09,-1.0247233700111e-09,7.5957068978976e-09,-0.0011603924409248,0.0011603969494752,-0.0011603924897216,0.0011603969981429,-0.0011603895950685,0.0011603998576558,-0.0011603896466963,0.0011603999091491,-0.0010039651989486,0.0010039745596325,-0.0010039653368988,0.0010039746973227,1.9427526093002e-09,-6.4404192000261e-09,4.1903939327535e-09,-8.5519969304229e-09,-0.0018826080186493,0.0018826036515543,-0.0020873573208809,0.0020873600292861,-0.0020873612691332,0.0020873555138572,-0.0020873598549678,0.0020873569892589,-0.0020873638030177,0.0020873524736437,-0.001645819613821,0.0016458249785297,-0.0016458322807401,0.001645812624431,-0.0016458224949619,0.00164582201076,-0.0016458309652449,0.0016458140010227,3.5913882621016e-09,3.5913084765491e-09,-0.0010258317118195,0.0010258391484806,-2.7763475630171e-09,1.003558317269e-08,-0.0011603928921426,0.0011603965467631,-0.0011603886049696,0.0011604008165267,-0.0011603929223929,0.0011603965768827,-0.0011603886578663,0.0011604008692881,-0.0010039643387134,0.0010039756897782,-0.0010039641783909,0.0010039755297179,0.6649987366162,122718,2924,0.004267185687274,0.00781252908743,0.0042671856872743,17.545073849351,5.5560590794808e-05,5.5560590794808e-05,5.5560590794808e-05,3086187.0213287,0.016481829464082
19919200,0.99949636366212,0.017691452582303,0.0052515739065973,0.0071883047691081,0.0052515739065975,-0.0010265245950432,0.0010265304022785,2.8827887299743e-09,2.8827094205403e-09,-1.1280171558153e-09,6.8549947356163e-09,-0.001162780738334,0.0011627845291418,-0.0011627808553752,0.0011627846460533,-0.0011627780982051,0.00116278722369,-0.0011627782183192,0.001162787343669,-0.0010047470417579,0.001004755322106,-0.0010047471850404,0.0010047554651266,1.7536120747666e-09,-6.0031672872425e-09,3.9009082449308e-09,-8.0234689487664e-09,-0.0018868689506808,0.0018868648234331,-0.0020907400850403,0.00209074254998,-0.0020907438480478,0.0020907383936508,-0.0020907424954743,0.0020907398036764,-0.0020907462582787,0.0020907356471604,-0.0016506303474587,0.0016506353582048,-0.0016506422585292,0.0016506238519834,-0.0016506331028232,0.0016506325203893,-0.0016506409986713,0.0016506251700691,3.158085500483e-09,3.1580066666633e-09,-0.0010265243203574,0.0010265306769643,-2.8080311859277e-09,9.1835687086815e-09,-0.0011627811720662,0.001162784138839,-0.0011627771587592,0.0011627881362871,-0.0011627812716968,0.0011627842383395,-0.0011627772797021,0.0011627882570954,-0.0010047462356258,0.0010047564092824,-0.0010047460714249,0.0010047562453419,0.65387746556573,122718,2924,0.0042700787505374,0.0078301050021528,0.0042700787505377,18.680611214288,6.4644889714302e-05,6.4644889714302e-05,6.4644889714302e-05,3047839.033896,0.016505587102721
20419200,0.9995480266151,0.017692288451066,0.0052518153019056,0.0071886578472547,0.0052518153019059,-0.0010250085398869,0.0010250168001787,3.8340701990997e-09,3.8339909207447e-09,-2.0655321232718e-10,7.8409302447868e-09,-0.0011611231444561,0.001161129050536,-0.0011611230843347,0.0011611289902849,-0.0011611204768004,0.0011611317689559,-0.0011611204237452,0.0011611317157656,-0.001003537561571,0.001003547865625,-0.0010035376852484,0.0010035479890407,1.7549960537811e-09,-6.0425272871156e-09,3.8392167278584e-09,-7.9988868266158e-09,-0.0018864261170004,0.0018864219526994,-0.0020909491017148,0.002090951540656,-0.0020909526456864,0.0020909471963521,-0.002090951334278,0.0020909485640009,-0.0020909548780472,0.0020909442195109,-0.0016494757160478,0.0016494805818127,-0.0016494874409494,0.0016494690694729,-0.0016494783887909,0.0016494778278955,-0.0016494862222111,0.0016494703454801,4.1061288494315e-09,4.1060500094098e-09,-0.0010250082685194,0.0010250170715465,-1.8264048392917e-09,1.0101543264531e-08,-0.001161123560101,0.0011611286782546,-0.0011611195616943,0.0011611326570057,-0.0011611234827552,0.0011611286007787,-0.0011611195095556,0.0011611326047323,-0.0010035367603587,0.0010035489085564,-0.0010035366155868,0.0010035487640448,0.67876339245887,122718,2924,0.0042637987775309,0.0078282768712583,0.0042637987775314,18.601964830838,6.4015718646702e-05,6.4015718646702e-05,6.4015718646702e-05,3044181.3885806,0.016490955239485
20919200,0.99959099879913,0.017692958775896,0.0052520080856756,0.0071889426045449,0.0052520080856759,-0.0010208460767113,0.0010208568907541,4.8273989160121e-09,4.8273195569371e-09,6.2631562165496e-10,9.0114144121225e-09,-0.0011585241744611,0.00115853217653,-0.0011585239361642,0.0011585319381034,-0.0011585213919758,0.0011585350094483,-0.001158521164174,0.0011585347815116,-0.00099935978891143,0.00099937229464752,-0.00099935989303322,0.00099937239850708,1.8685256063547e-09,-6.2422397978002e-09,3.920953650381e-09,-8.1630484512379e-09,-0.0018859797047676,0.0018859754577191,-0.0020898536983367,0.0020898562632051,-0.0020898571242428,0.002089851614397,-0.0020898558332149,0.0020898529596753,-0.0020898592589178,0.0020898483106803,-0.0016493488498489,0.0016493537617386,-0.0016493607005742,0.0016493419024716,-0.0016493514798969,0.0016493510528351,-0.0016493595051955,0.0016493431535092,5.0898724032596e-09,5.0897936784706e-09,-0.0010208458149345,0.001020857152531,-9.6998734890526e-10,1.1226934323625e-08,-0.0011585245893768,0.0011585318064476,-0.0011585204956707,0.0011585358768416,-0.0011585243339853,0.0011585315509261,-0.001158520269041,0.0011585356500777,-0.00099935898876613,0.00099937329711381,-0.00099935886317666,0.00099937317178444,0.65509998223431,122718,2924,0.0042465573579456,0.0078263953208065,0.0042465573579459,17.278893868829,5.3431150950632e-05,5.3431150950632e-05,5.3431150950632e-05,3017181.1349653,0.01645400290396
21419200,0.99962548736617,0.017693497800663,0.0052521632688474,0.0071891712629676,0.0052521632688477,-0.0010155533792373,0.00101556577104,5.4444564158805e-09,5.4443770987987e-09,1.0128237908733e-09,9.8660199265694e-09,-0.0011525352495761,0.0011525444911861,-0.0011525348995622,0.0011525441410425,-0.001152532313248,0.001152547481785,-0.0011525319754407,0.0011525471438427,-0.00099433890329652,0.0009943528612456,-0.00099433899412678,0.0009943529518136,1.9951528153922e-09,-6.5653839566738e-09,4.0459902848917e-09,-8.4775897094536e-09,-0.0018812196321552,0.0018812151950622,-0.0020862500852441,0.0020862527691927,-0.0020862535309779,0.0020862478359633,-0.0020862522432577,0.002086249178736,-0.0020862556887892,0.002086244245321,-0.0016434488197756,0.0016434538194091,-0.0016434610338946,0.0016434414657169,-0.0016434514442535,0.0016434511151496,-0.0016434598460691,0.0016434427097447,5.7123157833908e-09,5.712236996169e-09,-0.0010155531121416,0.0010155660381356,-5.6928329660959e-10,1.2079223344642e-08,-0.0011525356593819,0.0011525441295124,-0.0011525314120602,0.0011525483508546,-0.0011525352917861,0.0011525437617862,-0.0011525310758197,0.0011525480144792,-0.00099433808665862,0.00099435385323003,-0.00099433797320921,0.00099435374004027,0.65600718729407,122718,2924,0.004224601738924,0.0078067325142598,0.004224601738924,15.233743894478,3.7069951155825e-05,3.7069951155825e-05,3.7069951155825e-05,3029570.8096233,0.016389374953754
21919200,0.99965481384199,0.017693950350542,0.0052522934057057,0.0071893635391306,0.005252293405706,-0.0010120286419105,0.0010120394625707,4.8387163572647e-09,4.8386370012263e-09,3.4398351619595e-10,9.3241389376029e-09,-0.0011494236493507,0.0011494314893098,-0.0011494234150349,0.0011494312548643,-0.0011494206771615,0.0011494345206033,-0.0011494204520946,0.0011494342954012,-0.00099079573700501,0.00099080846011372,-0.00099079584538626,0.00099080856823321,2.0438332500619e-09,-6.6590986529307e-09,4.109264153095e-09,-8.5837973128843e-09,-0.0018796355039238,0.0018796310236385,-0.0020848349147078,0.0020848376406356,-0.0020848385383574,0.0020848327914996,-0.0020848372416547,0.0020848341436105,-0.002084840865102,0.0020848292942885,-0.0016415645490893,0.0016415696315214,-0.0016415769973144,0.0016415571720484,-0.0016415671916845,0.0016415669087901,-0.0016415758022129,0.0016415584235893,5.1072772816756e-09,5.1071984804212e-09,-0.0010120283741126,0.0010120397303686,-1.250101514551e-09,1.1551144120661e-08,-0.0011494240637951,0.0011494311241486,-0.0011494197700954,0.0011494353944598,-0.0011494238117294,0.0011494308719529,-0.0011494195467032,0.001149435170933,-0.00099079493274199,0.00099080947479963,-0.0009907948014231,0.00099080934374082,0.64802893412582,122718,2924,0.004209984841449,0.0078001747911773,0.0042099848414492,13.997489708414,2.7179917667311e-05,2.7179917667311e-05,2.7179917667311e-05,3021262.7323232,0.016352999854646
22419200,0.99968326271351,0.01769439921114,0.0052524228740203,0.0071895534630994,0.0052524228740206,-0.0010129747073903,0.0010129812973234,3.1965991728413e-09,3.1965198121457e-09,-1.0854322975549e-09,7.4523359932509e-09,-0.0011502292073283,0.0011502335191642,-0.0011502292747821,0.0011502335864883,-0.0011502263883491,0.0011502363990999,-0.001150226459035,0.0011502364696506,-0.00099175593621259,0.00099176505689216,-0.00099175608220553,0.00099176520262296,1.9124080104245e-09,-6.3899922688283e-09,3.9738223733954e-09,-8.3158506666468e-09,-0.001881320998697,0.0018813166512997,-0.0020869676472996,0.002086970198284,-0.0020869714704112,0.0020869658566875,-0.0020869701754749,0.0020869672074479,-0.0020869739983846,0.0020869628656656,-0.0016427843418436,0.0016427893089642,-0.0016427965819408,0.0016427774167023,-0.0016427869816154,0.0016427865885708,-0.0016427953850865,0.0016427786703406,3.4664761391437e-09,3.4663973415298e-09,-0.0010129744382875,0.0010129815664262,-2.6784368114763e-09,9.6813505627452e-09,-0.0011502296186924,0.0011502331547227,-0.0011502254820195,0.0011502372746619,-0.0011502296686227,0.0011502332045228,-0.0011502255540728,0.0011502373465806,-0.00099175516858524,0.00099176611061744,-0.00099175500029576,0.00099176594258785,0.66209699582748,122718,2924,0.0042139044087174,0.007807147568539,0.0042139044087176,14.849047554275,3.39923804342e-05,3.39923804342e-05,3.39923804342e-05,3015044.3835864,0.01636805154683
22919200,0.99971016905314,0.017694802156954,0.0052525385191936,0.0071897251185669,0.0052525385191939,-0.0010130236173,0.0010130308146165,3.4253627620851e-09,3.4252833910627e-09,-7.3782117569638e-10,7.5601639991205e-09,-0.0011512391597863,0.0011512440644979,-0.0011512391802815,0.0011512440848631,-0.0011512364152278,0.0011512468650127,-0.0011512364406453,0.0011512468902949,-0.0009916931258151,0.00099170265205003,-0.0009916932642958,0.00099170279026852,1.8430017565614e-09,-6.2143009244901e-09,3.8806562156164e-09,-8.1203537911187e-09,-0.0018837286964121,0.0018837244517262,-0.0020889882492226,0.0020889907347136,-0.0020889919292549,0.0020889864317271,-0.0020889906482816,0.0020889877673321,-0.0020889943281112,0.0020889834641593,-0.001645408155458,0.0016454130198526,-0.0016454200846224,0.0016454013866874,-0.0016454107663171,0.0016454103297445,-0.0016454188991492,0.0016454026280417,3.6886688706833e-09,3.6885900935384e-09,-0.0010130233547588,0.0010130310771578,-2.3181429759704e-09,9.7618470674209e-09,-0.0011512395691307,0.0011512436999408,-0.0011512355233462,0.0011512477280549,-0.0011512395725281,0.0011512437032077,-0.0011512355499122,0.0011512477544859,-0.00099169236423559,0.0009917036848897,-0.00099169220413739,0.00099170352505189,0.62916622501583,122718,2924,0.0042141223944421,0.0078170805072085,0.0042141223944426,15.356842049255,3.805473639404e-05,3.805473639404e-05,3.805473639404e-05,2992167.8834491,0.016378597561799
23419200,0.99973530383257,0.017695185695701,0.005252648982759,0.0071898877301826,0.0052526489827593,-0.0010132506314524,0.0010132581695129,3.557092691793e-09,3.5570133592328e-09,-5.4510055854659e-10,7.6250254684707e-09,-0.0011500696807691,0.0011500749366586,-0.0011500696736676,0.0011500749294275,-0.0011500669760084,0.0011500776951605,-0.0011500669747584,0.0011500776937755,-0.00099207412545826,0.00099208388710676,-0.00099207426228689,0.00099208402367373,1.7806912653983e-09,-6.1439678200593e-09,3.7829356399129e-09,-8.0158353396738e-09,-0.001882866877475,0.0018828626398146,-0.0020895404178553,0.0020895428051079,-0.0020895440057698,0.0020895385384619,-0.002089542748145,0.0020895398508267,-0.0020895463358581,0.0020895355839954,-0.0016433123201087,0.0016433170348419,-0.0016433240444969,0.00164330559599,-0.0016433148852611,0.0016433143903319,-0.0016433228807454,0.0016433068156443,3.8234779345538e-09,3.8233991406668e-09,-0.0010132503659285,0.0010132584350368,-2.0874244353811e-09,9.7950260794406e-09,-0.0011500700749324,0.0011500745864754,-0.0011500660937038,0.0011500785494065,-0.0011500700508146,0.0011500745622276,-0.0011500660935473,0.0011500785491155,-0.00099207337094449,0.00099208490967702,-0.00099207321248031,0.00099208475147281,0.64041031527627,122718,2924,0.0042150549637417,0.0078135510694719,0.004215054963742,15.705336853984,4.0842694831871e-05,4.0842694831871e-05,4.0842694831871e-05,3008624.4345598,0.016376892579027
23919200,0.9997600738802,0.017695592533291,0.0052527670942064,0.0071900583448777,0.0052527670942066,-0.0010151798279573,0.0010151854208398,2.8004654227147e-09,2.8003860980375e-09,-1.1399321672904e-09,6.6987713513099e-09,-0.0011528183694677,0.0011528220341662,-0.0011528185009208,0.0011528221654897,-0.0011528157757418,0.0011528246801719,-0.0011528159107573,0.0011528248150521,-0.00099380913922697,0.00099381719946294,-0.00099380929242846,0.00099381735240263,1.6918291964853e-09,-5.9217051436786e-09,3.6517446264142e-09,-7.7559515390632e-09,-0.001886725418435,0.0018867213098201,-0.0020930031266036,0.00209300539215,-0.0020930067401914,0.0020930014270556,-0.0020930055080882,0.0020930027120683,-0.002093009121474,0.0020929987467883,-0.0016474464846576,0.0016474510540817,-0.0016474579105834,0.0016474400774297,-0.0016474489973656,0.0016474484641585,-0.001647456769562,0.0016474412729126,3.0579201730808e-09,3.057841374431e-09,-0.0010151795713719,0.0010151856774253,-2.6548079109112e-09,8.8211263511221e-09,-0.001152818757828,0.0011528216873251,-0.0011528149161055,0.0011528255138826,-0.0011528188728209,0.0011528218021884,-0.0011528150519864,0.0011528256496293,-0.0009938084229087,0.00099381821691371,-0.00099380824881388,0.0009938180430791,0.68827840124803,122718,2924,0.0042230663700935,0.0078294855050751,0.0042230663700939,17.003039368203,5.1224314945621e-05,5.1224314945621e-05,5.1224314945621e-05,2985527.3351596,0.016409380937227
24419200,0.99978369514522,0.01769596902565,0.0052528760293466,0.0071902169669567,0.0052528760293469,-0.001015744789856,0.0010157511504988,3.0917396698301e-09,3.0916603689292e-09,-7.475647356715e-10,6.8905907625939e-09,-0.0011557940596099,0.0011557984381473,-0.0011557941330883,0.001155798511496,-0.0011557915271954,0.0011558010176693,-0.0011557916063757,0.0011558010967145,-0.00099412862422328,0.00099413723408989,-0.00099412876831474,0.0009941373779194,1.6454114732207e-09,-5.7612203154387e-09,3.5340280842796e-09,-7.5279651823605e-09,-0.0018915643558204,0.0018915603577949,-0.0020962686035963,0.0020962708068232,-0.0020962720431082,0.0020962668847735,-0.0020962708545037,0.0020962681225602,-0.002096274293812,0.0020962642003235,-0.0016534918004844,0.0016534962059457,-0.0016535028500385,0.0016534855357092,-0.0016534942229954,0.001653493710487,-0.0016535017506265,0.0016534866866882,3.3314543924636e-09,3.3313755597606e-09,-0.0010157445510045,0.0010157513893505,-2.2156875739714e-09,8.9261294891084e-09,-0.0011557944411264,0.0011557980957982,-0.0011557907077722,0.0011558018128488,-0.0011557944989559,0.0011557981534977,-0.0011557907876766,0.0011558018926185,-0.00099412793902863,0.00099413820235554,-0.00099412777482363,0.00099413803841099,0.66831883242412,122718,2924,0.0042254390366835,0.0078494351088847,0.0042254390366838,17.880791012122,5.824632809698e-05,5.824632809698e-05,5.824632809698e-05,2938292.6457061,0.016434501884607
24919200,0.99980557336085,0.017696300360155,0.0052529714853035,0.0071903573895478,0.0052529714853038,-0.0010156540817492,0.0010156612905849,3.4210516800357e-09,3.4209723976035e-09,-4.3352624758727e-10,7.2353153687879e-09,-0.0011550829131911,0.0011550880253258,-0.0011550829250175,0.0011550880370225,-0.0011550803686062,0.0011550906159523,-0.0011550803875336,0.0011550906347446,-0.00099437367528702,0.00099438298886972,-0.00099437381357914,0.00099438312690028,1.6405203789932e-09,-5.7877282830503e-09,3.4893696212709e-09,-7.5139581691475e-09,-0.001891555932959,0.0018915519042995,-0.0020971352277028,0.0020971373974654,-0.002097138582818,0.0020971334206309,-0.0020971374204828,0.0020971346317361,-0.0020971407753954,0.0020971306547154,-0.0016526537691985,0.0016526580758137,-0.0016526647291518,0.001652647434888,-0.0016526561394333,0.0016526556330282,-0.0016526636559856,0.001652648559278,3.6608430943115e-09,3.6607642729364e-09,-0.0010156538428878,0.0010156615294462,-1.8610766857377e-09,9.2300443895348e-09,-0.0011550832812533,0.0011550876965076,-0.0011550795626195,0.0011550913974952,-0.0011550832774872,0.0011550876926116,-0.0011550795823377,0.0011550914170786,-0.00099437299774082,0.00099438393784012,-0.00099437283912955,0.0009943837794895,0.63528366532354,122718,2924,0.0042250622909191,0.0078494135459992,0.0042250622909191,18.351420008867,6.201136007094e-05,6.201136007094e-05,6.201136007094e-05,2941307.7195277,0.016433703212905
25419200,0.99982706031058,0.017696657131829,0.0052530754338344,0.0071905062641596,0.0052530754338347,-0.0010185263221277,0.0010185313250853,2.565940735781e-09,2.565861221322e-09,-1.1072584525732e-09,6.1841108828928e-09,-0.0011565185583624,0.0011565218881468,-0.0011565187257738,0.0011565220554284,-0.0011565161402349,0.0011565243509851,-0.0011565163121916,0.0011565245228067,-0.00099736575824729,0.00099737314633698,-0.00099736591816778,0.00099737330599549,1.5144811500522e-09,-5.5574028965092e-09,3.2860065576376e-09,-7.2108329855314e-09,-0.001892985197031,0.001892981268564,-0.0020999077836119,0.0020999097482061,-0.0020999111491959,0.0020999061359855,-0.0020999100359549,0.0020999072965344,-0.0020999134013374,0.0020999036841284,-0.0016529204160365,0.0016529244506926,-0.0016529309873492,0.0016529144077385,-0.0016529226879253,0.0016529221079813,-0.0016529299597828,0.0016529154852838,2.8023035190842e-09,2.8022249410674e-09,-0.0010185260868106,0.0010185315604024,-2.4658725196989e-09,8.1012339442987e-09,-0.00115651890339,0.0011565215798308,-0.0011565153639145,0.0011565251050709,-0.0011565190557163,0.0011565217320273,-0.001156515536478,0.0011565252775,-0.00099736513062024,0.0009973740890221,-0.00099736495083703,0.00099737390949845,0.69486035614526,122718,2924,0.0042369639087583,0.0078553565542867,0.0042369639087586,19.918372690163,7.4546981521307e-05,7.4546981521307e-05,7.4546981521307e-05,2954672.62002,0.016463925401604
25919200,0.99984705928521,0.017696986094447,0.0052531710790864,0.0071906439362743,0.0052531710790867,-0.0010191804480655,0.0010191868942523,3.1206784347762e-09,3.1205990021681e-09,-5.6952964242764e-10,6.7655587914112e-09,-0.0011601485969039,0.0011601531435418,-0.0011601486603265,0.0011601532068346,-0.0011601461605249,0.001160155621858,-0.0011601462311154,0.0011601556923134,-0.00099752691520059,0.00099753548780542,-0.00099752705837928,0.00099753563072188,1.5467815365329e-09,-5.5563900545097e-09,3.2575781934576e-09,-7.1496088744742e-09,-0.0018985998998734,0.0018985960042012,-0.0021034515613021,0.0021034535542828,-0.0021034547822976,0.0021034498406135,-0.002103453706261,0.0021034509602434,-0.002103456927053,0.0021034472463869,-0.0016601790296903,0.0016601829933574,-0.0016601894396434,0.0016601729712332,-0.001660181223748,0.0016601807327866,-0.0016601884498432,0.0016601740080987,3.3392125087287e-09,3.3391338390024e-09,-0.0010191802305628,0.001019187111755,-1.889323615931e-09,8.6035896304806e-09,-0.001160148939199,0.0011601528372961,-0.0011601454204257,0.0011601563397276,-0.0011601489881505,0.0011601528861177,-0.0011601454916663,0.0011601564108336,-0.00099752630824398,0.00099753637630147,-0.00099752614554848,0.00099753621386611,0.68893725004233,122718,2924,0.0042397132364971,0.0078785005204822,0.0042397132364974,20.73352059521,8.1068164761678e-05,8.1068164761678e-05,8.1068164761678e-05,2899276.6514212,0.016493068198545
26419200,0.99986442115682,0.017697285680208,0.0052532586292844,0.0071907684216386,0.0052532586292847,-0.0010172078080172,0.0010172166183602,4.0383554671173e-09,4.0382760707423e-09,1.9950262189435e-10,7.8433052969953e-09,-0.0011582278508489,0.0011582343469564,-0.0011582277470266,0.0011582342430043,-0.0011582253094863,0.0011582369302898,-0.0011582252159439,0.0011582368366123,-0.00099589739562257,0.00099590800295091,-0.00099589751996773,0.00099590812703414,1.634221285838e-09,-5.7543511845801e-09,3.3297235855242e-09,-7.3281715922117e-09,-0.0018978014213813,0.001897797419004,-0.0021030552728078,0.0021030573592253,-0.0021030583911931,0.0021030533549703,-0.0021030573261169,0.0021030544634308,-0.0021030604442991,0.0021030504589892,-0.0016589127895169,0.0016589167897707,-0.0016589233411014,0.001658906426262,-0.0016589149616031,0.0016589145513617,-0.0016589223647701,0.001658907449471,4.2569386698722e-09,4.2568599852548e-09,-0.001017207590501,0.0010172168358763,-1.1012416801755e-09,9.6622512454984e-09,-0.0011582281883142,0.0011582340472971,-0.0011582245741889,0.0011582376415222,-0.0011582280698571,0.0011582339287101,-0.0011582244815392,0.0011582375487378,-0.00099589677578018,0.0009959088663812,-0.00099589663132063,0.0009959087221817,0.72144033672693,122718,2924,0.0042315386571392,0.0078751965367304,0.0042315386571393,20.399234652745,7.8393877221962e-05,7.8393877221962e-05,7.8393877221962e-05,2894315.117091,0.01647308531456
26919200,0.99988058463892,0.017697555891762,0.0052533373041649,0.0071908812834323,0.0052533373041651,-0.0010176985097877,0.0010177048828947,3.0959441730307e-09,3.0958651390736e-09,-6.8633798828308e-10,6.8373261565557e-09,-0.0011602897340336,0.0011602941595343,-0.0011602898052422,0.0011602942306134,-0.0011602872376269,0.0011602967003914,-0.0011602873156043,0.0011602967782338,-0.00099638885928898,0.00099639744068073,-0.00099638900580108,0.00099639758693143,1.6133678558959e-09,-5.678563354258e-09,3.2944898137153e-09,-7.2394881520181e-09,-0.0019013660136258,0.0019013620647313,-0.0021057375808439,0.0021057396230584,-0.0021057408499528,0.0021057358755858,-0.0021057397932952,0.0021057369747227,-0.0021057430622004,0.0021057332270628,-0.0016630653860468,0.0016630693593801,-0.0016630759231329,0.0016630592147087,-0.0016630675403812,0.0016630671397211,-0.001663074954744,0.0016630602293041,3.3095141233377e-09,3.3094350793085e-09,-0.0010176982972707,0.0010177050954117,-1.9800620653454e-09,8.6381380503552e-09,-0.0011602900716481,0.001160293859004,-0.0011602865116304,0.001160297402888,-0.0011602901284482,0.0011602939156739,-0.0011602865904313,0.0011602974815541,-0.00099638827092199,0.00099639831715377,-0.00099638810457015,0.00099639815106278,0.69956232487338,122718,2924,0.0042335899259967,0.0078898949801812,0.0042335899259969,21.286132810392,8.5489062483133e-05,8.5489062483133e-05,8.5489062483133e-05,2861429.7662595,0.016492207262734
27419200,0.99989558894834,0.01769780471353,0.0052534097589187,0.0071909851956928,0.005253409758919,-0.0010187540932719,0.0010187602947272,3.0286427774502e-09,3.028563705503e-09,-7.2302243649727e-10,6.7353187105779e-09,-0.0011606395428131,0.0011606438465524,-0.0011606396249612,0.0011606439285709,-0.0011606370677483,0.0011606463656032,-0.0011606371565546,0.0011606464542748,-0.00099770227038363,0.00099771068913601,-0.00099770241843396,0.00099771083692539,1.5820627057174e-09,-5.6454030373418e-09,3.2494368248179e-09,-7.1930263055133e-09,-0.0019022512071255,0.0019022472597343,-0.0021075498658478,0.0021075518571373,-0.0021075531191212,0.0021075481553765,-0.002107552071719,0.0021075492455096,-0.0021075553247895,0.0021075455435621,-0.00166306632016,0.001663070226832,-0.0016630767787588,0.0016630601828355,-0.0016630684566719,0.0016630680246903,-0.0016630758188862,0.0016630611890833,3.2441754649348e-09,3.2440964568641e-09,-0.0010187538788297,0.0010187605091692,-2.0009601475704e-09,8.5246205653027e-09,-0.0011606398737335,0.0011606435523777,-0.0011606363448564,0.0011606470653446,-0.0011606399414859,0.0011606436200001,-0.0011606364344622,0.0011606471548157,-0.00099770168621622,0.00099771156452432,-0.00099770151829281,0.00099771139686163,0.69373343537096,122718,2924,0.0042379668581024,0.0078935703168603,0.0042379668581023,22.249984835229,9.3199878681832e-05,9.3199878681832e-05,9.3199878681832e-05,2864604.5462513,0.016504830566991
27919200,0.99990918851011,0.017698037216773,0.0052534776925471,0.0071910818316782,0.0052534776925473,-0.0010193933539531,0.0010194001536743,3.2597025182117e-09,3.2596234989374e-09,-5.0552524943115e-10,6.9815706545736e-09,-0.0011612269520775,0.0011612317642378,-0.0011612269910891,0.0011612318031205,-0.001161224466157,0.001161234293422,-0.0011612245127618,0.0011612343398914,-0.00099834863243415,0.00099835754805274,-0.00099834877500015,0.00099835769035862,1.5871420263711e-09,-5.663070458026e-09,3.2424693936093e-09,-7.1982871845029e-09,-0.0019036062477126,0.0019036022880981,-0.0021092836349039,0.0021092856272154,-0.002109286840758,0.0021092818729413,-0.0021092858012468,0.002109282954928,-0.0021092890068993,0.002109279200468,-0.0016640002380669,0.0016640041210054,-0.0016640106689857,0.0016639940551479,-0.0016640023587663,0.0016640019350026,-0.0016640097171093,0.00166399505316,3.4744123456319e-09,3.4743332852429e-09,-0.0010193931403586,0.001019400367269,-1.7720555985649e-09,8.7575028272035e-09,-0.0011612272797718,0.0011612314733412,-0.001161223748109,0.0011612349882021,-0.0011612273044267,0.0011612314978662,-0.0011612237955377,0.0011612350354973,-0.00099834804771166,0.0009983584130017,-0.00099834788520528,0.0009983582507574,0.71478774169959,122718,2924,0.0042406246263013,0.00789917393763,0.0042406246263018,22.917860389467,9.8542883115735e-05,9.8542883115735e-05,9.8542883115735e-05,2858714.8643819,0.016515928242359
28419200,0.99992135169401,0.017698253960256,0.0052535412455775,0.0071911714691004,0.0052535412455778,-0.0010195097431381,0.0010195168362669,3.3730647598083e-09,3.372985720032e-09,-4.162313967511e-10,7.1231939970777e-09,-0.0011624650645632,0.001162470107093,-0.0011624650836697,0.0011624701260699,-0.0011624625611541,0.0011624726538273,-0.0011624625882079,0.001162472680746,-0.00099834670093882,0.00099835587284702,-0.00099834684097047,0.00099835601261695,1.6111745417825e-09,-5.6891941232601e-09,3.259930080962e-09,-7.2174284179278e-09,-0.0019061242920814,0.0019061203307297,-0.0021112495848172,0.002111251606415,-0.0021112527791048,0.002111247813845,-0.0021112517435259,0.0021112488912568,-0.0021112549376104,0.0021112450984997,-0.0016668732495826,0.0016668771492133,-0.0016668837000055,0.0016668670321176,-0.0016668753616937,0.0016668749725448,-0.0016668827526114,0.0016668680251526,3.5841998014284e-09,3.5841207592365e-09,-0.001019509533111,0.0010195170462941,-1.6800859497628e-09,8.8885061171439e-09,-0.0011624653936892,0.0011624698149043,-0.0011624618484165,0.0011624733430467,-0.0011624653985234,0.0011624698196082,-0.0011624618763225,0.0011624733708174,-0.00099834611941249,0.00099835672951218,-0.00099834595946132,0.00099835656982161,0.74447172537877,122718,2924,0.004241123401583,0.0079095577538504,0.0042411234015834,23.440902661495,0.00010272722129196,0.00010272722129196,0.00010272722129196,2834633.8929916,0.016527506763986
28919200,0.99993219268085,0.017698439056466,0.0052535952956691,0.0071912484651276,0.0052535952956694,-0.0010193390704546,0.0010193461247428,3.3579026600735e-09,3.3578234706112e-09,-4.5039686181555e-10,7.1302161829665e-09,-0.0011636979273469,0.0011637029163218,-0.0011636979505654,0.0011637029394106,-0.0011636954109108,0.001163705476579,-0.0011636954419112,0.0011637055074445,-0.00099817731417914,0.00099818646795603,-0.00099817745457155,0.00099818660808674,1.6333908937353e-09,-5.709088745493e-09,3.2799743583289e-09,-7.2348250900009e-09,-0.0019088204382282,0.001908816479467,-0.0021132073395848,0.0021132093889833,-0.0021132105487637,0.0021132055874583,-0.0021132095143092,0.0021132066632686,-0.0021132127232842,0.0021132028615562,-0.0016700578453759,0.0016700617707916,-0.0016700683303595,0.0016700516144734,-0.0016700599545889,0.0016700595975353,-0.0016700673846074,0.0016700526055252,3.5660135708215e-09,3.565934668549e-09,-0.001019338863436,0.0010193463317615,-1.7153439495374e-09,8.8900201957804e-09,-0.0011636982588282,0.0011637026218953,-0.0011636947015181,0.0011637061622547,-0.0011636982678402,0.0011637026307773,-0.0011636947333863,0.0011637061939881,-0.0009981767367227,0.00099818732127513,-0.00099817657644742,0.00099818716126042,0.71381037155251,122718,2924,0.0042404333793719,0.0079206699347296,0.0042404333793722,23.983159070177,0.00010706527256142,0.00010706527256142,0.00010706527256142,2805987.256423,0.016537409392061
29419200,0.9999419368594,0.017698590167944,0.0052536390527173,0.0071913120625091,0.0052536390527175,-0.0010202442062025,0.0010202507681247,3.1686361769189e-09,3.1685569818952e-09,-6.2492508171221e-10,6.9204312440465e-09,-0.001163506034035,0.0011635106217264,-0.0011635060911809,0.0011635106787425,-0.0011635035302089,0.001163513169959,-0.001163503594462,0.0011635132340746,-0.00099931588663129,0.0009993246293495,-0.00099931603267465,0.00099932477513173,1.6105877457087e-09,-5.7000087181169e-09,3.255011052882e-09,-7.223447619163e-09,-0.0019089969517687,0.0019089929794574,-0.0021145984378513,0.0021146004469562,-0.0021146016746391,0.002114596701639,-0.0021146006422211,0.0021145977760962,-0.0021146038788034,0.0021145940305911,-0.0016691324470805,0.0016691363355198,-0.0016691429245516,0.0016691262410021,-0.0016691345532581,0.0016691341645217,-0.0016691419804696,0.0016691272308715,3.3805099830512e-09,3.3804311000759e-09,-0.0010202439954559,0.001020250978871,-1.8830138875124e-09,8.6817688058617e-09,-0.0011635063610084,0.00116351033182,-0.0011635028183523,0.0011635138581728,-0.0011635064038583,0.0011635103745406,-0.001163502883472,0.0011635139231585,-0.00099931531198195,0.00099932549117647,-0.00099931514591228,0.00099932532536543,0.64935523637827,122718,2924,0.0042441810863462,0.0079214253233844,0.0042441810863457,24.777697375275,0.0001134215790022,0.0001134215790022,0.0001134215790022,2815887.3973346,0.016545782799209
29919200,0.99995058308078,0.017698732244724,0.0052536805133895,0.0071913712179444,0.0052536805133898,-0.0010219451836277,0.0010219519925707,3.2656710491051e-09,3.2655919093663e-09,-5.4062345777299e-10,7.0246389878067e-09,-0.0011622390412308,0.0011622438561501,-0.0011622390785105,0.0011622438933003,-0.0011622365303018,0.0011622464115722,-0.0011622365750945,0.0011622464562301,-0.0010011460535157,0.0010011550068179,-0.0010011461992684,0.0010011551523096,1.5922142918875e-09,-5.7337793282715e-09,3.2295576307018e-09,-7.249144189621e-09,-0.0019070867533237,0.0019070827298963,-0.0021152127085934,0.002115214675456,-0.0021152159273658,0.0021152109090208,-0.0021152149006738,0.0021152119787121,-0.0021152181192451,0.0021152082120918,-0.0016650809610642,0.0016650847923649,-0.0016650914386889,0.0016650746984517,-0.0016650830574293,0.001665082630221,-0.0016650905001807,0.0016650756833401,3.4844091317902e-09,3.4843301952771e-09,-0.0010219449661132,0.0010219522100853,-1.7826360961027e-09,8.7847924723857e-09,-0.0011622393590163,0.0011622435757954,-0.0011622358148968,0.0011622471030806,-0.0011622393818281,0.0011622435984772,-0.0011622358606223,0.0011622471486714,-0.0010011454745911,0.0010011558723089,-0.0010011453084135,0.0010011557063915,0.68704427799646,122718,2924,0.0042512132105791,0.0079136005165775,0.0042512132105793,25.464426440701,0.00011891541152561,0.00011891541152561,0.00011891541152561,2857240.923333,0.016552100910172
30419200,0.99995819717947,0.0176988452065,0.0052537131649109,0.0071914188766784,0.0052537131649112,-0.0010226040783609,0.0010226108999462,3.2691062396219e-09,3.2690269276204e-09,-5.3399305104428e-10,7.0303971281936e-09,-0.0011650466921003,0.0011650515020138,-0.001165046729914,0.0011650515396986,-0.0011650441814277,0.0011650540568664,-0.0011650442267546,0.0011650541020596,-0.0010013155876466,0.0010013245481976,-0.0010013157320967,0.0010013246923864,1.6124343603548e-09,-5.7144775823971e-09,3.2477191465859e-09,-7.2285495258327e-09,-0.0019114413968669,0.0019114374121747,-0.0021181020531244,0.0021181040573528,-0.0021181052684285,0.0021181002892522,-0.002118104241999,0.0021181013575738,-0.0021181074570981,0.0021180975892846,-0.0016706422372278,0.0016706461047358,-0.0016706527037781,0.0016706360046359,-0.0016706443315615,0.0016706439458992,-0.0016706517657162,0.001670636988266,3.4807269247019e-09,3.4806481326531e-09,-0.0010226038679118,0.0010226111103956,-1.7831249215812e-09,8.7819776750137e-09,-0.0011650470163142,0.0011650512149147,-0.0011650434729335,0.0011650547416295,-0.0011650470398592,0.001165051238328,-0.0011650435191494,0.001165054787707,-0.0010013150147853,0.0010013254050686,-0.0010013148502174,0.0010013252407614,0.62192905247841,122718,2924,0.0042539700846482,0.0079315540922866,0.0042539700846489,26.129759606549,0.00012423807685239,0.00012423807685239,0.00012423807685239,2816258.276813,0.016575978176361
30919200,0.9999649685736,0.017698955180607,0.0052537453019088,0.0071914645767896,0.005253745301909,-0.0010250432610584,0.0010250494445543,3.0244105599253e-09,3.0243311567173e-09,-7.3205177393845e-10,6.7295600582066e-09,-0.0011643602554511,0.0011643645650418,-0.0011643603375189,0.0011643646469799,-0.0011643577792672,0.0011643670853654,-0.001164357868049,0.0011643671740121,-0.0010039604170742,0.001003968827061,-0.0010039605697554,0.0010039689794806,1.5576622286058e-09,-5.6711023884795e-09,3.1808963595644e-09,-7.1737398917588e-09,-0.0019099179447781,0.0019099139482359,-0.0021190697748201,0.0021190716894217,-0.0021190730034866,0.0021190680206936,-0.0021190719856232,0.0021190690813142,-0.0021190752140889,0.0021190654124013,-0.0016670750534892,0.0016670788241046,-0.0016670854415182,0.0016670688819404,-0.0016670771322766,0.0016670766799333,-0.0016670845108164,0.0016670698587546,3.2427456078807e-09,3.242666946349e-09,-0.0010250430439974,0.0010250496616154,-1.9617614389464e-09,8.4762087273604e-09,-0.0011643605687889,0.0011643642884038,-0.0011643570692002,0.0011643677722109,-0.0011643606365124,0.0011643643559975,-0.0011643571588467,0.001164367861723,-0.0010039598499345,0.0010039696947662,-0.0010039596769478,0.001003969522039,0.67884298702064,122718,2924,0.0042640586764516,0.0079253306131983,0.0042640586764518,27.118574878146,0.00013214859902517,0.00013214859902517,0.00013214859902517,2859540.2238285,0.016590137075307
31419200,0.99997102652802,0.017699054565135,0.005253774342447,0.0071915058802411,0.0052537743424472,-0.0010269437202428,0.0010269491553625,2.7305940373111e-09,2.7305145593603e-09,-9.1527737568937e-10,6.32506036263e-09,-0.0011692689210798,0.0011692726320481,-0.0011692690565286,0.0011692727673672,-0.0011692665173576,0.0011692750776055,-0.0011692666589591,0.0011692752190718,-0.0010052557996558,0.0010052635191024,-0.001005255954031,0.0010052636732154,1.5140513891223e-09,-5.5026725950118e-09,3.1127297184202e-09,-6.9846893975922e-09,-0.0019165148303446,0.0019165109549185,-0.0021234641022023,0.0021234659756596,-0.0021234673041096,0.0021234624558898,-0.0021234662999175,0.0021234635007353,-0.0021234695016217,0.0021234599807789,-0.0016755390041211,0.0016755427159318,-0.0016755491624292,0.0016755330466538,-0.0016755410532347,0.0016755406037776,-0.0016755482436316,0.0016755340100451,2.9370398897581e-09,2.9369612874801e-09,-0.0010269435150052,0.0010269493606002,-2.1380864466326e-09,8.0383568547563e-09,-0.0011692692376572,0.0011692723502315,-0.0011692658263342,0.0011692757470378,-0.0011692693592823,0.0011692724717268,-0.0011692659685884,0.0011692758891576,-0.0010052552530634,0.0010052643698746,-0.0010052550792074,0.0010052641962785,0.68615599533331,122718,2924,0.0042719713418501,0.0079525332212988,0.0042719713418503,28.435429503638,0.0001426834360291,0.0001426834360291,0.0001426834360291,2802479.9895592,0.016633908689546
31919200,0.99997624454113,0.01769914136968,0.0052537997545155,0.007191541860649,0.0052537997545157,-0.0010277369197856,0.0010277433365246,3.1088263716188e-09,3.1087469353341e-09,-5.5406970778421e-10,6.7239570229638e-09,-0.0011705084265395,0.001170512973875,-0.0011705084907244,0.0011705130379305,-0.0011705060080394,0.0011705154328616,-0.0011705060798998,0.0011705155045868,-0.0010061980458587,0.0010062065757331,-0.0010061981925957,0.0010062067222079,1.5231298995447e-09,-5.5219433893611e-09,3.1098906163293e-09,-6.9917062405854e-09,-0.0019185721912003,0.0019185683059266,-0.0021253954559323,0.0021253973404836,-0.0021253985811324,0.0021253937310474,-0.0021253975846299,0.0021253947677985,-0.002125400709627,0.0021253911581754,-0.0016776573774473,0.0016776610703969,-0.0016776674964146,0.0016776513576521,-0.0016776594108803,0.0016776589743326,-0.0016776665854748,0.0016776523128975,3.3136195842073e-09,3.3135409637516e-09,-0.0010277367162102,0.0010277435401003,-1.7665411676152e-09,8.4231736970194e-09,-0.0011705087407116,0.0011705126944821,-0.0011705053225589,0.0011705160966521,-0.001170508791132,0.0011705127447724,-0.0011705053950938,0.0011705161690527,-0.0010061974973201,0.0010062074131319,-0.0010061973310821,0.0010062072471539,0.69501900300658,122718,2924,0.0042752701385665,0.0079610257790287,0.0042752701385672,29.268223213642,0.00014934578570914,0.00014934578570914,0.00014934578570914,2787926.3991751,0.016649250433365
32419200,0.99998052921808,0.017699216177977,0.0052538217523439,0.0071915726732892,0.0052538217523442,-0.0010269219787983,0.001026930073261,3.7580906426366e-09,3.7580112119994e-09,-2.1610035530454e-11,7.5005078767506e-09,-0.0011702445965067,0.0011702505143953,-0.0011702445413391,0.0011702504590979,-0.0011702420955926,0.0011702530561637,-0.0011702420502182,0.0011702530106542,-0.0010054687565999,0.0010054787353093,-0.0010054688905998,0.0010054788690472,1.5990255493377e-09,-5.6741326978468e-09,3.1851453834655e-09,-7.140169190203e-09,-0.001919280181342,0.001919276222614,-0.0021259495967568,0.00212595157305,-0.0021259526616707,0.002125947739996,-0.002125951666145,0.002125948775555,-0.002125954730856,0.0021259449423144,-0.001678415776993,0.0016784195348652,-0.0016784260384516,0.0016784095317666,-0.0016784178081462,0.001678417441311,-0.0016784251306174,0.0016784104837363,3.9619570772728e-09,3.9618784396797e-09,-0.0010269217761555,0.0010269302759039,-1.2317940453022e-09,9.1953785124515e-09,-0.0011702449117001,0.0011702502353784,-0.0011702414108482,0.0011702537177722,-0.0011702448426425,0.001170250166191,-0.0011702413663221,0.0011702536731116,-0.001005468197075,0.0010054795580094,-0.001005468043175,0.0010054794043694,0.72871755447795,122718,2924,0.0042719011917959,0.0079639383268115,0.0042719011917962,29.299061390828,0.00014959249112663,0.00014959249112663,0.00014959249112663,2774780.4433223,0.016645363793334
32919200,0.99998402001188,0.017699272794095,0.0052538382854274,0.0071915962232395,0.0052538382854277,-0.0010255005841467,0.001025509025582,3.8939617103486e-09,3.8938823249945e-09,2.6197137279997e-11,7.7332024238566e-09,-0.0011703718320363,0.0011703779798475,-0.0011703717558703,0.0011703779035517,-0.0011703692713878,0.0011703805833056,-0.0011703692049963,0.0011703805167789,-0.0010040487472281,0.0010040590730023,-0.0010040488792962,0.001004059204808,1.6694809045632e-09,-5.7860839360487e-09,3.2683372141886e-09,-7.2626407371343e-09,-0.0019208363760052,0.0019208323777517,-0.0021266096030406,0.0021266116694314,-0.0021266127076429,0.0021266077388895,-0.002126611704053,0.0021266087823951,-0.0021266148084515,0.0021266048516659,-0.0016806042039715,0.0016806080632662,-0.0016806146452786,0.0016805978371461,-0.001680606250666,0.0016806059542629,-0.0016806137312885,0.0016805987952266,4.0961767405664e-09,4.0960980841466e-09,-0.0010255003831265,0.0010255092266022,-1.1967386638082e-09,9.4374275217769e-09,-0.0011703721535012,0.001170377695683,-0.0011703685834584,0.0011703812469678,-0.0011703720633415,0.0011703776053933,-0.0011703685180262,0.0011703811814011,-0.0010040481835154,0.0010040598959181,-0.0010040480313344,0.0010040597439965,0.67786407484292,122718,2924,0.00426602405262,0.0079703336288663,0.0042660240526202,29.174751552563,0.00014859801242051,0.00014859801242051,0.00014859801242051,2746575.7890774,0.016639927154359
33419200,0.99998690462483,0.017699322661543,0.0052538529561363,0.0071916167492699,0.0052538529561366,-0.0010255075190071,0.001025515478549,3.711408039385e-09,3.7113285457023e-09,-2.3341132727505e-10,7.6222315617638e-09,-0.0011683864669326,0.0011683921737763,-0.0011683864245506,0.0011683921312646,-0.0011683838602008,0.001168394826658,-0.0011683838265467,0.0011683947928688,-0.0010043783923378,0.0010043883809445,-0.0010043785288785,0.0010043885172232,1.6983525322018e-09,-5.9075330950955e-09,3.32893489303e-09,-7.4127339348901e-09,-0.0019187587020916,0.0019187546141223,-0.0021263396727482,0.0021263417641308,-0.0021263428846468,0.0021263378074072,-0.0021263418622674,0.0021263388716259,-0.0021263450739638,0.0021263349147163,-0.0016769526115427,0.0016769565404881,-0.0016769632871451,0.0016769461321727,-0.0016769546978292,0.0016769543897292,-0.0016769623558763,0.0016769471089592,3.9228359423654e-09,3.9227573590583e-09,-0.001025507308802,0.0010255156887541,-1.4742592255103e-09,9.3651961064568e-09,-0.0011683867901896,0.0011683918894126,-0.0011683831532492,0.0011683955080559,-0.0011683867333654,0.0011683918324586,-0.0011683831206963,0.0011683954753686,-0.0010043778142427,0.0010043892270319,-0.0010043776569569,0.0010043890700058,0.72119041612926,122718,2924,0.0042660360203125,0.0079617911180033,0.0042660360203128,29.315946088867,0.00014972756871094,0.00014972756871094,0.00014972756871094,2773637.6688036,0.016631245885892
33919200,0.99998935562666,0.017699364590774,0.0052538652665715,0.0071916340576309,0.0052538652665718,-0.0010262141731632,0.0010262208341481,3.2085059529963e-09,3.2084264160694e-09,-6.6679787923287e-10,7.0483042952008e-09,-0.0011711093570637,0.0011711139729792,-0.0011711094095447,0.0011711140253304,-0.0011711067986825,0.0011711165776062,-0.0011711068580101,0.0011711166367986,-0.0010047684220313,0.0010047773039877,-0.0010047685695946,0.0010047774512886,1.6765994377439e-09,-5.8030156527963e-09,3.3251849632936e-09,-7.3287343897833e-09,-0.0019228231091153,0.0019228191015207,-0.0021290333380328,0.0021290354251765,-0.0021290366230587,0.0021290316127282,-0.0021290355879394,0.0021290326894801,-0.0021290388727619,0.0021290288768447,-0.0016820978456169,0.0016821018154298,-0.0016821084874999,0.0016820915406002,-0.0016820999565543,0.0016820996402185,-0.0016821075424375,0.0016820925311176,3.4165323808398e-09,3.41645383004e-09,-0.0010262139662957,0.0010262210410157,-1.9317952790979e-09,8.8083099156774e-09,-0.0011711096896106,0.0011711136782979,-0.0011711060888033,0.0011711172629764,-0.0011711097278033,0.0011711137163606,-0.0011711061490613,0.0011711173230999,-0.0010047678516788,0.0010047781645738,-0.001004767683891,0.0010047779970459,0.71426717980015,122718,2924,0.0042689877121498,0.0079785458238024,0.00426898771215,30.068900420479,0.00015575120336383,0.00015575120336383,0.00015575120336383,2735660.7563984,0.016654300432582
34419200,0.99999148470885,0.017699400268892,0.005253875728401,0.0071916488120899,0.0052538757284013,-0.0010283213547433,0.0010283266336749,2.6737709647169e-09,2.6736914261768e-09,-1.0892495640981e-09,6.3911333339696e-09,-0.0011730459920105,0.0011730494949114,-0.001173046142039,0.00117304964481,-0.0011730435122518,0.0011730520201762,-0.0011730436674612,0.0011730521752503,-0.0010070595039533,0.0010070671811483,-0.0010070596634486,0.0010070673403813,1.5986658710315e-09,-5.6590951021763e-09,3.2450255373444e-09,-7.1853888965368e-09,-0.0019252304563742,0.0019252265122268,-0.002131785027174,0.0021317870179541,-0.0021317883491305,0.0021317834025324,-0.0021317873151391,0.0021317844785013,-0.0021317906368928,0.0021317808628931,-0.0016841520936528,0.0016841559855051,-0.0016841625820571,0.0016841459908595,-0.0016841542029034,0.0016841538115316,-0.0016841616360127,0.0016841469826632,2.8831429662078e-09,2.8830644317062e-09,-0.0010283211465334,0.0010283268418848,-2.3527270276866e-09,8.1527562312114e-09,-0.0011730463221094,0.001173049201314,-0.001173042802352,0.0011730527069878,-0.001173046457964,0.0011730493370386,-0.0011730429583205,0.0011730528628218,-0.0010070589444466,0.0010070680549471,-0.0010070587650754,0.0010070678758359,0.69956537884576,122718,2924,0.0042777280610281,0.0079884995853834,0.0042777280610284,31.477728147105,0.00016702182517684,0.00016702182517684,0.00016702182517684,2729520.3174455,0.016682186875995
34919200,0.9999933587012,0.017699432465421,0.0052538851972782,0.0071916620708641,0.0052538851972785,-0.0010321772406361,0.0010321810398746,2.1006596329924e-09,2.1005801127673e-09,-1.4939413727654e-09,5.6375135070674e-09,-0.0011763453447559,0.0011763476845103,-0.0011763455989593,0.0011763479385833,-0.0011763429802838,0.0011763500922461,-0.001176343238098,0.0011763503499248,-0.0010109806593103,0.0010109870131358,-0.0010109808322383,0.0010109871858011,1.4842296280978e-09,-5.439127680677e-09,3.1077868278927e-09,-6.9471339429444e-09,-0.0019286396737208,0.0019286358310149,-0.00213576922875,0.0021357710732493,-0.0021357725466533,0.0021357677144385,-0.002135771526579,0.0021357687762514,-0.0021357748442795,0.0021357654172541,-0.0016870415759944,0.001687045315852,-0.0016870517687733,0.0016870357577585,-0.0016870436576741,0.001687043169711,-0.001687050833333,0.001687036738779,2.3094584570302e-09,2.3093799091191e-09,-0.0010321770330268,0.0010321812474837,-2.7392018790864e-09,7.3794610974894e-09,-0.0011763456672055,0.0011763473962858,-0.0011763422791982,0.0011763507724683,-0.0011763459075339,0.001176347636484,-0.0011763425375245,0.0011763510306598,-0.0010109801205507,0.0010109878933512,-0.0010109799283242,0.0010109877013839,0.7168010264266,122718,2924,0.0042937190013256,0.0080026047195631,0.0042937190013253,33.570270677058,0.00018376216541646,0.00018376216541646,0.00018376216541646,2727587.1848563,0.016729037356367
35419200,0.99999497895492,0.01769945865676,0.0052538928608309,0.0071916729350983,0.0052538928608312,-0.0010363585136347,0.0010363616743133,1.8498752296367e-09,1.849795717205e-09,-1.5880772349868e-09,5.221649326315e-09,-0.0011813170756557,0.0011813189646905,-0.0011813173719866,0.0011813192608916,-0.0011813148152128,0.0011813212646322,-0.0011813151151082,0.0011813215643922,-0.0010150306028304,0.001015036323298,-0.0010150307780661,0.0010150364982717,1.3838644250094e-09,-5.2239401528024e-09,2.9672774607104e-09,-6.6964559186919e-09,-0.0019341896226477,0.0019341858905396,-0.0021408245592041,0.0021408262767647,-0.002140827799689,0.0021408231020188,-0.0021408268040436,0.0021408241379554,-0.0021408300443251,0.0021408209630226,-0.0016929719406439,0.0016929755128358,-0.001692981779295,0.0016929663670507,-0.0016929739725221,0.0016929734181292,-0.0016929808652016,0.0016929673256291,2.0523878343722e-09,2.0523092840844e-09,-0.0010363583123275,0.0010363618756206,-2.8047718652624e-09,6.9206544551457e-09,-0.0011813173902815,0.0011813186818309,-0.001181314133809,0.0011813219273782,-0.0011813176732269,0.0011813189646464,-0.0011813144339799,0.0011813222274148,-0.0010150300849826,0.0010150371874908,-0.0010150298911575,0.0010150369939254,0.6752186950068,122718,2924,0.0043110739047021,0.0080255271450775,0.0043110739047023,35.92588181236,0.00020260705449888,0.00020260705449888,0.00020260705449888,2703711.6859094,0.016787642197431
35919200,0.99999628959382,0.017699480723794,0.0052538993512262,0.0071916820213415,0.0052538993512265,-0.001039605924379,0.0010396106189832,2.4397384882705e-09,2.4396588105158e-09,-9.6651475288958e-10,5.7813591719752e-09,-0.0011828218030302,0.0011828250359121,-0.0011828219871144,0.0011828252198664,-0.0011828195578749,0.0011828273166025,-0.0011828197482841,0.0011828275068765,-0.001018423609219,0.001018430554789,-0.001018423772694,0.0010184307180017,1.350613019817e-09,-5.1805671525825e-09,2.8607083150305e-09,-6.5808158914741e-09,-0.001935336579152,0.0019353328563233,-0.002143451327713,0.0021434529728907,-0.0021434543765979,0.0021434497359912,-0.0021434534280096,0.0021434507231128,-0.0021434564766925,0.0021434474860274,-0.001692870674584,0.0016928740567418,-0.0016928802338172,0.0016928650747926,-0.0016928726116798,0.0016928720589044,-0.0016928793655642,0.0016928659860304,2.637787843495e-09,2.6377094726732e-09,-0.0010396057276497,0.0010396108157126,-2.1164225647434e-09,7.4025091276168e-09,-0.0011828220972042,0.0011828247724805,-0.0011828189054463,0.0011828279510175,-0.0011828222682673,0.0011828249434139,-0.0011828190961462,0.0011828281415832,-0.001018423108286,0.0010184313785891,-0.0010184229262535,0.0010184311968158,0.70236605575869,122718,2924,0.0043245340843836,0.0080303091824319,0.0043245340843839,37.533874624085,0.00021547099699268,0.00021547099699268,0.00021547099699268,2722459.256285,0.016819860900475
36419200,0.99999725630248,0.017699496769019,0.0052539040639669,0.0071916886410846,0.0052539040639671,-0.0010388547580604,0.0010388629557659,3.7909634619093e-09,3.7908837783969e-09,2.0196623117138e-10,7.3353976244025e-09,-0.0011834689641793,0.0011834750919004,-0.0011834688964529,0.0011834750240437,-0.0011834665864898,0.0011834775041302,-0.0011834665299192,0.0011834774474244,-0.0010174105300217,0.0010174204532237,-0.0010174106625478,0.0010174205854876,1.4703327777547e-09,-5.4125790579545e-09,2.9648109502371e-09,-6.7926024294231e-09,-0.0019371554457836,0.0019371516149046,-0.0021444105172124,0.0021444123092788,-0.0021444133885408,0.0021444086521146,-0.0021444124504234,0.0021444096275403,-0.0021444153215489,0.0021444059701894,-0.0016953641367339,0.0016953675921569,-0.0016953738414441,0.0016953581492107,-0.0016953660516362,0.0016953656179357,-0.0016953729869876,0.0016953590456797,3.98368786196e-09,3.9836094978053e-09,-0.0010388545666626,0.0010388631471638,-9.3470415107685e-10,8.9311809145472e-09,-0.0011834692588685,0.0011834748299715,-0.0011834659435316,0.0011834781268385,-0.0011834691780626,0.0011834747490361,-0.0011834658875281,0.0011834780707007,-0.0010174100094498,0.0010174212344002,-0.0010174098578339,0.0010174210830435,0.69281233026088,122718,2924,0.0043214410384344,0.0080377958797249,0.0043214410384348,37.488427895727,0.00021510742316582,0.00021510742316582,0.00021510742316582,2697194.9444234,0.01682119694368
36919200,0.99999795275201,0.017699507883858,0.005253907319064,0.0071916932457297,0.0052539073190642,-0.0010370480003019,0.0010370575105543,4.3028871505545e-09,4.3028074617273e-09,4.8862473368987e-10,8.0839632702947e-09,-0.0011814215017733,0.0011814286238036,-0.0011814213423758,0.001181428464276,-0.0011814189732413,0.0011814311910856,-0.0011814188260999,0.0011814310438089,-0.0010156899635624,0.0010157011167725,-0.0010156900868066,0.0010157012397542,1.6144510654517e-09,-5.7166686872839e-09,3.1239908091664e-09,-7.105266218759e-09,-0.0019357725388272,0.0019357685538901,-0.0021434707759747,0.002143472729146,-0.0021434736970171,0.0021434687998084,-0.0021434727506794,0.0021434697838333,-0.0021434756715193,0.0021434658543093,-0.0016935519533469,0.0016935555660206,-0.001693562060587,0.0016935456031774,-0.0016935538848403,0.0016935535748277,-0.0016935612023619,0.0016935465036325,4.4976902505472e-09,4.4976118867068e-09,-0.0010370478068427,0.0010370577040136,-6.5502863803062e-10,9.6913990435523e-09,-0.0011814218002446,0.0011814283612315,-0.00118141832261,0.0011814318183691,-0.0011814216273608,0.001181428188218,-0.0011814181764018,0.0011814316720266,-0.001015689427952,0.0010157018940506,-0.0010156892846634,0.0010157017510213,0.66632586234843,122718,2924,0.0043139486683785,0.0080320852078907,0.0043139486683788,36.862574529505,0.00021010059623604,0.00021010059623604,0.00021010059623604,2699440.4716912,0.016800149938634
37419200,0.9999984902181,0.017699516554324,0.0052539098627587,0.0071916968288068,0.0052539098627589,-0.0010386142541427,0.0010386207890735,3.1601286389617e-09,3.1600492427572e-09,-6.2530019631705e-10,6.9007469806813e-09,-0.001181898276048,0.0011819028614366,-0.0011818983339179,0.0011819029191767,-0.0011818957780179,0.0011819054030261,-0.0011818958433541,0.0011819054682271,-0.0010173133122335,0.0010173220295691,-0.001017313463314,0.0010173221803878,1.5946141509852e-09,-5.6955404217379e-09,3.1391441027142e-09,-7.1191644402367e-09,-0.0019362477466595,0.0019362437629156,-0.0021448987149488,0.0021449006342469,-0.0021449018839731,0.0021448969651749,-0.0021449009155898,0.0021448979728033,-0.0021449040844122,0.0021448943035455,-0.0016932167169354,0.0016932203843539,-0.0016932269909114,0.0016932105187499,-0.001693218693872,0.0016932183459685,-0.0016932261106038,0.0016932114424792,3.3613012535356e-09,3.3612225880574e-09,-0.0010386140543081,0.0010386209889082,-1.7963531260568e-09,8.5502083534129e-09,-0.0011818985800771,0.0011819025935734,-0.0011818951099078,0.0011819060477981,-0.0011818986242176,0.001181902637584,-0.0011818951761443,0.0011819061139001,-0.0010173127865669,0.0010173228526907,-0.0010173126153249,0.0010173226817085,0.67334137907516,122718,2924,0.004320431462088,0.0080340752512203,0.0043204314620882,37.672792872299,0.00021658234297839,0.00021658234297839,0.00021658234297839,2710643.5428192,0.016815347326405
37919200,0.99999888664307,0.017699522739163,0.0052539116726483,0.0071916993938657,0.0052539116726485,-0.0010382100746679,0.0010382182794523,3.8022924548494e-09,3.8022130592421e-09,-6.7223720835737e-11,7.6358050587498e-09,-0.0011819951409259,0.0011820011082787,-0.0011819950777223,0.0011820010449453,-0.0011819925818118,0.0011820037103573,-0.0011819925283311,0.0011820036567415,-0.0010167566452554,0.0010167667763843,-0.0010167567809134,0.0010167669117804,1.6502375014359e-09,-5.8004299332001e-09,3.2130216931575e-09,-7.2403079872668e-09,-0.001937093312771,0.0019370892816085,-0.0021455318376111,0.0021455338433951,-0.002145534935001,0.0021455299577487,-0.0021455339552459,0.0021455309770733,-0.0021455370524336,0.0021455270912408,-0.0016942180915273,0.0016942218439947,-0.0016942284772836,0.0016942117136564,-0.0016942200911953,0.0016942197825102,-0.0016942275869976,0.0016942126476349,4.0040998992834e-09,4.0040212319807e-09,-0.001038209874179,0.0010382184799413,-1.2539240905386e-09,9.3025780714885e-09,-0.0011819954506671,0.0011820008357116,-0.0011819919067937,0.0011820043611016,-0.0011819953735736,0.0011820007584881,-0.0011819918543015,0.0011820043084748,-0.001016756097858,0.0010167675902304,-0.0010167559418162,0.0010167674344484,0.65161955237177,122718,2924,0.0043187648135792,0.0080375596765404,0.0043187648135795,37.676447687702,0.00021661158150161,0.00021661158150161,0.00021661158150161,2699472.6315418,0.016815506284504
38419200,0.99999917324999,0.017699527498507,0.0052539130744115,0.0071917013496833,0.0052539130744118,-0.0010371134959352,0.0010371227674147,4.2165788485686e-09,4.216499494177e-09,2.2870700587487e-10,8.1725959009228e-09,-0.0011800657967647,0.0011800726238304,-0.0011800656559623,0.0011800724828979,-0.0011800631578372,0.0011800753073189,-0.0011800630279727,0.0011800751773189,-0.0010156991787323,0.0010157102615657,-0.0010156993070558,0.0010157103896268,1.7159896874577e-09,-5.9637076922354e-09,3.3051867491665e-09,-7.4264682417871e-09,-0.0019354344761249,0.0019354303507048,-0.0021446751343588,0.0021446772240068,-0.0021446782366612,0.0021446731497743,-0.0021446772410422,0.0021446741860085,-0.0021446803431435,0.0021446701115889,-0.0016918707850831,0.001691874637331,-0.001691881399009,0.0016918641922686,-0.001691872817375,0.0016918725420732,-0.0016918804950151,0.0016918651407219,4.4231565799483e-09,4.4230778825417e-09,-0.0010371132906866,0.0010371229726638,-9.7551669075237e-10,9.8677275468771e-09,-0.0011800661109853,0.0011800723485521,-0.0011800624694092,0.0011800759698745,-0.0011800659559448,0.0011800721933816,-0.001180062340709,0.0011800758410415,-0.0010156986113075,0.0010157110805481,-0.0010156984620295,0.0010157109315306,0.69258612412936,122718,2924,0.0043142114574472,0.0080307230495232,0.0043142114574483,37.198696883989,0.00021278957507191,0.00021278957507191,0.00021278957507191,2711226.4573614,0.016799287953608
38880000,0.99999937338865,0.017699530868669,0.00525391406752,0.0071917027336286,0.0052539140675203,-0.0010363878704792,0.0010363961553582,3.8384978117032e-09,3.8384184024054e-09,-1.9369299954344e-10,7.8453131675974e-09,-0.0011812841548593,0.0011812900794511,-0.001181284091572,0.001181290016034,-0.0011812814887135,0.0011812927934234,-0.0011812814341035,0.0011812927386783,-0.001014679420088,0.0010146897356939,-0.0010146795584815,0.0010146898738253,1.7722207028152e-09,-6.0150001858732e-09,3.4183706450644e-09,-7.5339092427735e-09,-0.001937900980131,0.0019378968602463,-0.0021457982753827,0.0021458004655935,-0.0021458015280618,0.0021457964093277,-0.0021458004956085,0.0021457974834665,-0.0021458037480845,0.002145793427014,-0.0016954414047157,0.0016954454480489,-0.0016954522695201,0.0016954348161492,-0.0016954435105292,0.0016954432779995,-0.0016954513299552,0.0016954358011205,4.0465275454494e-09,4.0464488775126e-09,-0.001036387663683,0.0010363963621545,-1.4522446737456e-09,9.5989469306877e-09,-0.0011812844870905,0.0011812897869806,-0.0011812807794746,0.0011812934762305,-0.0011812844093272,0.0011812897090873,-0.0011812807260104,0.0011812934226317,-0.0010146788423689,0.0010146905851166,-0.0010146786830787,0.0010146904260865,0.7023678841052,122718,2924,0.0043112190356286,0.0080408738132244,0.0043112190356289,37.193698565642,0.00021274958852514,0.00021274958852514,0.00021274958852514,2677418.3986839,0.016803542220706
