time,ASR_ext,ASR_strain,ASR_strain_xx,ASR_strain_yy,ASR_strain_zz,disp_x_101,disp_x_102,disp_x_103,disp_x_104,disp_x_105,disp_x_106,disp_x_p10_neg,disp_x_p10_pos,disp_x_p11_neg,disp_x_p11_pos,disp_x_p12_neg,disp_x_p12_pos,disp_x_p13_neg,disp_x_p13_pos,disp_x_p14_neg,disp_x_p14_pos,disp_x_p15_neg,disp_x_p15_pos,disp_x_p16_neg,disp_x_p16_pos,disp_x_p1_neg,disp_x_p1_pos,disp_x_p2_neg,disp_x_p2_pos,disp_x_p3_neg,disp_x_p3_pos,disp_x_p4_neg,disp_x_p4_pos,disp_x_p5_neg,disp_x_p5_pos,disp_x_p6_neg,disp_x_p6_pos,disp_x_p7_neg,disp_x_p7_pos,disp_x_p8_neg,disp_x_p8_pos,disp_x_p9_neg,disp_x_p9_pos,disp_y_101,disp_y_102,disp_y_103,disp_y_104,disp_y_105,disp_y_106,disp_y_p10_neg,disp_y_p10_pos,disp_y_p11_neg,disp_y_p11_pos,disp_y_p12_neg,disp_y_p12_pos,disp_y_p1_neg,disp_y_p1_pos,disp_y_p2_neg,disp_y_p2_pos,disp_y_p3_neg,disp_y_p3_pos,disp_y_p4_neg,disp_y_p4_pos,disp_y_p5_neg,disp_y_p5_pos,disp_y_p6_neg,disp_y_p6_pos,disp_y_p7_neg,disp_y_p7_pos,disp_y_p8_neg,disp_y_p8_pos,disp_y_p9_neg,disp_y_p9_pos,disp_z_101,disp_z_102,disp_z_103,disp_z_104,disp_z_105,disp_z_106,disp_z_p10_neg,disp_z_p10_pos,disp_z_p11_neg,disp_z_p11_pos,disp_z_p12_neg,disp_z_p12_pos,disp_z_p13_neg,disp_z_p13_pos,disp_z_p14_neg,disp_z_p14_pos,disp_z_p15_neg,disp_z_p15_pos,disp_z_p16_neg,disp_z_p16_pos,disp_z_p1_neg,disp_z_p1_pos,disp_z_p2_neg,disp_z_p2_pos,disp_z_p3_neg,disp_z_p3_pos,disp_z_p4_neg,disp_z_p4_pos,disp_z_p5_neg,disp_z_p5_pos,disp_z_p6_neg,disp_z_p6_pos,disp_z_p7_neg,disp_z_p7_pos,disp_z_p8_neg,disp_z_p8_pos,disp_z_p9_neg,disp_z_p9_pos,humidity,ndof,nelem,strain_xx,strain_yy,strain_zz,temp,thermal_strain_xx,thermal_strain_yy,thermal_strain_zz,vonmises,vstrain
14391759,0,0,0,0,0,0,0,0,0,0,0,0,0,0,0,0,0,0,0,0,0,0,0,0,0,0,0,0,0,0,0,0,0,0,0,0,0,0,0,0,0,0,0,0,0,0,0,0,0,0,0,0,0,0,0,0,0,0,0,0,0,0,0,0,0,0,0,0,0,0,0,0,0,0,0,0,0,0,0,0,0,0,0,0,0,0,0,0,0,0,0,0,0,0,0,0,0,0,0,0,0,0,0,0,0,0,0,0,0,0,0,0,0,0,0,0,0,0,0,0,0,0,0
15391759,0.10043299514831,0.0015472658104788,0.00051575527015961,0.00051575527015961,0.00051575527015961,-0.00014728412024932,0.00014728411979072,-8.8946848911292e-14,-8.8944885735972e-14,-1.8124820931515e-13,-8.8196360808777e-14,-0.00012919175402305,0.00012919175281099,-0.00013475862454244,0.0001347586237608,-0.00013475862593964,0.00013475862515801,-0.00012919175311928,0.00012919175173016,-0.00012919175410629,0.00012919175271717,-0.00013475862463412,0.00013475862367207,-0.00013475862602669,0.00013475862506464,-0.00015631492587134,0.00015631492575657,-0.00015631492646067,0.0001563149263459,-0.00015631492583988,0.00015631492578696,-0.00015631492643143,0.00015631492637851,-0.00015065487304056,0.00015065487297059,-0.00015065487333351,0.00015065487326354,-0.00015065487307336,0.00015065487294231,-0.00015065487336139,0.00015065487323034,-0.00012919175302652,0.00012919175181446,2.9293435987991e-14,-6.0696457575547e-14,3.2498866878616e-13,-3.5511997738544e-13,-0.00016026086091545,0.0001602608608852,-0.00015609813935281,0.00015609813868978,-0.00016195001455559,0.00016195001484146,-0.0001619500148784,0.0001619500149878,-0.00015996875138351,0.00015996875161809,-0.00015996875213839,0.00015996875190593,-0.00015996875142274,0.00015996875159531,-0.00015996875217762,0.00015996875188316,-0.00015609813773224,0.00015609813833527,-0.0001560981393149,0.00015609813859098,-0.00016195001468439,0.00016195001451288,-0.00016195001500719,0.00016195001465923,-0.00015609813777016,0.00015609813843407,-5.706556638281e-13,-5.7065781679541e-13,-0.00014774440570081,0.00014774440220145,-1.1282193682316e-12,-4.3556822310154e-13,-0.00013998598760406,0.00013998598527519,-0.00014312599777787,0.00014312599367164,-0.00014312599757683,0.0001431259934706,-0.0001399859885428,0.00013998598489177,-0.00013998598826657,0.00013998598461556,-0.00014312599844881,0.00014312599299986,-0.00014312599824887,0.00014312599279993,-0.00015506407993136,0.00015506407853034,-0.00015506407969806,0.00015506407876304,-0.00015506407997845,0.00015506407857743,-0.00015506407974569,0.00015506407881066,-0.00014881687320903,0.00014881687259843,-0.00014881687317901,0.00014881687256842,-0.0001488168734088,0.00014881687234004,-0.00014881687343759,0.00014881687236882,-0.00013998598788278,0.0001399859855539,0.70055894083924,123866,2964,0.00061349713221595,0.00066752960552002,0.00061541214971288,27.177526780937,0.0001326202142475,0.0001326202142475,0.0001326202142475,1449172.3843827,0.0018982423662066
16391759,0.18896252693561,0.0029924750785269,0.00098001865353985,0.0010303271388758,0.00098212928611124,-0.00024604101381195,0.0002460410135217,-6.7537238254319e-14,-6.7524378353063e-14,-1.296413152821e-13,-5.33024451763e-14,-0.0002018655312815,0.00020186553053716,-0.00021641384977187,0.00021641384934638,-0.00021641385090985,0.0002164138504844,-0.00020186553110878,0.00020186553021949,-0.00020186553134976,0.00020186553046047,-0.00021641384984594,0.00021641384927183,-0.00021641385098207,0.000216413850408,-0.00026697579446249,0.0002669757943343,-0.00026697579512152,0.00026697579499333,-0.00026697579443715,0.00026697579435986,-0.00026697579509732,0.00026697579502004,-0.00025886322945336,0.00025886322939062,-0.00025886323002645,0.00025886322996375,-0.00025886322947921,0.00025886322936656,-0.00025886323004998,0.00025886322993735,-0.00020186553103363,0.00020186553028923,1.0456607028421e-14,-6.2697444011123e-14,2.2103107761554e-13,-2.7188003363579e-13,-0.00028276168893486,0.00028276168888382,-0.00027340656544625,0.0002734065649377,-0.00028672196355392,0.00028672196373724,-0.00028672196372118,0.00028672196376147,-0.00028066674576282,0.00028066674590147,-0.00028066674744916,0.00028066674725877,-0.00028066674597996,0.00028066674606924,-0.00028066674766629,0.00028066674742653,-0.00027340656395847,0.00027340656436569,-0.00027340656553555,0.00027340656497748,-0.00028672196400791,0.00028672196386327,-0.00028672196417517,0.00028672196388752,-0.00027340656386915,0.00027340656432589,-4.2444000239927e-13,-4.2444890102449e-13,-0.00024640882041363,0.00024640881798721,-7.0837732647069e-13,-2.064655087969e-13,-0.00023336118624597,0.00023336118501936,-0.00023855557058809,0.00023855556855858,-0.00023855557034419,0.00023855556831466,-0.00023336118694602,0.00023336118476164,-0.00023336118672645,0.00023336118454208,-0.00023855557107955,0.00023855556806581,-0.00023855557083725,0.00023855556782352,-0.00026274926696768,0.00026274926568164,-0.00026274926679897,0.00026274926584978,-0.00026274926702786,0.0002627492657418,-0.00026274926685973,0.00026274926591053,-0.0002535864091642,0.00025358640851277,-0.00025358640913314,0.00025358640848171,-0.00025358640929899,0.00025358640831722,-0.00025358640932889,0.0002535864083471,-0.00023336118646821,0.00023336118524158,0.7587163515091,123866,2964,0.0010246603494959,0.0011774747754175,0.0010261801175797,24.446614463477,0.00011077291570782,0.00011077291570782,0.00011077291570782,2294107.6695418,0.0032335425398904
17391759,0.2677022090372,0.0041307525371206,0.0013289171131542,0.0014719059539615,0.0013299294700049,-0.00031892661381084,0.00031892661369358,-2.67996665827e-14,-2.6770049840412e-14,-5.4805549992774e-14,-9.8163177652893e-16,-0.00023699302735929,0.00023699302715144,-0.00026433306709498,0.00026433306700238,-0.00026433306761339,0.00026433306752082,-0.00023699302760699,0.00023699302729666,-0.00023699302740883,0.00023699302709852,-0.00026433306714641,0.00026433306694853,-0.0002643330676655,0.00026433306746764,-0.0003567698221637,0.00035676982206315,-0.00035676982249994,0.00035676982239943,-0.00035676982214626,0.00035676982208153,-0.00035676982248261,0.00035676982241793,-0.0003415047942125,0.00034150479417035,-0.00034150479452596,0.00034150479448387,-0.00034150479423003,0.00034150479415278,-0.00034150479454305,0.00034150479446586,-0.00023699302755521,0.00023699302734725,1.2054484684944e-15,-5.0327372000243e-14,1.6397666158143e-13,-2.1215463256241e-13,-0.00038873466226011,0.00038873466221184,-0.00037380541689232,0.00037380541649275,-0.00039488758701641,0.00039488758714211,-0.00039488758703889,0.00039488758706391,-0.00038515095574884,0.00038515095584339,-0.00038515095673311,0.00038515095657696,-0.00038515095587753,0.00038515095593805,-0.00038515095686177,0.00038515095667159,-0.00037380541717178,0.00037380541747527,-0.00037380541694093,0.00037380541650672,-0.00039488758733008,0.00039488758720669,-0.00039488758735257,0.0003948875871285,-0.00037380541712312,0.00037380541746123,-1.5124275739493e-13,-1.5126827591683e-13,-0.00031774677040575,0.00031774676937644,-2.3999619033995e-13,1.4058911686369e-13,-0.000292761660094,0.00029276165998417,-0.00030099246068959,0.00030099246077637,-0.0003009924605603,0.00030099246064711,-0.00029276166047598,0.00029276165963539,-0.00029276166046034,0.00029276165961972,-0.00030099246106465,0.00030099246040033,-0.00030099246093631,0.00030099246027201,-0.00034807634155863,0.00034807634070347,-0.00034807634143082,0.00034807634083103,-0.00034807634158951,0.00034807634073432,-0.00034807634146205,0.00034807634086224,-0.00033184788687717,0.00033184788657327,-0.00033184788687194,0.00033184788656807,-0.00033184788699764,0.00033184788644315,-0.00033184788700223,0.0003318478864477,-0.00029276166011119,0.00029276166000134,0.68097528185715,123866,2964,0.0013280289246087,0.0016183987858813,0.0013230849980319,22.112965555648,9.2103724445181e-05,9.2103724445181e-05,9.2103724445181e-05,2973629.4869104,0.0042786698973917
18391759,0.32438836058679,0.0048499153675781,0.0015473669545392,0.0017590052851181,0.0015435431279208,-0.00035888266627941,0.0003588826662944,-1.3551056612758e-16,-1.1452591307668e-16,-7.155222589332e-16,1.825908925618e-14,-0.00025219791617507,0.00025219791631206,-0.00028799371260055,0.0002879937127298,-0.00028799371266107,0.00028799371279034,-0.00025219791680423,0.0002521979169057,-0.0002521979161927,0.00025219791629415,-0.00028799371261791,0.00028799371270968,-0.00028799371268029,0.00028799371277207,-0.00040882104050764,0.00040882104044497,-0.00040882104060392,0.00040882104054127,-0.00040882104050178,0.00040882104045183,-0.00040882104059761,0.00040882104054769,-0.00038664029992129,0.00038664029989921,-0.00038664030007901,0.00038664030005698,-0.00038664029992678,0.00038664029989256,-0.00038664030008535,0.00038664030005116,-0.00025219791678691,0.00025219791692384,-8.9444032252094e-15,-2.6700526688561e-14,4.9126660978935e-14,-8.4396492976689e-14,-0.00045062186366793,0.00045062186363266,-0.00042953281763434,0.00042953281747334,-0.0004547067498039,0.00045470674982861,-0.00045470674974416,0.00045470674973449,-0.00044947106549408,0.0004494710655081,-0.00044947106601706,0.00044947106594438,-0.00044947106556867,0.00044947106557149,-0.00044947106609163,0.00044947106600775,-0.0004295328185146,0.00042953281860519,-0.00042953281766974,0.00042953281749692,-0.00045470675003465,0.00045470674997267,-0.0004547067499749,0.00045470674987856,-0.00042953281847917,0.00042953281858158,1.7439060998657e-14,1.7422997151161e-14,-0.00035578616713384,0.0003557861670995,8.1573118291348e-14,2.1611344200034e-13,-0.00032240309951911,0.00032240310000713,-0.00033299401157362,0.00033299401270053,-0.00033299401151739,0.00033299401264431,-0.00032240309954921,0.00032240309978013,-0.00032240309964804,0.00032240309987894,-0.00033299401170926,0.00033299401256422,-0.00033299401165346,0.00033299401250846,-0.00039611097677179,0.00039611097638335,-0.00039611097672658,0.00039611097642855,-0.00039611097678006,0.0003961109763916,-0.000396110976735,0.00039611097643695,-0.00037436196783856,0.00037436196770036,-0.00037436196785371,0.00037436196771554,-0.0003743619678977,0.00037436196767187,-0.00037436196788232,0.00037436196765646,-0.00032240309942087,0.00032240309990887,0.60484717275765,123866,2964,0.001494310303812,0.0018757932177359,0.0014813742138857,17.508384794415,5.5267078355324e-05,5.5267078355324e-05,5.5267078355324e-05,3459934.691838,0.0048633142355789
19391759,0.38283953114072,0.0057395830045742,0.0018123768343587,0.0021238400396501,0.0018033661305653,-0.00041899916783935,0.0004189991678176,-7.5102852718226e-15,-7.4905505805862e-15,-1.5084972987959e-14,1.263135676778e-14,-0.00028168740386571,0.0002816874039681,-0.00032953272139241,0.00032953272148353,-0.00032953272151601,0.00032953272160717,-0.00028168740457095,0.00028168740462129,-0.00028168740389102,0.00028168740394133,-0.00032953272141874,0.00032953272145542,-0.00032953272154351,0.00032953272158022,-0.00048160683906306,0.00048160683898179,-0.00048160683913985,0.00048160683905861,-0.00048160683905402,0.00048160683899142,-0.0004816068391307,0.00048160683906813,-0.00045681027618651,0.00045681027615545,-0.00045681027630606,0.00045681027627505,-0.00045681027619535,0.00045681027614635,-0.00045681027631487,0.00045681027626591,-0.00028168740454461,0.00028168740464693,-3.4296305212594e-15,-2.9770528030804e-14,6.4521321197338e-14,-9.7399740956978e-14,-0.00054042470695792,0.00054042470692512,-0.00051497943362482,0.00051497943344174,-0.00054434178455164,0.00054434178459723,-0.00054434178453028,0.00054434178452467,-0.00053850263033205,0.00053850263036313,-0.00053850263058429,0.00053850263050593,-0.00053850263035273,0.00053850263036615,-0.00053850263060496,0.00053850263050894,-0.00051497943476006,0.00051497943487752,-0.00051497943360947,0.00051497943340877,-0.00054434178474375,0.00054434178468279,-0.00054434178472238,0.00054434178461024,-0.0005149794347754,0.00051497943491045,-6.0825511307676e-14,-6.0840509011271e-14,-0.0004134121446085,0.00041341214423467,-1.7864873358029e-14,1.4671646644207e-13,-0.00037403282780266,0.00037403282812673,-0.00038538139710552,0.00038538139787257,-0.00038538139704624,0.0003853813978133,-0.00037403282781747,0.0003740328278299,-0.00037403282795888,0.00037403282797129,-0.00038538139726961,0.00038538139770783,-0.00038538139721069,0.00038538139764894,-0.00046388222125381,0.00046388222072019,-0.00046388222119796,0.00046388222077597,-0.00046388222125499,0.00046388222072136,-0.00046388222119934,0.00046388222077733,-0.00044076540599524,0.00044076540570413,-0.00044076540602783,0.00044076540573675,-0.00044076540608191,0.00044076540568316,-0.00044076540604898,0.00044076540565018,-0.0003740328276619,0.00037403282798596,0.73021614767059,123866,2964,0.0017444462676404,0.0022491677380091,0.0017211215745504,17.480203167204,5.5041625337628e-05,5.5041625337628e-05,5.5041625337628e-05,3714200.4778087,0.0057311593050221
20391759,0.44709435371129,0.0067580193082241,0.0021085624657273,0.0025598549842119,0.0020896018582849,-0.00048542005206874,0.00048542005204741,-9.0163863202929e-15,-8.9551970131136e-15,-1.6712364448738e-14,1.2220398734031e-14,-0.00030026767353661,0.00030026767362326,-0.0003648007966386,0.00036480079675316,-0.00036480079681398,0.00036480079692859,-0.00030026767427787,0.00030026767431003,-0.000300267673563,0.00030026767359512,-0.00036480079666641,0.00036480079672407,-0.00036480079684266,0.00036480079690039,-0.00056781205474045,0.00056781205465718,-0.00056781205483092,0.00056781205474768,-0.00056781205473093,0.00056781205466715,-0.00056781205482138,0.00056781205475762,-0.00053810863964072,0.00053810863961012,-0.00053810863973645,0.00053810863970597,-0.00053810863965002,0.00053810863960066,-0.00053810863974565,0.00053810863969643,-0.00030026767425,0.00030026767433655,-2.1066121150342e-15,-2.9747882582901e-14,7.2756051249635e-14,-1.0434790875037e-13,-0.00065334111143657,0.0006533411114051,-0.00062326554162429,0.00062326554142823,-0.00066103831519716,0.00066103831525057,-0.00066103831517963,0.00066103831517928,-0.00064703833585946,0.0006470383358973,-0.00064703833609572,0.00064703833601408,-0.00064703833587657,0.00064703833589591,-0.00064703833611285,0.00064703833601268,-0.00062326554262954,0.00062326554276253,-0.00062326554160346,0.00062326554138894,-0.00066103831539325,0.0006610383153298,-0.00066103831537571,0.00066103831525849,-0.00062326554265033,0.00062326554280172,-9.5721625402403e-14,-9.5701914607495e-14,-0.00047482728607678,0.00047482728557099,-7.4504797458992e-14,1.0589802224105e-13,-0.00042127622110931,0.0004212762213069,-0.00043547739712214,0.00043547739768202,-0.00043547739706117,0.00043547739762103,-0.00042127622113358,0.00042127622098984,-0.00042127622128042,0.00042127622113654,-0.00043547739730133,0.00043547739750218,-0.0004354773972407,0.00043547739744155,-0.00054245865918919,0.00054245865861324,-0.00054245865912805,0.0005424586586743,-0.00054245865918662,0.00054245865861068,-0.00054245865912567,0.00054245865867193,-0.00051489825266144,0.00051489825231721,-0.00051489825270708,0.00051489825236285,-0.00051489825276646,0.00051489825230397,-0.00051489825272047,0.00051489825225799,-0.0004212762209631,0.00042127622116074,0.76377140340812,123866,2964,0.0020207969279061,0.0027184268349641,0.0019765971218231,18.602614658598,6.4020917268784e-05,6.4020917268784e-05,6.4020917268784e-05,3820016.6924931,0.0067385228710169
21391759,0.49714166452733,0.0074743478316188,0.0023176677429683,0.0028709851519852,0.0022856949366653,-0.00052397925016805,0.00052397925031526,2.3417196385431e-14,2.3444622018185e-14,4.8003798222798e-14,4.7109899060215e-14,-0.00030493140565817,0.00030493140617879,-0.00038042346800412,0.00038042346842025,-0.00038042346771515,0.00038042346813129,-0.0003049314066325,0.00030493140715486,-0.00030493140565834,0.00030493140618063,-0.00038042346800253,0.00038042346841941,-0.00038042346771611,0.00038042346813301,-0.00062190130567985,0.00062190130563872,-0.0006219013055694,0.00062190130552831,-0.00062190130568052,0.00062190130563898,-0.0006219013055692,0.00062190130552769,-0.00058558845288121,0.00058558845288018,-0.00058558845289268,0.00058558845289171,-0.00058558845287979,0.00058558845287953,-0.00058558845289322,0.00058558845289301,-0.00030493140663429,0.00030493140715488,-1.1192599250246e-14,-1.0233782034101e-14,-2.9083155647206e-14,7.5110770674867e-15,-0.00072558574932967,0.00072558574930826,-0.00068927970403215,0.00068927970404452,-0.00073337364022747,0.00073337364019123,-0.00073337364009774,0.0007333736400637,-0.00071905224429387,0.00071905224425752,-0.00071905224428654,0.00071905224427915,-0.00071905224430087,0.00071905224426589,-0.00071905224429355,0.00071905224428751,-0.00068927970554818,0.00068927970549268,-0.00068927970402678,0.00068927970404012,-0.00073337364038041,0.00073337364037126,-0.00073337364025068,0.00073337364024376,-0.0006892797055535,0.00068927970549703,1.0027167390154e-13,1.0029124499484e-13,-0.00050841906931446,0.00050841907006708,3.1355956067654e-13,2.7483432458827e-13,-0.00044325166318489,0.00044325166422119,-0.00046031287657387,0.00046031287865237,-0.00046031287658074,0.00046031287865923,-0.00044325166291856,0.00044325166402794,-0.00044325166314824,0.00044325166425752,-0.00046031287654159,0.00046031287868441,-0.00046031287654837,0.0004603128786912,-0.00058951323259876,0.00058951323252506,-0.00058951323261169,0.00058951323251224,-0.00058951323258011,0.00058951323250643,-0.00058951323259304,0.00058951323249359,-0.00055687003027202,0.00055687003014426,-0.00055687003033156,0.00055687003020376,-0.00055687003031834,0.00055687003021697,-0.00055687003025892,0.00055687003015758,-0.00044325166295486,0.00044325166399121,0.6908403174145,123866,2964,0.002181225586791,0.0030185249355282,0.0021163288974241,15.31459903332,3.7716792266562e-05,3.7716792266562e-05,3.7716792266562e-05,4010118.7367126,0.0073430430865307
22391759,0.54439733524287,0.0081491834602425,0.0025140063983817,0.0031669309803286,0.0024682460815321,-0.00056671114609292,0.00056671114617594,8.9027574386361e-15,8.9340211894323e-15,2.2893072691167e-14,2.5933207758304e-14,-0.00031993435937676,0.0003199343597073,-0.00040453428079528,0.00040453428109416,-0.00040453428071082,0.00040453428100972,-0.00031993436020635,0.00031993436053202,-0.00031993435937923,0.00031993435970483,-0.00040453428079786,0.00040453428109019,-0.00040453428071495,0.00040453428100734,-0.00067771592090114,0.00067771592084424,-0.00067771592084117,0.00067771592078432,-0.00067771592090013,0.00067771592084562,-0.00067771592083983,0.00067771592078538,-0.00063574225254864,0.00063574225253478,-0.00063574225259075,0.00063574225257695,-0.00063574225254916,0.00063574225253348,-0.00063574225259195,0.00063574225257635,-0.00031993436020383,0.00031993436053429,-8.2078374914928e-15,-1.0887515739456e-14,-3.0800494727793e-14,1.1538828562884e-14,-0.0007973693929746,0.00079736939295553,-0.00075493796917517,0.00075493796919733,-0.00080366617891284,0.00080366617888117,-0.00080366617882983,0.00080366617879335,-0.00079216748508215,0.00079216748505021,-0.00079216748494915,0.00079216748494521,-0.00079216748506268,0.00079216748502888,-0.0007921674849297,0.00079216748492389,-0.00075493797065195,0.00075493797059129,-0.00075493796913932,0.00075493796915984,-0.00080366617900041,0.00080366617899847,-0.00080366617891736,0.00080366617891063,-0.0007549379706878,0.00075493797062878,-1.5802469451288e-14,-1.5787752989101e-14,-0.00054651582669886,0.00054651582691813,1.6921926429116e-13,1.2703070753438e-13,-0.00047325398541504,0.00047325398594344,-0.0004918449556335,0.00049184495692614,-0.00049184495561411,0.00049184495690677,-0.00047325398517762,0.00047325398579355,-0.00047325398537123,0.00047325398598714,-0.00049184495559626,0.00049184495696307,-0.0004918449555769,0.0004918449569437,-0.00063854491353385,0.00063854491328855,-0.00063854491354713,0.00063854491327527,-0.00063854491351622,0.00063854491327095,-0.00063854491352958,0.00063854491325774,-0.0006024605579937,0.00060246055767766,-0.00060246055806018,0.00060246055774411,-0.00060246055804572,0.00060246055775876,-0.00060246055797916,0.00060246055769224,-0.00047325398522133,0.00047325398574968,0.69163756941875,123866,2964,0.0023589666376193,0.003316608393125,0.0022747690138141,14.811347176009,3.3690777408073e-05,3.3690777408073e-05,3.3690777408073e-05,4220289.4432566,0.0079821962352277
23391759,0.59261081156315,0.0088067237637551,0.002704640789425,0.003457974194875,0.002644108779455,-0.00060917158212747,0.00060917158217913,2.3146351718373e-15,2.3548986476981e-15,7.6158041071181e-15,2.0102532940241e-14,-0.00032925895236678,0.00032925895260158,-0.00042476129608902,0.00042476129634006,-0.00042476129614407,0.00042476129639514,-0.00032925895312387,0.00032925895333557,-0.00032925895237786,0.00032925895258953,-0.000424761296101,0.00042476129632709,-0.00042476129615712,0.00042476129638325,-0.00073537500577485,0.00073537500570952,-0.00073537500576653,0.00073537500570125,-0.00073537500577065,0.00073537500571397,-0.00073537500576222,0.00073537500570558,-0.00068666151462894,0.00068666151461378,-0.00068666151469336,0.00068666151467827,-0.00068666151463277,0.00068666151460957,-0.00068666151469745,0.00068666151467432,-0.0003292589531118,0.00032925895334653,-4.1624610749655e-15,-1.6114973691263e-14,-7.2851395763396e-15,-1.3061884056643e-14,-0.0008726689862696,0.00087266898624944,-0.00082404310516767,0.00082404310514501,-0.00087905647852929,0.00087905647852183,-0.00087905647847745,0.00087905647844695,-0.00086763584720558,0.00086763584719235,-0.00086763584711313,0.00086763584709467,-0.00086763584718708,0.00086763584716566,-0.00086763584709465,0.00086763584706797,-0.0008240431064964,0.0008240431064784,-0.00082404310512587,0.00082404310509533,-0.00087905647861682,0.00087905647860665,-0.00087905647856495,0.00087905647853176,-0.00082404310653816,0.00082404310652804,-7.8574390047496e-14,-7.8569805628724e-14,-0.00058339980118508,0.00058339980107957,5.8595026138643e-14,6.5688074156778e-14,-0.00049876403621837,0.00049876403650274,-0.00052014149973637,0.00052014150059344,-0.00052014149969964,0.00052014150055672,-0.0004987640360561,0.00049876403633447,-0.00049876403622145,0.00049876403649975,-0.00052014149974678,0.00052014150058271,-0.00052014149971013,0.00052014150054607,-0.0006886112970086,0.00068861129663856,-0.00068861129700522,0.00068861129664187,-0.00068861129699355,0.00068861129662353,-0.00068861129699029,0.00068861129662694,-0.00064768844313809,0.00064768844274087,-0.00064768844320875,0.00064768844281152,-0.00064768844321067,0.00064768844280992,-0.00064768844313984,0.0006476884427391,-0.00049876403605309,0.00049876403633746,0.66282300645257,123866,2964,0.0025355812437106,0.0036291877717871,0.0024281612681995,15.634503171283,4.0276025370266e-05,4.0276025370266e-05,4.0276025370266e-05,4300597.6373289,0.0086301624808401
24391759,0.64531934964682,0.0095577018025686,0.0029216788904066,0.003792986211985,0.002843036700177,-0.0006603351722861,0.00066033517229193,-6.7033540406648e-15,-6.6418559193902e-15,-1.3105437873163e-14,1.1877615088189e-14,-0.00034439167688174,0.00034439167697886,-0.00045186766015581,0.00045186766033955,-0.00045186766040781,0.00045186766059159,-0.00034439167755813,0.00034439167760806,-0.0003443916769043,0.00034439167695424,-0.0004518676601801,0.00045186766031455,-0.00045186766043269,0.0004518676605672,-0.00080294579179171,0.0008029457917152,-0.00080294579187509,0.00080294579179864,-0.00080294579178334,0.00080294579172375,-0.00080294579186682,0.0008029457918073,-0.00074778971046517,0.00074778971044735,-0.00074778971056441,0.00074778971054671,-0.00074778971047333,0.00074778971043922,-0.00074778971057238,0.00074778971053839,-0.00034439167753361,0.00034439167763062,2.7643273164039e-16,-2.3854773091292e-14,4.130728220853e-14,-6.4793317483627e-14,-0.0009611012639516,0.00096110126392829,-0.00090579314637337,0.00090579314625375,-0.00096727588558027,0.00096727588561511,-0.00096727588557263,0.00096727588556053,-0.00095614823026043,0.00095614823028215,-0.00095614823032888,0.00095614823027749,-0.00095614823025506,0.00095614823026033,-0.00095614823032351,0.00095614823025565,-0.00090579314741234,0.00090579314748505,-0.00090579314633184,0.00090579314619614,-0.00096727588570155,0.00096727588566649,-0.00096727588569389,0.00096727588561191,-0.00090579314745382,0.00090579314754261,-1.5317991604695e-13,-1.5319681994231e-13,-0.0006278261879758,0.00062782618740875,-1.0600380577414e-13,2.9740929670308e-15,-0.00053175430274686,0.00053175430272805,-0.00055570924216734,0.00055570924243937,-0.00055570924210469,0.00055570924237677,-0.00053175430272249,0.00053175430250162,-0.00053175430284809,0.00053175430262719,-0.00055570924227675,0.00055570924232959,-0.0005557092422143,0.00055570924226716,-0.00074721540796401,0.0007472154074106,-0.00074721540792645,0.00074721540744803,-0.00074721540795506,0.00074721540740166,-0.00074721540791767,0.00074721540743924,-0.00070223486048005,0.00070223486001019,-0.00070223486055251,0.00070223486008267,-0.0007022348605883,0.00070223486004733,-0.00070223486051556,0.00070223485997456,-0.00053175430262156,0.00053175430260271,0.69344629843763,123866,2964,0.002748359677385,0.0039961411924638,0.0026128949086144,17.856986570572,5.8055892564577e-05,5.8055892564577e-05,5.8055892564577e-05,4369281.8830275,0.0094015681641145
25391759,0.69993588431267,0.01041190069417,0.003167031505493,0.0041783809194191,0.0030664882692581,-0.00071554207192709,0.00071554207194138,-4.9347021894119e-15,-4.7380905487037e-15,-1.1142725773847e-14,1.4691235016384e-14,-0.0003536952140509,0.00035369521415027,-0.00047644359727652,0.00047644359748653,-0.00047644359756998,0.00047644359778012,-0.00035369521471386,0.00035369521476391,-0.00035369521407453,0.00035369521412484,-0.00047644359730161,0.00047644359746061,-0.00047644359759573,0.00047644359775486,-0.00087807246697686,0.00087807246690479,-0.00087807246709569,0.00087807246702377,-0.00087807246696828,0.00087807246691364,-0.00087807246708715,0.00087807246703266,-0.00081670796557387,0.00081670796556153,-0.00081670796568697,0.00081670796567501,-0.0008167079655822,0.00081670796555299,-0.00081670796569535,0.00081670796566653,-0.00035369521468851,0.00035369521478751,4.9992590407738e-16,-2.4525884942227e-14,5.3542426815614e-14,-7.7437792416832e-14,-0.0010638136483806,0.0010638136483569,-0.0010023189427374,0.0010023189425933,-0.0010724250411262,0.0010724250411697,-0.0010724250411262,0.001072425041121,-0.0010559595533527,0.0010559595533819,-0.0010559595535669,0.0010559595535076,-0.0010559595533656,0.0010559595533779,-0.0010559595535797,0.0010559595535035,-0.0010023189435951,0.0010023189436915,-0.0010023189427086,0.0010023189425478,-0.0010724250412794,0.0010724250412366,-0.0010724250412794,0.0010724250411879,-0.0010023189436239,0.0010023189437369,-1.5324005759202e-13,-1.533926669005e-13,-0.0006739364744547,0.0006739364738429,-1.3819673406699e-13,-4.4651282992778e-15,-0.00056251717615943,0.00056251717609627,-0.00059010789540784,0.00059010789558268,-0.00059010789534034,0.0005901078955153,-0.00056251717617493,0.00056251717586018,-0.00056251717628532,0.00056251717597073,-0.0005901078955416,0.0005901078954486,-0.00059010789547429,0.00059010789538139,-0.00081122130677062,0.00081122130621255,-0.00081122130672498,0.00081122130625806,-0.00081122130676458,0.00081122130620642,-0.00081122130671909,0.00081122130625206,-0.00076190883077277,0.00076190883032567,-0.00076190883084622,0.00076190883039943,-0.00076190883089026,0.00076190883035581,-0.00076190883081656,0.00076190883028179,-0.00056251717604935,0.00056251717598589,0.76207065498803,123866,2964,0.0029779663468633,0.0044221588539133,0.0028046337807672,19.838995377105,7.391196301684e-05,7.391196301684e-05,7.391196301684e-05,4316678.5322963,0.010257332860948
26391759,0.75002241973189,0.011258935284938,0.0034106595310101,0.0045626329451296,0.003285642808798,-0.0007659103160779,0.00076591031615414,5.9911993259143e-15,6.0956373118761e-15,1.4227918288039e-14,2.6814629360891e-14,-0.00035517666113874,0.00035517666139367,-0.00049398125494993,0.00049398125527677,-0.00049398125510123,0.00049398125542814,-0.0003551766618191,0.0003551766620501,-0.00035517666115036,0.00035517666138144,-0.000493981254962,0.00049398125526354,-0.00049398125511444,0.00049398125541606,-0.00094943759017178,0.00094943759011645,-0.00094943759023772,0.00094943759018247,-0.00094943759016767,0.00094943759012096,-0.00094943759023337,0.00094943759018675,-0.00088184981254538,0.00088184981254171,-0.00088184981265612,0.00088184981265266,-0.00088184981254901,0.00088184981253718,-0.00088184981266055,0.00088184981264892,-0.00035517666180689,0.00035517666206163,-3.8153540317886e-15,-1.6039546767562e-14,1.7055162800013e-14,-3.6930380993387e-14,-0.0011650967027342,0.0011650967027145,-0.0010976914851688,0.0010976914850993,-0.0011774642101179,0.001177464210127,-0.0011774642100754,0.0011774642100609,-0.0011528660323635,0.0011528660323654,-0.001152866032568,0.0011528660325351,-0.0011528660323814,0.0011528660323753,-0.0011528660325859,0.001152866032545,-0.0010976914861294,0.0010976914861592,-0.0010976914851513,0.0010976914850738,-0.001177464210266,0.0011774642102407,-0.0011774642102235,0.0011774642101745,-0.0010976914861469,0.0010976914861847,-8.6048487086609e-14,-8.6098487397369e-14,-0.00071345018124298,0.00071345018108002,-2.9295355047012e-15,5.1720721438051e-14,-0.00058443913838996,0.00058443913859462,-0.00061643013828245,0.00061643013898812,-0.00061643013823496,0.00061643013894066,-0.0005844391383124,0.000584439138415,-0.000584439138441,0.00058443913854361,-0.00061643013833986,0.00061643013893048,-0.00061643013829244,0.00061643013888309,-0.0008702348668673,0.00087023486649571,-0.00087023486684845,0.0008702348665145,-0.00087023486685808,0.00087023486648647,-0.00087023486683931,0.00087023486650533,-0.00081627136309968,0.00081627136273325,-0.00081627136317451,0.00081627136280818,-0.00081627136319232,0.00081627136279058,-0.00081627136311741,0.00081627136271556,-0.00058443913826137,0.00058443913846593,0.82335182229769,123866,2964,0.0031874785018074,0.0048420402430332,0.0029689680722356,20.413014441538,7.8504115532305e-05,7.8504115532305e-05,7.8504115532305e-05,4199089.3194218,0.011059614442956
27391759,0.79796156959863,0.011992869194216,0.0036252624026453,0.0048921273509083,0.0034754794406623,-0.00081094826579342,0.00081094826581964,-4.4221884345906e-15,-4.2761634837879e-15,-6.0441315324011e-15,1.4468447704737e-14,-0.00035494235233215,0.00035494235244043,-0.00050813131200632,0.00050813131224334,-0.00050813131234164,0.00050813131257875,-0.00035494235293733,0.00035494235300684,-0.00035494235235053,0.00035494235242019,-0.00050813131202624,0.00050813131222268,-0.00050813131236216,0.00050813131255871,-0.0010150295661099,0.0010150295660426,-0.0010150295662613,0.0010150295661942,-0.001015029566103,0.0010150295660497,-0.0010150295662545,0.0010150295662013,-0.00093845102154786,0.00093845102153593,-0.00093845102168925,0.0009384510216776,-0.00093845102155447,0.00093845102152917,-0.00093845102169587,0.00093845102167086,-0.00035494235291718,0.00035494235302519,-9.6202943419056e-16,-2.0741068580474e-14,4.1792418123255e-14,-6.3420801508636e-14,-0.0012558863337359,0.0012558863337144,-0.0011806478114537,0.0011806478113353,-0.0012703884949328,0.0012703884949649,-0.0012703884949268,0.0012703884949205,-0.0012417999921288,0.00124179999215,-0.001241799992439,0.0012417999923887,-0.0012417999921492,0.001241799992157,-0.0012417999924594,0.0012417999923957,-0.0011806478122248,0.0011806478122999,-0.0011806478114298,0.0011806478112983,-0.0012703884950929,0.0012703884950558,-0.0012703884950868,0.0012703884950113,-0.0011806478122486,0.0011806478123369,-1.6420175396972e-13,-1.6431539204227e-13,-0.00074702179629984,0.00074702179566302,-1.4603882537884e-13,-3.8055094795917e-14,-0.00059943018995167,0.00059943018978962,-0.0006364856309827,0.00063648563103988,-0.00063648563091025,0.00063648563096751,-0.00059943018995722,0.00059943018959427,-0.0005994301900522,0.00059943018968937,-0.00063648563109122,0.00063648563093109,-0.00063648563101893,0.00063648563085886,-0.00092301512824525,0.00092301512769542,-0.00092301512820813,0.0009230151277324,-0.00092301512824118,0.00092301512769129,-0.00092301512820421,0.0009230151277284,-0.00086264857841963,0.00086264857795822,-0.00086264857849352,0.00086264857803234,-0.00086264857852899,0.00086264857799725,-0.00086264857845487,0.00086264857792289,-0.00059943018985695,0.00059943018969467,0.74366212196709,123866,2964,0.0033748223814442,0.0052182491338705,0.0031086131793778,22.217512822294,9.294010257835e-05,9.294010257835e-05,9.294010257835e-05,4056169.6280288,0.011770941763619
28391759,0.84058216663776,0.012736224481164,0.003843172324465,0.0052241655847943,0.0036688865719047,-0.00085783426214011,0.00085783426219867,1.6940070727762e-15,1.6476849584732e-15,5.3639243710865e-15,2.2343589477502e-14,-0.00036659657137959,0.00036659657156557,-0.0005311677321251,0.00053116773242482,-0.00053116773239433,0.000531167732694,-0.00036659657198374,0.00036659657213774,-0.0003665965713951,0.00036659657154886,-0.00053116773214152,0.00053116773240744,-0.0005311677324116,0.00053116773267751,-0.0010781197547095,0.0010781197546518,-0.0010781197548391,0.0010781197547814,-0.0010781197547039,0.0010781197546578,-0.0010781197548334,0.0010781197547872,-0.00099605006109352,0.00099605006108896,-0.00099605006124764,0.00099605006124299,-0.00099605006109874,0.00099605006108312,-0.00099605006125336,0.00099605006123764,-0.00036659657196711,0.00036659657215319,-1.9254705899599e-15,-1.8399857014645e-14,3.3180004755983e-14,-5.346685835212e-14,-0.0013420655153908,0.0013420655153706,-0.0012596292790615,0.0012596292789612,-0.00135717539724,0.0013571753972638,-0.0013571753972164,0.0013571753972083,-0.0013273065989371,0.0013273065989513,-0.0013273065992647,0.0013273065992216,-0.001327306598962,0.0013273065989654,-0.0013273065992897,0.0013273065992356,-0.0012596292798329,0.0012596292798926,-0.0012596292790456,0.0012596292789345,-0.0013571753974076,0.001357175397375,-0.0013571753973841,0.0013571753973195,-0.0012596292798487,0.0012596292799193,-1.2819486682305e-13,-1.28105645284e-13,-0.00078387283927158,0.00078387283886981,-8.436791526516e-14,3.808192485863e-15,-0.0006257921822303,0.00062579218223301,-0.00066484656252495,0.0006648465628822,-0.00066484656246168,0.00066484656281887,-0.00062579218221431,0.0006257921820518,-0.0006257921823131,0.00062579218215034,-0.00066484656261472,0.00066484656279219,-0.00066484656255158,0.00066484656272896,-0.00097406117437294,0.00097406117392316,-0.00097406117434271,0.00097406117395329,-0.00097406117436747,0.00097406117391776,-0.00097406117433735,0.000974061173948,-0.00091139985732921,0.0009113998569205,-0.00091139985740341,0.00091139985699453,-0.00091139985743238,0.00091139985696584,-0.00091139985735803,0.00091139985689165,-0.0006257921821316,0.00062579218213451,0.84556057744222,123866,2964,0.0035697616736502,0.0055751909716399,0.003261833282593,23.416251561993,0.00010253001249594,0.00010253001249594,0.00010253001249594,4051986.1348415,0.012484673384113
29391759,0.87744615645901,0.013225713750249,0.0039894532514047,0.0054394379066834,0.0037968225921612,-0.00088445905041498,0.00088445905046883,8.9526676786184e-17,6.7468527118103e-17,4.0942352180421e-15,2.03434005819e-14,-0.00035081589121759,0.0003508158913857,-0.00052893841709077,0.00052893841738241,-0.00052893841738725,0.00052893841767887,-0.00035081589180158,0.00035081589193924,-0.00035081589123219,0.00035081589136968,-0.0005289384171065,0.00052893841736581,-0.00052893841740372,0.00052893841766303,-0.0011236925458714,0.001123692545813,-0.0011236925460191,0.0011236925459608,-0.0011236925458659,0.0011236925458187,-0.0011236925460137,0.0011236925459664,-0.0010315238350868,0.0010315238350802,-0.0010315238352504,0.0010315238352437,-0.0010315238350918,0.0010315238350746,-0.0010315238352558,0.0010315238352386,-0.00035081589178564,0.00035081589195381,-2.0978182660332e-15,-1.7798800008877e-14,3.114745287846e-14,-5.1009372764853e-14,-0.0014070740973718,0.0014070740973521,-0.0013187794606383,0.0013187794605427,-0.0014264381366341,0.0014264381366562,-0.0014264381366125,0.0014264381366041,-0.001389220932404,0.0013892209324171,-0.0013892209327672,0.0013892209327256,-0.0013892209324307,0.0013892209324334,-0.001389220932794,0.0013892209327418,-0.0013187794613745,0.0013187794614305,-0.0013187794606227,0.0013187794605166,-0.0014264381368055,0.001426438136774,-0.0014264381367839,0.0014264381367219,-0.0013187794613901,0.0013187794614565,-1.3981438685469e-13,-1.3975693640388e-13,-0.00079878810961686,0.00079878810915106,-1.0043520383229e-13,-1.641891017827e-14,-0.00061894997808119,0.00061894997801851,-0.00066423318986003,0.00066423319011033,-0.00066423318979308,0.00066423319004333,-0.00061894997806953,0.00061894997785066,-0.00061894997815947,0.00061894997794038,-0.00066423318994556,0.00066423319002456,-0.00066423318987874,0.00066423318995769,-0.0010078438640348,0.0010078438635654,-0.0010078438640059,0.0010078438635942,-0.0010078438640304,0.0010078438635611,-0.0010078438640016,0.00100784386359,-0.00093733803628816,0.00093733803586356,-0.00093733803636145,0.00093733803593674,-0.00093733803638901,0.00093733803590949,-0.00093733803631555,0.00093733803583613,-0.00061894997799139,0.00061894997792884,0.64299206939106,123866,2964,0.0036806318392247,0.0058443678855592,0.0033239958627731,24.737808245778,0.00011310246596622,0.00011310246596622,0.00011310246596622,3751985.6292408,0.012932632048247
30391759,0.90826804038853,0.013581529412819,0.0040980178540676,0.0055916313898373,0.0038918801689136,-0.00090878563108869,0.00090878563114364,5.0733744236586e-16,5.5763002360908e-16,4.0099730863101e-15,1.9775682631176e-14,-0.00036574764120827,0.00036574764137225,-0.00054578119320488,0.00054578119349571,-0.0005457811935096,0.00054578119380045,-0.00036574764179299,0.0003657476419273,-0.00036574764122242,0.0003657476413567,-0.00054578119322015,0.00054578119347961,-0.00054578119352559,0.00054578119378508,-0.0011554490006904,0.0011554490006339,-0.0011554490008456,0.0011554490007891,-0.0011554490006852,0.0011554490006394,-0.0011554490008404,0.0011554490007946,-0.0010569700171403,0.001056970017135,-0.0010569700173119,0.0010569700173067,-0.0010569700171452,0.0010569700171296,-0.0010569700173172,0.0010569700173017,-0.00036574764177749,0.0003657476419414,-2.0299379867879e-15,-1.7261457968425e-14,2.961171670591e-14,-4.8873894803709e-14,-0.0014440444878437,0.0014440444878246,-0.0013463104906833,0.0013463104905917,-0.0014579296422676,0.0014579296422886,-0.0014579296422475,0.001457929642239,-0.0014330418509736,0.0014330418509859,-0.0014330418513591,0.0014330418513191,-0.0014330418510018,0.001433041851004,-0.0014330418513873,0.0014330418513372,-0.0013463104914023,0.0013463104914554,-0.0013463104906685,0.0013463104905668,-0.0014579296424421,0.001457929642412,-0.001457929642422,0.0014579296423624,-0.001346310491417,0.0013463104914802,-1.4025517853587e-13,-1.4026430325711e-13,-0.00081851851172595,0.00081851851125291,-1.0010214047773e-13,-1.9748205529406e-14,-0.00063878749599081,0.00063878749592341,-0.00068352969480452,0.00068352969504209,-0.00068352969473662,0.00068352969497419,-0.00063878749597678,0.00063878749576029,-0.00063878749606546,0.00063878749584889,-0.00068352969488646,0.00068352969495994,-0.00068352969481868,0.00068352969489215,-0.0010319855836365,0.0010319855831705,-0.0010319855836088,0.0010319855831981,-0.0010319855836323,0.0010319855831664,-0.0010319855836047,0.0010319855831941,-0.00096014796569161,0.00096014796526595,-0.0009601479657651,0.00096014796533945,-0.00096014796579143,0.00096014796531341,-0.00096014796571779,0.00096014796523974,-0.00063878749590227,0.00063878749583486,0.55654009761524,123866,2964,0.0037816857284181,0.0059973692344616,0.0034059914025197,26.077797293722,0.00012382237834978,0.00012382237834978,0.00012382237834978,3863572.8596611,0.01327309776177
31391759,0.93422717293697,0.013953248951725,0.0042086269416047,0.0057540991783195,0.0039905228318013,-0.00093420509436187,0.00093420509436612,-9.0004897470988e-15,-8.9386386954295e-15,-1.6055149232094e-14,8.9934384919215e-15,-0.00036892402834681,0.00036892402837599,-0.00055645286463087,0.00055645286483254,-0.00055645286509853,0.00055645286530021,-0.00036892402893037,0.00036892402891235,-0.00036892402836917,0.00036892402835119,-0.00055645286465529,0.00055645286480756,-0.00055645286512326,0.00055645286527562,-0.0011904823922578,0.0011904823921875,-0.0011904823925009,0.0011904823924306,-0.0011904823922494,0.001190482392196,-0.0011904823924927,0.0011904823924394,-0.0010883979871663,0.0010883979871531,-0.0010883979873483,0.0010883979873352,-0.0010883979871746,0.001088397987145,-0.0010883979873562,0.0010883979873268,-0.00036892402890566,0.00036892402893478,7.9674036601108e-16,-2.3309241962776e-14,6.0736177639699e-14,-8.3107500644961e-14,-0.0014913650660785,0.0014913650660563,-0.0013907159632885,0.0013907159631332,-0.0015079444471126,0.0015079444471611,-0.0015079444471258,0.0015079444471274,-0.0014784300450268,0.001478430045062,-0.0014784300455572,0.0014784300454943,-0.0014784300450621,0.001478430045081,-0.0014784300455925,0.0014784300455134,-0.0013907159638212,0.0013907159639319,-0.0013907159632718,0.0013907159631004,-0.001507944447319,0.0015079444472724,-0.0015079444473322,0.0015079444472387,-0.0013907159638379,0.0013907159639646,-2.083820237781e-13,-2.083981041692e-13,-0.00083720957327362,0.00083720957232164,-2.4204557626203e-13,-9.4068008639848e-14,-0.00064930035732322,0.00064930035695753,-0.00069567395170294,0.00069567395132895,-0.00069567395161257,0.00069567395123859,-0.00064930035739677,0.00064930035675482,-0.0006493003574616,0.00064930035681955,-0.00069567395185014,0.00069567395118147,-0.00069567395175998,0.00069567395109129,-0.0010594788104425,0.0010594788097706,-0.0010594788103918,0.0010594788098211,-0.0010594788104434,0.0010594788097715,-0.0010594788103929,0.0010594788098221,-0.00098596819168785,0.00098596819118198,-0.0009859681917611,0.00098596819125527,-0.00098596819180981,0.00098596819120699,-0.00098596819173627,0.00098596819113341,-0.0006493003572588,0.00064930035689304,0.69215549466537,123866,2964,0.003887386221734,0.0061932266116709,0.0034837225267896,28.363576784485,0.00014210861427588,0.00014210861427588,0.00014210861427588,3756202.7627754,0.013657561222008
32391759,0.95381401504837,0.014275171398623,0.0043043441239985,0.0058948565634351,0.0040759707111891,-0.00094932703396574,0.00094932703404756,5.3948646023543e-15,5.5868881479315e-15,1.2084755819005e-14,2.9739547359595e-14,-0.00034589405942736,0.00034589405966305,-0.00054671796585334,0.00054671796620191,-0.0005467179661011,0.00054671796644982,-0.00034589406000072,0.00034589406020225,-0.00034589405944388,0.00034589405964567,-0.00054671796587043,0.00054671796618378,-0.0005467179661191,0.0005467179664326,-0.0012200580896904,0.0012200580896408,-0.0012200580898252,0.0012200580897758,-0.0012200580896846,0.001220058089647,-0.0012200580898193,0.0012200580897818,-0.0011134828042656,0.0011134828042675,-0.0011134828044494,0.0011134828044517,-0.0011134828042709,0.0011134828042612,-0.0011134828044556,0.0011134828044463,-0.00034589405998337,0.00034589406021871,-1.3382532349293e-15,-1.8614034295206e-14,3.8649514136814e-14,-5.856317968506e-14,-0.0015399196120093,0.0015399196119895,-0.0014410817054703,0.00144108170536,-0.0015656644811357,0.0015656644811642,-0.0015656644811035,0.0015656644810983,-0.0015174476286979,0.0015174476287154,-0.0015174476291013,0.0015174476290559,-0.0015174476287309,0.0015174476287372,-0.0015174476291343,0.0015174476290777,-0.0014410817061548,0.0014410817062253,-0.0014410817054642,0.0014410817053425,-0.0015656644813257,0.0015656644812909,-0.0015656644812935,0.0015656644812251,-0.0014410817061609,0.0014410817062427,-1.0521484090589e-13,-1.0536434001527e-13,-0.00084119432088355,0.00084119432062124,-6.0941939736162e-14,3.6907284272506e-14,-0.00063126131616727,0.00063126131627948,-0.00068341356836056,0.00068341356889676,-0.00068341356830041,0.00068341356883673,-0.00063126131617352,0.00063126131609812,-0.000631261316261,0.00063126131618578,-0.0006834135684603,0.00068341356879678,-0.00068341356840026,0.00068341356873685,-0.0010802813211371,0.0010802813207591,-0.0010802813211038,0.0010802813207922,-0.0010802813211321,0.001080281320754,-0.001080281321099,0.0010802813207873,-0.0010019090292093,0.0010019090288508,-0.0010019090292812,0.0010019090289229,-0.0010019090293135,0.0010019090288908,-0.0010019090292416,0.0010019090288186,-0.00063126131607986,0.00063126131619184,0.79325035118638,123866,2964,0.0039505076482044,0.0063941588432748,0.0035005019243643,29.295089326294,0.00014956071461035,0.00014956071461035,0.00014956071461035,3337933.2026778,0.01394242335925
33391759,0.96766575968235,0.014510443088997,0.0043760535390321,0.0059945177324887,0.0041398718174757,-0.00095852350382883,0.00095852350396672,1.4452382019062e-14,1.4629641309794e-14,3.5260239000373e-14,4.1470586043239e-14,-0.0003313710740895,0.00033137107447975,-0.00054006631709188,0.00054006631754624,-0.00054006631717348,0.00054006631762795,-0.00033137107461709,0.00033137107499483,-0.00033137107409552,0.00033137107447354,-0.00054006631709784,0.00054006631753917,-0.00054006631718053,0.00054006631762199,-0.0012392350219138,0.0012392350218775,-0.0012392350219621,0.0012392350219259,-0.0012392350219119,0.0012392350218799,-0.0012392350219598,0.0012392350219279,-0.0011288919556822,0.0011288919556891,-0.0011288919558781,0.0011288919558854,-0.0011288919556834,0.0011288919556863,-0.0011288919558808,0.0011288919558841,-0.00033137107461089,0.00033137107500076,-4.9860829727054e-15,-1.1412631131365e-14,-4.9457533223956e-15,-1.1524634143573e-14,-0.0015720099369045,0.0015720099368882,-0.00147211882277,0.0014721188227477,-0.0016014658265904,0.0016014658265813,-0.0016014658265157,0.0016014658264944,-0.0015452904738022,0.0015452904737879,-0.0015452904740738,0.0015452904740595,-0.0015452904738298,0.0015452904738118,-0.0015452904741013,0.0015452904740833,-0.001472118823668,0.0014721188236573,-0.001472118822768,0.0014721188227416,-0.0016014658267471,0.0016014658267355,-0.0016014658266725,0.0016014658266486,-0.0014721188236699,0.0014721188236633,-4.0019854626794e-14,-4.0192683905802e-14,-0.00084177951432994,0.00084177951460251,1.0813381423326e-13,1.1222412310066e-13,-0.00061849915182161,0.00061849915226201,-0.00067396166165309,0.00067396166290254,-0.00067396166161595,0.00067396166286554,-0.000618499151721,0.00061849915215108,-0.00061849915182657,0.0006184991522569,-0.00067396166166218,0.00067396166289331,-0.00067396166162515,0.00067396166285635,-0.0010921447103105,0.0010921447101435,-0.0010921447103089,0.001092144710145,-0.0010921447103011,0.001092144710134,-0.0010921447102996,0.0010921447101356,-0.0010111016306431,0.0010111016303417,-0.0010111016307131,0.001011101630412,-0.0010111016307144,0.0010111016304109,-0.0010111016306444,0.0010111016303405,-0.00061849915171597,0.00061849915215603,0.81381076464073,123866,2964,0.0039889129307726,0.0065268981449548,0.0035031057147997,29.275785929304,0.00014940628743443,0.00014940628743443,0.00014940628743443,3066959.1707633,0.014118713936877
34391759,0.97829170151753,0.014673030378414,0.0044265364308165,0.0060616048238826,0.0041848891237147,-0.00096957447256566,0.00096957447257497,-8.7417623569253e-15,-8.5120046699826e-15,-1.2089770371696e-14,5.7788381663431e-15,-0.00033030497798781,0.00033030497801441,-0.00054268536705906,0.0005426853672633,-0.00054268536751429,0.00054268536771868,-0.00033030497859907,0.00033030497859232,-0.00033030497800315,0.00033030497799672,-0.00054268536707642,0.00054268536724541,-0.00054268536753201,0.00054268536770117,-0.0012562168599863,0.0012562168599206,-0.0012562168602351,0.0012562168601695,-0.0012562168599801,0.0012562168599267,-0.0012562168602292,0.0012562168601759,-0.0011428087943686,0.0011428087943538,-0.0011428087945477,0.0011428087945334,-0.0011428087943745,0.0011428087943482,-0.0011428087945532,0.0011428087945274,-0.00033030497858149,0.00033030497860765,-1.4224271340627e-15,-1.8408443149404e-14,3.1385048561251e-14,-5.1153256236959e-14,-0.0015955863809922,0.0015955863809726,-0.0014927957729538,0.0014927957728588,-0.0016255339121168,0.0016255339121406,-0.0016255339121226,0.0016255339121135,-0.0015685524829674,0.0015685524829826,-0.0015685524835169,0.0015685524834745,-0.0015685524830042,0.0015685524830078,-0.0015685524835537,0.0015685524834997,-0.0014927957734705,0.001492795773526,-0.0014927957729396,0.0014927957728333,-0.001625533912312,0.0016255339122814,-0.0016255339123178,0.0016255339122543,-0.0014927957734846,0.0014927957735514,-2.0960746060655e-13,-2.0979332625201e-13,-0.00084734328103618,0.00084734328007072,-2.3146159077199e-13,-1.4468937395659e-13,-0.00061837469314634,0.00061837469269113,-0.00067504575812366,0.00067504575760985,-0.00067504575803535,0.00067504575752167,-0.00061837469316407,0.00061837469255328,-0.00061837469322416,0.00061837469261362,-0.00067504575821078,0.00067504575752249,-0.00067504575812264,0.00067504575743446,-0.001103608528959,0.0011036085283208,-0.0011036085289287,0.001103608528351,-0.0011036085289597,0.0011036085283214,-0.0011036085289296,0.0011036085283518,-0.0010214395493705,0.0010214395488526,-0.0010214395494432,0.0010214395489257,-0.0010214395494715,0.0010214395488978,-0.0010214395493985,0.0010214395488245,-0.00061837469308655,0.000618374692631,0.7296115327816,123866,2964,0.0040348968030186,0.0066244058100622,0.0035263053000113,31.396997514234,0.00016637598011387,0.00016637598011387,0.00016637598011387,2918547.6656004,0.014287825359505
35391759,0.98673405886507,0.014789466183714,0.0044630151638432,0.0061089125235847,0.0042175384962865,-0.00098486404891094,0.00098486404877702,-3.3453389786611e-14,-3.3241572728065e-14,-6.9070470826881e-14,-2.5289264195044e-14,-0.00034392365132743,0.00034392365097047,-0.00055641128593331,0.00055641128587512,-0.00055641128681234,0.00055641128675465,-0.00034392365206393,0.00034392365162406,-0.00034392365136596,0.00034392365092754,-0.000556411285976,0.00055641128583219,-0.00055641128685459,0.00055641128671133,-0.0012734736652166,0.0012734736651135,-0.0012734736657028,0.0012734736655999,-0.0012734736652016,0.0012734736651282,-0.0012734736656887,0.0012734736656156,-0.0011583461549592,0.0011583461549254,-0.0011583461551174,0.0011583461550838,-0.0011583461549745,0.001158346154912,-0.0011583461551302,0.0011583461550684,-0.0003439236520207,0.00034392365166331,6.6235035388664e-15,-3.5134169322303e-14,1.329826065903e-13,-1.6100665856298e-13,-0.001614151149113,0.001614151149085,-0.0015073772824153,0.0015073772821145,-0.0016420602915831,0.0016420602916935,-0.0016420602916855,0.0016420602917146,-0.0015898356721567,0.0015898356722458,-0.0015898356731012,0.0015898356729854,-0.0015898356722109,0.0015898356722713,-0.0015898356731553,0.0015898356730107,-0.0015073772824355,0.0015073772826803,-0.0015073772823928,0.0015073772820645,-0.0016420602918782,0.0016420602917923,-0.0016420602919803,0.0016420602918129,-0.0015073772824576,0.0015073772827302,-3.8532204117614e-13,-3.8549281169451e-13,-0.00086052375375733,0.00086052375140632,-6.4894126352515e-13,-3.4397132279455e-13,-0.00063326398776773,0.0006332639865059,-0.00068929617784594,0.00068929617554124,-0.0006892961776996,0.00068929617539487,-0.00063326398803797,0.0006332639862086,-0.00063326398805171,0.00063326398622316,-0.00068929617814436,0.00068929617524334,-0.00068929617799791,0.00068929617509667,-0.0011174000083216,0.0011174000070974,-0.0011174000082174,0.0011174000072014,-0.0011174000083343,0.00111740000711,-0.0011174000082302,0.0011174000072141,-0.0010358434581349,0.0010358434574317,-0.0010358434582108,0.0010358434575078,-0.0010358434583111,0.0010358434574083,-0.0010358434582349,0.0010358434573314,-0.00063326398775408,0.00063326398649275,0.65593630488581,123866,2964,0.0040983575398425,0.0067011882475037,0.0035810459308686,35.848127106156,0.00020198501684925,0.00020198501684925,0.00020198501684925,2903137.3268982,0.014485613466885
36391759,0.99220732363834,0.014868529150397,0.0044876690865159,0.0061411138722565,0.0042397461916247,-0.00099293106939216,0.00099293106943552,-2.1864037951002e-16,-1.138200522873e-17,-8.3352527166922e-15,2.6274498802685e-14,-0.00034989784521882,0.00034989784534566,-0.00056295290912037,0.00056295290940336,-0.00056295290950776,0.00056295290979086,-0.0003498978458462,0.00034989784590625,-0.00034989784525159,0.00034989784531178,-0.00056295290915406,0.00056295290936859,-0.00056295290954217,0.00056295290975686,-0.00128279403271,0.0012827940326517,-0.001282794032927,0.001282794032869,-0.0012827940326987,0.0012827940326635,-0.0012827940329157,0.0012827940328807,-0.0011668427081743,0.0011668427081779,-0.0011668427083597,0.0011668427083638,-0.0011668427081852,0.0011668427081662,-0.0011668427083713,0.0011668427083528,-0.0003498978458124,0.00034989784593902,4.0319944723954e-15,-2.9851428132891e-14,1.1970136526428e-13,-1.4521690195862e-13,-0.0016244929764836,0.0016244929764582,-0.0015160769448078,0.0015160769445336,-0.0016521407607674,0.0016521407608622,-0.0016521407607746,0.0016521407608031,-0.0016009615429914,0.0016009615430649,-0.001600961543579,0.0016009615434774,-0.0016009615430348,0.0016009615430861,-0.0016009615436225,0.0016009615434986,-0.0015160769452083,0.0015160769454316,-0.0015160769448044,0.0015160769445077,-0.0016521407610253,0.0016521407609451,-0.0016521407610325,0.001652140760886,-0.0015160769452116,0.0015160769454574,-1.4149271425941e-13,-1.4166523104796e-13,-0.00086739602934812,0.00086739602868413,-2.2721233087808e-13,3.9592930169043e-14,-0.00064059910349692,0.00064059910349552,-0.00069627781512285,0.00069627781521498,-0.00069627781504465,0.00069627781513692,-0.00064059910368447,0.00064059910316635,-0.00064059910375553,0.00064059910323748,-0.00069627781538762,0.00069627781495016,-0.00069627781530963,0.00069627781487219,-0.0011247500021498,0.0011247500016019,-0.0011247500020601,0.0011247500016914,-0.0011247500021486,0.0011247500016007,-0.0011247500020591,0.0011247500016903,-0.0010435774773764,0.001043577477036,-0.0010435774774483,0.0010435774771083,-0.0010435774775371,0.0010435774770199,-0.0010435774774648,0.0010435774769473,-0.00064059910342643,0.00064059910342474,0.68699515304475,123866,2964,0.0041318508917555,0.0067439665802056,0.0036095884497171,37.528751858446,0.00021543001486757,0.00021543001486757,0.00021543001486757,2906705.5777143,0.014591955831187
37391759,0.99543809575744,0.014914726485351,0.004502061127509,0.0061599488096206,0.0042527165482214,-0.00099456096398961,0.00099456096412839,1.5969629785831e-14,1.6149418411059e-14,3.0439724499076e-14,4.6662015683922e-14,-0.00034235559386616,0.00034235559425288,-0.00055867930852318,0.00055867930898265,-0.00055867930862547,0.00055867930908505,-0.00034235559441077,0.00034235559476514,-0.00034235559388235,0.00034235559423696,-0.00055867930853882,0.00055867930896561,-0.00055867930864231,0.00055867930906925,-0.001287594103297,0.001287594103263,-0.0012875941033571,0.0012875941033232,-0.0012875941032919,0.0012875941032688,-0.0012875941033515,0.0012875941033285,-0.0011703941106581,0.0011703941106732,-0.0011703941108607,0.0011703941108762,-0.0011703941106624,0.0011703941106668,-0.001170394110867,0.0011703941108717,-0.00034235559439486,0.00034235559478128,-1.6026569222841e-15,-1.7826166819899e-14,5.703549289896e-14,-7.6408779734816e-14,-0.0016329257558398,0.0016329257558206,-0.0015260994852598,0.0015260994851135,-0.001663576240368,0.0016635762404078,-0.0016635762403076,0.0016635762403156,-0.0016063150842557,0.0016063150842832,-0.0016063150845957,0.0016063150845402,-0.0016063150842886,0.0016063150843061,-0.0016063150846287,0.0016063150845631,-0.001526099485988,0.0015260994860955,-0.0015260994852625,0.0015260994851057,-0.0016635762405674,0.0016635762405204,-0.0016635762405069,0.0016635762404283,-0.0015260994859851,0.0015260994861033,-2.2343780648133e-14,-2.2483607258879e-14,-0.00086623450539962,0.00086623450566969,5.1362401502126e-14,1.8241769932333e-13,-0.00063284614291932,0.00063284614348887,-0.00068999481702627,0.00068999481835271,-0.00068999481698711,0.00068999481831368,-0.00063284614294727,0.00063284614325502,-0.00063284614305009,0.000632846143358,-0.00068999481716002,0.00068999481821885,-0.00068999481712094,0.00068999481817983,-0.0011278195541965,0.0011278195540361,-0.0011278195541529,0.0011278195540796,-0.0011278195541877,0.0011278195540272,-0.0011278195541442,0.0011278195540708,-0.0010451497275719,0.0010451497273585,-0.0010451497276414,0.0010451497274283,-0.0010451497276853,0.0010451497273846,-0.0010451497276157,0.0010451497273148,-0.00063284614281642,0.00063284614338575,0.68009907945379,123866,2964,0.0041387113652356,0.0067788599620261,0.0036048322214593,37.63570794241,0.00021628566353928,0.00021628566353928,0.00021628566353928,2794730.1957569,0.014629541094026
38391759,0.99730361931213,0.014942897799425,0.0045108650893645,0.006171362344543,0.0042606703655172,-0.00099460521439415,0.00099460521456332,1.9974448617835e-14,2.0153707847471e-14,4.7018173921179e-14,4.7262762037415e-14,-0.00033979108336977,0.000339791083834,-0.00055691346949942,0.00055691347000804,-0.0005569134695019,0.0005569134700106,-0.00033979108387196,0.00033979108433502,-0.00033979108337042,0.00033979108383374,-0.00055691346949947,0.00055691347000662,-0.00055691346950316,0.00055691347001053,-0.0012889026515488,0.0012889026515234,-0.001288902651553,0.0012889026515277,-0.001288902651549,0.0012889026515239,-0.0012889026515526,0.0012889026515276,-0.0011711369667026,0.0011711369667153,-0.0011711369669125,0.0011711369669255,-0.0011711369667016,0.0011711369667142,-0.0011711369669136,0.0011711369669265,-0.00033979108387158,0.00033979108433552,-6.6768548501969e-15,-7.2709617006405e-15,-1.0776115650005e-14,-3.2486498368598e-15,-0.001635709743687,0.0016357097436731,-0.001528439975651,0.0015284399756427,-0.0016665301899524,0.0016665301899352,-0.0016665301898594,0.0016665301898412,-0.001608845801904,0.0016088458018844,-0.0016088458021244,0.0016088458021162,-0.0016088458019301,0.0016088458019109,-0.0016088458021505,0.0016088458021426,-0.001528439976584,0.0015284399765643,-0.0015284399756525,0.001528439975644,-0.001666530190099,0.0016665301900889,-0.0016665301900059,0.0016665301899949,-0.0015284399765825,0.0015284399765629,4.0675301515106e-15,3.9288505645474e-15,-0.00086509973819385,0.00086509973876563,1.8164720815542e-13,1.7029959158202e-13,-0.00063036531629213,0.00063036531693925,-0.000687837618228,0.00068783761987189,-0.00068783761820257,0.00068783761984651,-0.00063036531617037,0.00063036531683335,-0.00063036531628394,0.00063036531694706,-0.00068783761822275,0.0006878376198772,-0.00068783761819725,0.00068783761985177,-0.0011280159895343,0.0011280159895119,-0.0011280159895383,0.001128015989508,-0.0011280159895228,0.0011280159895004,-0.0011280159895268,0.0011280159894964,-0.0010451340675465,0.0010451340673148,-0.001045134067615,0.0010451340673836,-0.0010451340676113,0.0010451340673873,-0.0010451340675428,0.0010451340673186,-0.00063036531617827,0.00063036531682513,0.71704436579938,123866,2964,0.0041389236222423,0.0067903625199416,0.0036001440244321,37.195101673613,0.0002127608133889,0.0002127608133889,0.0002127608133889,2762959.4890279,0.014636683469799
38880000,0.99798466506877,0.014953568417567,0.0045141996092224,0.0061756807724487,0.0042636880358961,-0.00099435974313632,0.00099435974327458,1.3303799460412e-14,1.3484146892098e-14,3.9706463465385e-14,3.4306635779355e-14,-0.00033531803567219,0.0003353180360511,-0.00055394653729541,0.00055394653774085,-0.00055394653737578,0.00055394653782133,-0.00033531803618285,0.00033531803657235,-0.00033531803566664,0.00033531803605639,-0.00055394653728999,0.00055394653774529,-0.00055394653737136,0.0005539465378268,-0.0012901232173082,0.001290123217275,-0.001290123217356,0.001290123217323,-0.00129012321731,0.0012901232172736,-0.0012901232173574,0.0012901232173212,-0.0011718254415259,0.0011718254415273,-0.0011718254417322,0.001171825441734,-0.0011718254415234,0.0011718254415284,-0.0011718254417311,0.0011718254417365,-0.00033531803618809,0.0003353180365667,-8.6837347178651e-15,-3.4820645811996e-15,-4.7526867939749e-14,3.5161072912182e-14,-0.0016388147959773,0.0016388147959651,-0.0015324182519715,0.0015324182520369,-0.0016709719631627,0.0016709719631169,-0.0016709719630771,0.0016709719630417,-0.0016104357623049,0.0016104357622614,-0.00161043576256,0.0016104357625754,-0.0016104357623307,0.0016104357622912,-0.0016104357625858,0.0016104357626051,-0.0015324182529235,0.0015324182528333,-0.0015324182519679,0.001532418252037,-0.0016709719632901,0.0016709719633009,-0.0016709719632044,0.0016709719632258,-0.0015324182529269,0.0015324182528332,-4.8717309513753e-14,-4.8855801606444e-14,-0.00086345561360929,0.00086345561388684,1.4165624602833e-13,5.6725267082028e-14,-0.00062535686871889,0.00062535686906405,-0.00068360949082444,0.00068360949199025,-0.00068360949078811,0.00068360949195403,-0.00062535686853145,0.00062535686904228,-0.00062535686863585,0.00062535686914687,-0.00068360949074611,0.00068360949206848,-0.00068360949070982,0.00068360949203225,-0.001128530630936,0.0011285306308016,-0.001128530630964,0.0011285306307736,-0.0011285306309268,0.0011285306307923,-0.0011285306309548,0.0011285306307643,-0.0010448739890075,0.0010448739886626,-0.0010448739890765,0.0010448739887318,-0.001044873989048,0.0010448739887604,-0.0010448739889791,0.0010448739886911,-0.00062535686861433,0.00062535686895925,0.74364572121897,123866,2964,0.0041379512198008,0.0068032085107569,0.003593352883139,37.193629580063,0.0002127490366405,0.0002127490366405,0.0002127490366405,2697801.1474859,0.014641864256225
