time,ASR_ext,ASR_strain,ASR_strain_xx,ASR_strain_yy,ASR_strain_zz,disp_x_101,disp_x_102,disp_x_103,disp_x_104,disp_x_105,disp_x_106,disp_x_p10_neg,disp_x_p10_pos,disp_x_p11_neg,disp_x_p11_pos,disp_x_p12_neg,disp_x_p12_pos,disp_x_p13_neg,disp_x_p13_pos,disp_x_p14_neg,disp_x_p14_pos,disp_x_p15_neg,disp_x_p15_pos,disp_x_p16_neg,disp_x_p16_pos,disp_x_p1_neg,disp_x_p1_pos,disp_x_p2_neg,disp_x_p2_pos,disp_x_p3_neg,disp_x_p3_pos,disp_x_p4_neg,disp_x_p4_pos,disp_x_p5_neg,disp_x_p5_pos,disp_x_p6_neg,disp_x_p6_pos,disp_x_p7_neg,disp_x_p7_pos,disp_x_p8_neg,disp_x_p8_pos,disp_x_p9_neg,disp_x_p9_pos,disp_y_101,disp_y_102,disp_y_103,disp_y_104,disp_y_105,disp_y_106,disp_y_p10_neg,disp_y_p10_pos,disp_y_p11_neg,disp_y_p11_pos,disp_y_p12_neg,disp_y_p12_pos,disp_y_p1_neg,disp_y_p1_pos,disp_y_p2_neg,disp_y_p2_pos,disp_y_p3_neg,disp_y_p3_pos,disp_y_p4_neg,disp_y_p4_pos,disp_y_p5_neg,disp_y_p5_pos,disp_y_p6_neg,disp_y_p6_pos,disp_y_p7_neg,disp_y_p7_pos,disp_y_p8_neg,disp_y_p8_pos,disp_y_p9_neg,disp_y_p9_pos,disp_z_101,disp_z_102,disp_z_103,disp_z_104,disp_z_105,disp_z_106,disp_z_p10_neg,disp_z_p10_pos,disp_z_p11_neg,disp_z_p11_pos,disp_z_p12_neg,disp_z_p12_pos,disp_z_p13_neg,disp_z_p13_pos,disp_z_p14_neg,disp_z_p14_pos,disp_z_p15_neg,disp_z_p15_pos,disp_z_p16_neg,disp_z_p16_pos,disp_z_p1_neg,disp_z_p1_pos,disp_z_p2_neg,disp_z_p2_pos,disp_z_p3_neg,disp_z_p3_pos,disp_z_p4_neg,disp_z_p4_pos,disp_z_p5_neg,disp_z_p5_pos,disp_z_p6_neg,disp_z_p6_pos,disp_z_p7_neg,disp_z_p7_pos,disp_z_p8_neg,disp_z_p8_pos,disp_z_p9_neg,disp_z_p9_pos,humidity,ndof,nelem,strain_xx,strain_yy,strain_zz,temp,thermal_strain_xx,thermal_strain_yy,thermal_strain_zz,vonmises,vstrain
14391759,0,0,0,0,0,0,0,0,0,0,0,0,0,0,0,0,0,0,0,0,0,0,0,0,0,0,0,0,0,0,0,0,0,0,0,0,0,0,0,0,0,0,0,0,0,0,0,0,0,0,0,0,0,0,0,0,0,0,0,0,0,0,0,0,0,0,0,0,0,0,0,0,0,0,0,0,0,0,0,0,0,0,0,0,0,0,0,0,0,0,0,0,0,0,0,0,0,0,0,0,0,0,0,0,0,0,0,0,0,0,0,0,0,0,0,0,0,0,0,0,0,0,0
14891759,0.063454043818733,0.0011438394678656,0.00038127982262186,0.00038127982262186,0.00038127982262186,-0.00012416208726835,0.00012415867091254,-6.9540125724099e-10,-6.9540124686999e-10,-1.3722297943364e-09,-7.3252078639353e-10,-0.00010861668259038,0.00010861213830644,-0.00011365359172916,0.00011364696180796,-0.00011365521652424,0.00011364858660311,-0.00010861551744168,0.00010860978046082,-0.00010861726775019,0.0001086115307693,-0.0001136542055303,0.00011364634429384,-0.00011365582282082,0.00011364796158431,-0.00013089898204909,0.00013089775678564,-0.00013089968251818,0.00013089845725468,-0.00013089876993695,0.00013089797302689,-0.0001308994739666,0.00013089867705655,-0.00012444354308371,0.00012444293125851,-0.00012444410991913,0.000124443498094,-0.00012444375436264,0.00012444272521635,-0.00012444431328455,0.00012444328413825,-0.00010861491690457,0.00010861037262051,1.9799420791286e-10,-4.117663290644e-10,1.9960864540954e-10,-4.0482058330904e-10,-0.00013270547973066,0.00013270527372725,-0.00012802753818223,0.00012802695361325,-0.00013191299743891,0.00013191358687679,-0.00013191540446885,0.00013191480168004,-0.00013313102639591,0.00013313124974143,-0.00013313166594378,0.00013313146458168,-0.00013313113061336,0.00013313092421264,-0.0001331317701612,0.0001331311390529,-0.00012802498241535,0.00012802515824962,-0.00012802705708413,0.00012802605711712,-0.00013191292681531,0.0001319131069248,-0.0001319153338453,0.00013191432172797,-0.00012802546351327,0.00012802605474568,-8.7950205615781e-10,-8.7950203593049e-10,-0.00012445333436107,0.00012444840896066,-1.4375711767983e-09,-8.1309456345649e-10,-0.00011560192476693,0.0001155985413639,-0.00011923647674934,0.00011923076859541,-0.00011923508199352,0.0001192293738394,-0.00011560403361603,0.00011559948214508,-0.00011560252226038,0.00011559797078934,-0.0001192370726279,0.00011923016354776,-0.00011923568870323,0.00011922877962316,-0.00013007320844216,0.00013007136461984,-0.00013007299410643,0.00013007157333015,-0.0001300736268389,0.00013007178301664,-0.00013007341771646,0.00013007199694026,-0.00012322019222857,0.00012321907851403,-0.00012322005116364,0.00012321893744908,-0.00012322026305422,0.00012321873880845,-0.00012322039213508,0.00012321886788932,-0.00011560346058886,0.00011560007718591,0.72243549334236,123866,2964,0.00051720105429668,0.00055278485296874,0.00051841000464274,30.458212549227,0.00015886570039382,0.00015886570039382,0.00015886570039382,1343043.7186457,0.0015896631150204
15391759,0.11426761890368,0.0020613834279405,0.00067833923550807,0.00070541385075299,0.00067763034167948,-0.0001839465082838,0.00018394530977355,-3.7110863727558e-10,-3.7111062514867e-10,-4.723367915676e-10,-5.5209775827775e-11,-0.00015307760900834,0.00015307752381985,-0.00016200285672695,0.00016200191937593,-0.00016200362711791,0.00016200268977384,-0.00015307734198933,0.000153076463906,-0.00015307799781945,0.00015307711973341,-0.00016200326337288,0.00016200150703533,-0.00016200402983131,0.0001620022735004,-0.00020000743645815,0.00020000644894255,-0.00020000794190893,0.00020000695439024,-0.00020000729969337,0.00020000659056532,-0.00020000780667496,0.00020000709754389,-0.00018691659565027,0.00018691599211612,-0.00018691711980042,0.00018691651625482,-0.00018691673130556,0.00018691585690257,-0.00018691725245152,0.0001869163780369,-0.00015307694459793,0.00015307685941162,7.2400153048551e-11,-3.2108039278793e-10,7.5706353007809e-11,-3.1622955297247e-10,-0.00020599389450042,0.00020599365315315,-0.00019582569060731,0.00019582519918001,-0.00020431263348269,0.00020431290396005,-0.0002043130364639,0.00020431253277496,-0.00020820109934848,0.00020820112638564,-0.00020820229988556,0.00020820206242954,-0.00020820185115567,0.00020820161090024,-0.00020820305175992,0.00020820254701162,-0.000195823841041,0.00019582385325341,-0.00019582579901132,0.00019582504167067,-0.00020431299775736,0.00020431300655603,-0.00020431340079806,0.00020431263543064,-0.00019582373270126,0.00019582401082694,-4.5290265029025e-10,-4.5290495677769e-10,-0.00018394448295491,0.00018394240380429,-7.0970875721735e-10,-3.0576303479462e-10,-0.00016720307632653,0.00016720228952315,-0.00017477262727437,0.00017477087562466,-0.00017477199323944,0.00017477024161356,-0.00016720390529839,0.00016720234186812,-0.00016720347592975,0.00016720191259331,-0.00017477302060842,0.00017477047498991,-0.00017477239484928,0.00017476984925436,-0.00019739516429144,0.00019739383744658,-0.00019739502704045,0.00019739397146068,-0.00019739540539741,0.00019739407855107,-0.00019739527130942,0.00019739421572812,-0.00018379746223043,0.00018379666944796,-0.0001837973226251,0.0001837965298333,-0.0001837974600289,0.00018379640207853,-0.00018379759178624,0.00018379653384516,-0.00016720352504205,0.00016720273814437,0.74328681609528,123866,2964,0.00076615057481969,0.00085793384428043,0.00076613651127084,27.265042793107,0.00013332034234486,0.00013332034234486,0.00013332034234486,2043258.0773661,0.002393095843987
15891759,0.16014418001952,0.0029188911867638,0.00095149085573314,0.001019561709084,0.00094783862194663,-0.00024189403782579,0.00024189341837125,-2.3886337529226e-10,-2.388649992353e-10,-1.5359571167556e-10,8.3532144098866e-11,-0.000195331995684,0.00019533248708962,-0.00020882111823255,0.00020882148583497,-0.00020882144860139,0.0002088218162213,-0.00019533206209178,0.00019533209886907,-0.00019533221903965,0.00019533225583264,-0.00020882135133324,0.00020882124844254,-0.00020882168064945,0.00020882157777605,-0.00026704100369158,0.00026704023191683,-0.00026704129703956,0.00026704052526282,-0.00026704092582547,0.00026704031324257,-0.00026704121954047,0.00026704060695564,-0.00025036851416794,0.00025036792495526,-0.0002503688774344,0.00025036828820859,-0.00025036859100895,0.00025036784773137,-0.00025036895303007,0.00025036820973917,-0.00019533183511328,0.00019533232650292,4.3729787908526e-12,-2.1609635906449e-10,1.4129775176869e-11,-2.2050733309535e-10,-0.00028120445321339,0.00028120424661572,-0.00026667592140119,0.00026667555946294,-0.00027956382233084,0.00027956390505555,-0.0002795632534284,0.00027956290353689,-0.0002837006174962,0.00028370056655575,-0.00028370145332731,0.00028370124440256,-0.00028370109986027,0.00028370090005749,-0.00028370193576149,0.00028370157797442,-0.00026667566121268,0.00026667561187946,-0.00026667612830833,0.00026667561824666,-0.0002795641998833,0.00027956412697535,-0.00027956363101983,0.0002795631254958,-0.00026667545436571,0.0002666755531558,-2.602389045722e-10,-2.6024090453959e-10,-0.00024089894628125,0.00024089777527763,-2.9756555910906e-10,-5.5501929329157e-11,-0.00021967315275958,0.00021967313002627,-0.00022866251097833,0.00022866214758125,-0.00022866228687501,0.00022866192349305,-0.00021967336210134,0.00021967286846293,-0.00021967339506078,0.00021967290152227,-0.00022866274853216,0.00022866190577368,-0.00022866252827559,0.00022866168553194,-0.00026189672534167,0.00026189573897165,-0.00026189664348596,0.00026189581992923,-0.000261896822657,0.00026189583628567,-0.00026189674219583,0.0002618959186378,-0.00024455411318105,0.00024455348537794,-0.00024455399442337,0.00024455336660779,-0.00024455407697962,0.00024455328994055,-0.00024455419125324,0.00024455340422656,-0.00021967313123925,0.00021967310840573,0.7772745971742,123866,2964,0.0010073959862196,0.001170987203749,0.0010032422484394,25.412758616059,0.00011850206892847,0.00011850206892847,0.00011850206892847,2361047.2527695,0.003186715702209
16391759,0.20488624028438,0.0037532577100957,0.0012097785219207,0.001337390782535,0.0012060884056401,-0.00029792267722271,0.0002979222642478,-2.0352649897869e-10,-2.0352762881182e-10,-6.2134449276402e-11,1.1076140177109e-10,-0.00022773393824858,0.00022773470194546,-0.00025056250867237,0.00025056341458294,-0.0002505627012873,0.00025056360723441,-0.00022773417375771,0.00022773460641758,-0.00022773410080597,0.00022773453350247,-0.00025056267958834,0.00025056324056706,-0.00025056287151678,0.00025056343253183,-0.00033368838697935,0.00033368766794679,-0.00033368857497452,0.0003336878559393,-0.00033368832948219,0.00033368772771573,-0.00033368851766006,0.00033368791589097,-0.00031351058462782,0.00031350998921374,-0.00031351077543011,0.00031351018000337,-0.00031351064063894,0.00031350993314165,-0.00031351083031622,0.00031351012280611,-0.00022773400849473,0.00022773477215472,-1.2918117051568e-11,-1.7163016918333e-10,-5.9731446541265e-12,-1.7463266613742e-10,-0.00035888783581868,0.00035888765538493,-0.00033911033342558,0.00033911004109595,-0.00035812366877423,0.00035812369507931,-0.00035812287349364,0.00035812258948596,-0.00036098417798443,0.00036098411174395,-0.00036098478131987,0.00036098460007905,-0.000360984475436,0.00036098430012886,-0.00036098507883789,0.00036098478853035,-0.00033911048713296,0.00033911041950245,-0.00033911051930871,0.00033911012058292,-0.00035812396584758,0.00035812388040188,-0.00035812317059296,0.0003581227748346,-0.00033911030130416,0.00033911034006972,-1.7231113708841e-10,-1.7231282760846e-10,-0.00029617492994668,0.00029617412152966,-1.8626423445173e-10,-1.1347982108186e-11,-0.00027030843361589,0.00027030860865071,-0.00028123222148727,0.00028123222686206,-0.00028123211867135,0.00028123212404809,-0.00027030847207898,0.00027030830599835,-0.00027030860966103,0.00027030844365237,-0.00028123239368811,0.00028123205123896,-0.00028123229332906,0.00028123195088166,-0.00032549774297073,0.00032549690450066,-0.00032549768381801,0.00032549696350053,-0.00032549778395467,0.00032549694548238,-0.00032549772571114,0.00032549700539144,-0.0003042105593053,0.00030421007212655,-0.00030421047687021,0.00030420998967881,-0.00030421053677395,0.00030420993465395,-0.00030421061555808,0.00030421001345063,-0.00027030830511565,0.00027030848007843,0.77589297079768,123866,2964,0.001240607822441,0.0014942257441932,0.0012333094730575,24.448299236194,0.00011078639388955,0.00011078639388955,0.00011078639388955,2738804.1282941,0.0039760605329845
16891759,0.24922281530319,0.0045989934314264,0.0014662719157742,0.0016723001209205,0.0014604213947317,-0.00035443453209609,0.00035443427829552,-1.6838511897961e-10,-1.6838609886144e-10,-5.4935479111764e-12,1.1966659237069e-10,-0.00025821648162224,0.00025821738611578,-0.00029126783172257,0.00029126903810235,-0.00029126792332298,0.00029126912975132,-0.00025821683004743,0.00025821749453176,-0.00025821659955659,0.00025821726408977,-0.00029126795686259,0.000291268911135,-0.00029126804810654,0.00029126900242723,-0.0004015470919664,0.00040154641568518,-0.00040154721820528,0.00040154654192024,-0.00040154704946688,0.0004015464593168,-0.0004015471757705,0.00040154658561663,-0.00037847215589853,0.00037847159660654,-0.00037847223301852,0.0003784716737133,-0.00037847219632932,0.00037847155620441,-0.00037847227254564,0.00037847163240735,-0.00025821671019462,0.00025821761463901,-2.1520858611365e-11,-1.3467910530709e-10,-2.0522643909448e-11,-1.3285367099817e-10,-0.00044056125213914,0.00044056109925526,-0.00041655365144708,0.00041655342592327,-0.00044082848876815,0.00044082847974085,-0.00044082766363905,0.00044082743375546,-0.00044179555617879,0.00044179548355163,-0.0004417960124812,0.00044179586241206,-0.00044179574165316,0.00044179558995988,-0.00044179619801758,0.00044179596888219,-0.00041655396876981,0.00041655388853184,-0.00041655381835925,0.00041655351717712,-0.00044082873201445,0.0004408286488176,-0.00044082790690298,0.00044082760284992,-0.00041655380190223,0.00041655379732243,-1.2666212911589e-10,-1.2666367809981e-10,-0.00035119022965615,0.00035118964665522,-1.2261677091388e-10,-5.1002310395585e-12,-0.00032035685364522,0.00032035711219082,-0.00033229061212173,0.0003322908005735,-0.00033229059543152,0.00033229078387518,-0.00032035671671649,0.0003203567443711,-0.00032035697355446,0.00032035700127448,-0.00033229072875598,0.00033229068095361,-0.00033229071359788,0.00033229066578726,-0.00038959083424453,0.00038959011097563,-0.00038959079448928,0.0003895901510296,-0.00038959083869708,0.00038959011542574,-0.00038959079947954,0.00038959015601743,-0.00036569545266677,0.00036569504976164,-0.00036569543270887,0.00036569502979052,-0.00036569547338464,0.00036569499340755,-0.00036569549029651,0.00036569501033253,-0.00032035660414749,0.0003203568626277,0.79749073691977,123866,2964,0.0014757888132597,0.0018339474729689,0.0014622449583305,23.815301129536,0.00010572240903629,0.00010572240903629,0.00010572240903629,3116424.0664432,0.0047834291544472
17391759,0.2891270902956,0.0053113206571402,0.0016794826109905,0.001963545346585,0.0016682926995648,-0.0003987516667928,0.00039875174606088,-1.0546087762493e-10,-1.0546189584383e-10,1.265961879263e-10,1.660182615943e-10,-0.00027474638879543,0.00027474764245732,-0.0003172013021503,0.00031720312518592,-0.00031720123427644,0.00031720305736574,-0.00027474680640339,0.00027474798252863,-0.00027474642687833,0.00027474760305849,-0.0003172013448984,0.0003172030820109,-0.00031720127735128,0.00031720301451716,-0.00045823782647231,0.00045823726581792,-0.00045823787204511,0.00045823731138607,-0.00045823781163647,0.00045823728050214,-0.00045823785698794,0.00045823732584899,-0.00042923599828253,0.00042923549330231,-0.00042923600406908,0.00042923549907528,-0.00042923601056504,0.00042923548087425,-0.00042923601608245,0.00042923548637796,-0.00027474676786501,0.00027474802147165,-4.2012630395921e-11,-7.3051100285722e-11,-4.9628758257855e-11,-6.403194077671e-11,-0.0005100535069728,0.00051005339408456,-0.00048062032670308,0.00048062020855703,-0.00051033172387028,0.00051033164247689,-0.0005103306792482,0.00051033053786013,-0.00051150921392137,0.00051150911981095,-0.00051150951218818,0.00051150940723521,-0.00051150931100343,0.00051150919355654,-0.00051150960932984,0.00051150948104023,-0.00048062091832405,0.00048062080982129,-0.00048062050251768,0.00048062036417738,-0.00051033192900031,0.00051033183911714,-0.00051033088439312,0.00051033073451536,-0.00048062074255037,0.00048062065424175,-5.6853165036966e-11,-5.6854574955291e-11,-0.00039328762244087,0.00039328750461531,2.0739323597018e-11,3.8308130058051e-11,-0.00035312550203294,0.00035312599076653,-0.00036743730589013,0.00036743798775613,-0.00036743742500787,0.00036743810686162,-0.00035312514269481,0.00035312559134124,-0.00035312552492305,0.00035312597363221,-0.00036743732614357,0.0003674379655791,-0.00036743744547088,0.00036743808489404,-0.00044208747659471,0.00044208694747146,-0.00044208747066606,0.00044208695427855,-0.00044208743368694,0.00044208690456146,-0.00044208742772292,0.00044208691133318,-0.00041311693138361,0.00041311660979226,-0.0004131169545121,0.00041311663290728,-0.00041311696156746,0.00041311662889787,-0.00041311693657343,0.0004131166039172,-0.00035312512429647,0.00035312561296742,0.74995420119729,123866,2964,0.0016601989165089,0.0021229018289037,0.0016373984978174,22.123328875377,9.2186631003013e-05,9.2186631003013e-05,9.2186631003013e-05,3446079.0135224,0.0054352816217359
17891759,0.32258921310908,0.0058624296681687,0.0018439879191047,0.0021926966151464,0.0018257451339177,-0.00043085343606039,0.00043085380420275,-4.6122581325036e-11,-4.6123691746995e-11,2.3612382896146e-10,1.8177922907815e-10,-0.00028690189186451,0.00028690335341492,-0.00033572640645743,0.00033572867983233,-0.00033572619963614,0.0003357284730672,-0.00028690232857112,0.00028690389113258,-0.00028690184201612,0.00028690340463492,-0.00033572635870754,0.00033572872871875,-0.00033572615283614,0.0003357285229032,-0.00050067089306521,0.0005006704683996,-0.00050067085646614,0.00050067043179546,-0.00050067090850188,0.0005006704513775,-0.00050067087141934,0.00050067041428988,-0.00046404766963858,0.00046404722982901,-0.00046404761568143,0.00046404717585815,-0.00046404765123682,0.00046404724807607,-0.00046404759755651,0.00046404719438193,-0.00028690237926207,0.00028690384075489,-6.1117979181807e-11,-2.5127483595051e-12,-7.9022212519401e-11,1.5135935965542e-11,-0.00056089926966786,0.0005608992068162,-0.00052396227639776,0.00052396228367818,-0.00055620433593979,0.00055620418156332,-0.00055620315748205,0.00055620311887734,-0.0005662609655075,0.00056626085377464,-0.00056626109333338,0.00056626104436342,-0.000566260966967,0.00056626089271884,-0.00056626109485101,0.00056626108336553,-0.00052396305783028,0.00052396292305661,-0.00052396244651177,0.00052396249403983,-0.00055620448638479,0.00055620439611314,-0.00055620330794012,0.00055620333344028,-0.00052396288775507,0.00052396271273358,3.1451777340748e-12,3.1437546369244e-12,-0.00042313492110535,0.00042313520281114,1.4509225595213e-10,5.2064989817947e-11,-0.00037460221981308,0.00037460283632778,-0.00039207312611452,0.00039207414815192,-0.00039207336755369,0.0003920743895761,-0.00037460165143286,0.00037460244049269,-0.00037460213456379,0.00037460292368396,-0.00039207303930309,0.00039207423424334,-0.00039207327952148,0.00039207447444661,-0.00048055185134711,0.00048055153001986,-0.00048055188274863,0.00048055150005172,-0.00048055176363515,0.00048055144230576,-0.00048055179441394,0.00048055141171488,-0.00044590534440339,0.00044590509295425,-0.00044590540488709,0.0004459051534248,-0.0004459053746671,0.00044590518523063,-0.00044590531361864,0.00044590512419526,-0.00037460173803238,0.00037460235448677,0.69743113529652,123866,2964,0.0017937605582082,0.0023342557060224,0.0017615688844896,19.639702776248,7.2317622209985e-05,7.2317622209985e-05,7.2317622209985e-05,3851972.3032789,0.0059070519330504
18391759,0.35135855654034,0.0063381709107838,0.0019854721948913,0.0023916718397111,0.0019610268761814,-0.00045856554096488,0.00045856597504608,-3.1603622428087e-11,-3.1604261629148e-11,2.5777495521089e-10,1.5170742675107e-10,-0.00029871489240589,0.00029871628878543,-0.00035344136098322,0.00035344366053384,-0.00035344111542372,0.00035344341503281,-0.00029871529145814,0.00029871688892346,-0.00029871479316683,0.0002987163906916,-0.00035344126317154,0.00035344376091815,-0.00035344101865444,0.00035344351645918,-0.00053706348926534,0.00053706311817292,-0.0005370634124453,0.00053706304134791,-0.00053706352123297,0.00053706308360846,-0.00053706344386791,0.00053706300623842,-0.00049420879813963,0.00049420838043819,-0.00049420872754009,0.00049420830982608,-0.0004942087629774,0.00049420841582817,-0.00049420869267797,0.00049420834551601,-0.00029871539179793,0.00029871678811768,-6.5166006634994e-11,4.292073005024e-11,-9.6650052048797e-11,7.297687324816e-11,-0.00060433687780979,0.00060433685536761,-0.00056040349601282,0.00056040360069181,-0.00059443180497761,0.00059443161827774,-0.00059443063085188,0.0005944306571167,-0.00061413482233774,0.00061413470933484,-0.00061413481782035,0.00061413481773499,-0.00061413473442644,0.00061413469137239,-0.0006141347299665,0.00061413479982984,-0.00056040432247123,0.00056040417042968,-0.00056040363191606,0.00056040380996088,-0.00059443190343855,0.00059443183097749,-0.0005944307293243,0.00059443086982803,-0.00056040418660546,0.00056040396119791,5.1457733718469e-12,5.1437762288141e-12,-0.00044890516505206,0.00044890551509242,1.7217094113049e-10,2.9236989311663e-12,-0.00039514483203351,0.00039514534619629,-0.00041495737629569,0.00041495835290134,-0.0004149576520788,0.00041495862866783,-0.00039514416115711,0.00039514499656423,-0.00039514467144255,0.00039514550690969,-0.00041495721510795,0.00041495851395432,-0.00041495748901645,0.00041495878784605,-0.00051329954211252,0.00051329930648642,-0.00051329959900572,0.00051329925119732,-0.00051329943536226,0.00051329919973377,-0.00051329949138732,0.00051329914357655,-0.00047442004901296,0.00047441978511917,-0.00047442013308413,0.00047441986917863,-0.00047442007722023,0.00047441992589156,-0.00047441999315207,0.00047441984183505,-0.00039514432155524,0.00039514483565805,0.70636194990641,123866,2964,0.0019090441044058,0.0025147722437847,0.0018687668163504,17.516039690022,5.5328317520177e-05,5.5328317520177e-05,5.5328317520177e-05,4171739.4036333,0.006312532461732
18891759,0.37917822336469,0.0068128236875141,0.002125736362647,0.0025913849374677,0.0020957023873994,-0.00048861758492327,0.00048861783208999,-7.390745867787e-11,-7.3908128319177e-11,1.8092468687501e-10,1.0105221018905e-10,-0.00030785121484594,0.00030785233748721,-0.00037097903938842,0.00037098100339606,-0.00037097887605841,0.00037098084012713,-0.00030785156207482,0.00030785283780547,-0.00030785113905867,0.00030785241485074,-0.00037097896669446,0.00037098107910494,-0.00037097880384512,0.00037098091631631,-0.00057686119762671,0.00057686074639501,-0.00057686114146718,0.00057686069023021,-0.00057686122074525,0.00057686072064441,-0.00057686116425602,0.00057686066414991,-0.00052914752931168,0.00052914707051151,-0.00052914748549027,0.00052914702667776,-0.00052914750308453,0.00052914709762796,-0.00052914745896536,0.00052914705349631,-0.0003078516378728,0.00030785276045235,-4.9578018160871e-11,3.3355214942035e-11,-9.8555431394075e-11,8.0982776481216e-11,-0.00065363721014738,0.00065363719387234,-0.00060406547299792,0.00060406560240412,-0.00064205784116267,0.0006420576821531,-0.00064205677419605,0.0006420567791601,-0.00066532220242025,0.00066532210259023,-0.00066532215201109,0.00066532216998438,-0.00066532206110735,0.00066532201225043,-0.00066532201075497,0.00066532207970114,-0.00060406621755339,0.00060406605302172,-0.00060406556048305,0.00060406574588472,-0.00064205790792967,0.000642057869217,-0.00064205684097276,0.00064205696623376,-0.0006040661301045,0.00060406590957724,-5.6121479735038e-11,-5.6123455834596e-11,-0.00047683054075812,0.00047683059536505,9.4143267413355e-11,-8.392503784807e-11,-0.00041748287112433,0.00041748313202035,-0.00043922672551729,0.00043922730720634,-0.00043922693180773,0.00043922751347799,-0.00041748226046441,0.0004174828631572,-0.00041748270073876,0.00041748330349042,-0.00043922655487885,0.00043922747741524,-0.00043922675980315,0.00043922768232065,-0.00054913433653034,0.00054913400027759,-0.00054913439594775,0.00054913394211443,-0.00054913424701837,0.00054913391076341,-0.00054913430582322,0.00054913385198772,-0.00050662069554379,0.00050662032782994,-0.00050662078640702,0.00050662041868161,-0.00050662072773086,0.00050662047871269,-0.0005066206363069,0.00050662038730017,-0.00041748243168556,0.00041748269252278,0.73210601936571,123866,2964,0.0020340610097601,0.0027196158843638,0.0019849218726697,16.90847304964,5.0467784397123e-05,5.0467784397123e-05,5.0467784397123e-05,4269935.8587741,0.0067614867816769
19391759,0.40852323732922,0.0073306288272334,0.0022772062724201,0.0028128512202007,0.0022405713346126,-0.00052329189773605,0.0005232919518055,-1.1752032098192e-10,-1.1752100778447e-10,9.1940518074401e-11,6.1518655838469e-11,-0.00031845972611901,0.00031846056599575,-0.00039105430326629,0.00039105594908718,-0.00039105424510827,0.00039105589099314,-0.00031846002869471,0.00031846092835476,-0.00031845969627044,0.00031846059599479,-0.00039105427814928,0.00039105597696576,-0.00039105421996265,0.00039105591884266,-0.00062227488756408,0.00062227434751187,-0.0006222748695103,0.00062227432945254,-0.00062227489434194,0.00062227433842034,-0.00062227487617842,0.00062227432025134,-0.00057035107059558,0.0005703505823383,-0.00057035105331013,0.00057035056504073,-0.00057035106081861,0.0005703505934123,-0.00057035104272445,0.00057035057530591,-0.0003184600575625,0.00031846089737447,-2.9157498111388e-11,5.9481312454749e-12,-8.7692473437484e-11,6.3666440039933e-11,-0.00071102317747473,0.00071102315472688,-0.0006565043026665,0.00065650441456432,-0.00069926041386351,0.00069926030454224,-0.00069925946928297,0.00069925943032688,-0.00072347860185723,0.00072347852248001,-0.00072347857015747,0.00072347858848678,-0.00072347845259678,0.00072347839058267,-0.00072347842095266,0.00072347845664481,-0.0006565048658704,0.00065650470606722,-0.0006565043556422,0.00065650449103347,-0.00069926046579163,0.00069926045754745,-0.00069925952121875,0.00069925958333973,-0.00065650481292939,0.00065650462963249,-1.1595464024254e-10,-1.1595660991399e-10,-0.00050886568876972,0.00050886542828865,-3.4286928026634e-12,-1.5216320065929e-10,-0.00044333524361401,0.00044333526834846,-0.00046677281122693,0.00046677298317329,-0.0004667729313526,0.00046677310327824,-0.0004433347601575,0.00044333507245586,-0.00044333510112964,0.00044333541348572,-0.00046677266846314,0.00046677312509967,-0.00046677278793288,0.00046677324454858,-0.00059001685330468,0.00059001639674733,-0.00059001690253575,0.00059001634833794,-0.0005900167887682,0.00059001633220885,-0.00059001683771428,0.00059001628351446,-0.00054443087371409,0.00054443042551207,-0.00054443097287205,0.00054443052465869,-0.00054443092421962,0.00054443057545665,-0.00054443082375116,0.00054443047499949,-0.00044333490493776,0.00044333492961454,0.75731812556771,123866,2964,0.0021782973627299,0.0029580005525876,0.0021181603209025,17.474153948987,5.4993231591894e-05,5.4993231591894e-05,5.4993231591894e-05,4315072.7493306,0.0072809922970126
19891759,0.44077310165935,0.0078771193122203,0.0024363012293169,0.0030505424487941,0.0023902756341094,-0.00056067637222516,0.00056067629096714,-1.4660688680436e-10,-1.4660777908593e-10,1.3995859127287e-11,4.6476030497994e-11,-0.00032936590515561,0.00032936655027679,-0.00041131257330898,0.00041131398947848,-0.00041131260486372,0.00041131402109926,-0.00032936619235928,0.00032936677602607,-0.0003293659352755,0.00032936651900845,-0.00041131260894274,0.00041131395566099,-0.00041131264018598,0.00041131398696986,-0.00067190876990346,0.00067190816598381,-0.00067190879141756,0.00067190818749203,-0.00067190875619009,0.00067190817801444,-0.00067190877772615,0.00067190819954464,-0.00061374305382631,0.0006137425636327,-0.0006137430554193,0.00061374256521332,-0.00061374306478875,0.00061374255400183,-0.00061374306529923,0.00061374255449984,-0.0003293661606929,0.00032936680574761,-6.1787891539974e-12,-3.2517817097494e-11,-7.0702987511602e-11,3.2031547169618e-11,-0.00077349788481161,0.00077349784732442,-0.00071251364296472,0.00071251371350818,-0.00076034512600294,0.00076034507816227,-0.0007603443055725,0.00076034420736481,-0.0007877180164475,0.00078771795967148,-0.00078771804695788,0.00078771805503373,-0.00078771789973688,0.00078771781878409,-0.00078771793030163,0.00078771791420046,-0.0007125139945928,0.00071251384701613,-0.00071251368412446,0.00071251373677772,-0.00076034517976613,0.00076034520037854,-0.00076034435934172,0.00076034432958712,-0.00071251395346662,0.00071251382377998,-1.5850980899811e-10,-1.5851159940297e-10,-0.00054284227730178,0.00054284177164945,-9.2442309221129e-11,-1.9177440850986e-10,-0.00046839315375242,0.00046839301599058,-0.00049455106407875,0.00049455092451281,-0.00049455111190783,0.00049455097231956,-0.00046839280202545,0.00046839285694452,-0.00046839305943425,0.00046839311440936,-0.00049455096916274,0.00049455101831093,-0.00049455101694568,0.00049455106607142,-0.00063433435161543,0.00063433379778149,-0.0006343343841157,0.00063433376572716,-0.00063433431103022,0.00063433375719461,-0.00063433434350917,0.00063433372511898,-0.00058413064332957,0.00058413015603402,-0.00058413075040636,0.00058413026309922,-0.00058413071848891,0.00058413029790692,-0.00058413060946766,0.00058413018889718,-0.00046839289987953,0.00046839276206171,0.7279788920047,123866,2964,0.0023337931666915,0.0032174502378107,0.0022594612376963,18.684364121861,6.4674912974884e-05,6.4674912974884e-05,6.4674912974884e-05,4411965.7852763,0.0078414792963184
20391759,0.4727158024026,0.0084405695466108,0.0025997334721718,0.0032974426199816,0.0025433934544574,-0.00059706354583261,0.00059706371237702,-9.8838476581798e-11,-9.8839400024175e-11,1.0109455668951e-10,1.0046785833472e-10,-0.00034333944407074,0.00034334037737782,-0.00043361365865538,0.0004336155728249,-0.00043361359443901,0.00043361550867627,-0.00034333979468357,0.00034334072688733,-0.00034333944467107,0.00034334037694204,-0.00043361366244638,0.0004336155705548,-0.00043361359844531,0.00043361550662105,-0.00071920835713368,0.00071920784001534,-0.00071920833912948,0.0007192078220051,-0.000719208354615,0.00071920784080399,-0.00071920833636969,0.00071920782255266,-0.00065611643973972,0.00065611600449018,-0.0006561164024831,0.00065611596722138,-0.00065611643964737,0.00065611600537614,-0.00065611640194317,0.00065611596765967,-0.00034333979367713,0.00034334072691669,-1.5529461203267e-11,-1.0843242957768e-11,-8.3672951247672e-11,5.6996678316337e-11,-0.00083355271256766,0.00083355268704951,-0.0007664936572139,0.00076649376591299,-0.00081739066677277,0.00081739058810527,-0.00081738967468532,0.00081738960597742,-0.00085068109194022,0.00085068102185972,-0.00085068112241775,0.00085068114463659,-0.00085068100684595,0.00085068093541016,-0.00085068103737681,0.0008506810582401,-0.0007664940812859,0.00076649391946462,-0.00076649374093736,0.00076649385295227,-0.00081739072562034,0.00081739074116795,-0.00081738973353754,0.00081738975904473,-0.00076649399759514,0.00076649383245788,-9.8946569628894e-11,-9.8948373724515e-11,-0.00057576913680511,0.00057576896321361,-6.1317178502654e-12,-1.4505598051437e-10,-0.00049560041259279,0.00049560048558219,-0.00052334372073301,0.00052334392693757,-0.00052334385407183,0.00052334406025292,-0.00049559995032023,0.00049560028910674,-0.00049560028090464,0.00049560061974601,-0.00052334358821939,0.00052334405896472,-0.00052334372094051,0.00052334419166229,-0.00067616517351347,0.00067616475036667,-0.00067616521969256,0.00067616470492569,-0.00067616511097561,0.00067616468782735,-0.0006761651568045,0.0006761646420362,-0.00062338028257217,0.00062337988394088,-0.00062338040254943,0.00062338000390685,-0.00062338035719635,0.00062338005129533,-0.00062338023604626,0.00062337993015645,-0.00049560008405197,0.00049560015698655,0.75819559957844,123866,2964,0.002485118171559,0.0034667708972417,0.0023963821885046,18.60696006348,6.4055680507839e-05,6.4055680507839e-05,6.4055680507839e-05,4580322.1233394,0.0083834287862463
20891759,0.50173361138102,0.0089332820642574,0.0027422244453793,0.0035156167010649,0.0026754409178132,-0.00062554641552321,0.00062554685130884,-5.0114956169548e-11,-5.0116385037662e-11,2.1813403924307e-10,1.4592911137758e-10,-0.00034518838652471,0.0003451896292325,-0.00044443178371736,0.00044443423650204,-0.00044443160064485,0.00044443405349851,-0.00034518876166146,0.00034519013949497,-0.00034518831974986,0.00034518969765123,-0.00044443171822266,0.00044443430398539,-0.00044443153579898,0.00044443412163027,-0.0007598516718024,0.00075985124984598,-0.00075985159644003,0.00075985117447708,-0.00075985169278778,0.00075985122655613,-0.00075985161696251,0.00075985115072434,-0.0006908369086684,0.00069083650711954,-0.00069083683529762,0.00069083643373575,-0.00069083688497196,0.00069083653139221,-0.00069083681163442,0.00069083645804158,-0.00034518882894833,0.000345190071588,-3.6891530165547e-11,3.6831782636014e-11,-1.1378515153548e-10,1.1254003464325e-10,-0.00088725855312258,0.00088725855308694,-0.0008144364711729,0.00081443666551716,-0.00087105664970276,0.00087105650077168,-0.00087105542919323,0.00087105542547841,-0.00090529851610789,0.00090529841837317,-0.00090529846574125,0.00090529851875621,-0.00090529840269626,0.0009052983509132,-0.00090529835238201,0.00090529845134835,-0.0008144371209171,0.00081443692413498,-0.00081443657841286,0.00081443682256658,-0.0008710566902264,0.00087105669290007,-0.00087105546972033,0.00087105561761022,-0.00081443701370913,0.0008144367671174,-4.0399602141577e-11,-4.0400907544713e-11,-0.00060044623148793,0.00060044644393356,1.1950793863657e-10,-1.0667674910865e-10,-0.00051092387915137,0.00051092415677105,-0.00054130059150581,0.00054130120867951,-0.0005413008302855,0.0005413014474345,-0.00051092324792914,0.00051092395843763,-0.00051092366290117,0.00051092437346268,-0.0005413003746365,0.00054130142571676,-0.00054130061209627,0.00054130166315173,-0.00071125143261956,0.0007112511641276,-0.00071125150828206,0.00071125108955861,-0.00071125133950614,0.00071125107101322,-0.00071125141445882,0.00071125099573442,-0.00065403006028639,0.00065402972039131,-0.00065403019149316,0.00065402985158588,-0.00065403011674999,0.00065402992736833,-0.00065402998521908,0.00065402979584955,-0.00051092346446703,0.00051092374203366,0.73179653042087,123866,2964,0.0026035934364235,0.0036896767968345,0.0024990070345134,17.403442481246,5.4427539849965e-05,5.4427539849965e-05,5.4427539849965e-05,4622785.3345854,0.0088312964241476
21391759,0.52645122037909,0.0093497440127508,0.0028625616103968,0.0037014251269422,0.0027857572754118,-0.0006479878838088,0.00064798856636731,-4.1586336918894e-12,-4.1600655893224e-12,3.223553001345e-10,1.7701413678081e-10,-0.00034976722024599,0.00034976871185611,-0.00045494982264916,0.0004549527257049,-0.00045494952940336,0.00045495243252888,-0.0003497676067162,0.00034976937277366,-0.00034976708462742,0.00034976885075298,-0.00045494968642083,0.0004549528646866,-0.00045494939423772,0.00045495257257284,-0.00079143257995211,0.00079143226014514,-0.00079143244438558,0.00079143212457204,-0.00079143262485143,0.00079143221221912,-0.00079143248861687,0.000791432075978,-0.00071720654138499,0.00071720617629737,-0.00071720643899009,0.00071720607388961,-0.00071720649365609,0.00071720622448684,-0.00071720639173121,0.00071720612254906,-0.00034976774372585,0.00034976923526749,-5.5624568648787e-11,8.8359633163749e-11,-1.437357071934e-10,1.7423906598516e-10,-0.00092859335588888,0.00092859338768795,-0.00084985758357007,0.00084985787537396,-0.00090897474737612,0.00090897453153335,-0.00090897334444259,0.00090897341148816,-0.00094974062200885,0.00094974050076205,-0.00094974045779921,0.00094974054948538,-0.00094974045270595,0.00094974042528584,-0.00094974028854801,0.00094974047406065,-0.00084985845541284,0.00084985822444103,-0.0008498577008391,0.00084985808975102,-0.00090897475799555,0.00090897475506428,-0.00090897335506479,0.00090897363502183,-0.00084985833817536,0.00084985801009545,1.0296007787559e-11,1.0294641064606e-11,-0.00061968157701646,0.00061968214662138,2.3719731261488e-10,-8.232061737626e-11,-0.00052428184125722,0.0005242822776421,-0.00055654647344918,0.00055654745277576,-0.00055654681042324,0.00055654778972463,-0.00052428104127942,0.00052428208988781,-0.00052428153418745,0.00052428258284837,-0.00055654616621325,0.00055654776091151,-0.00055654650107615,0.00055654809574909,-0.00073801556559611,0.00073801546018051,-0.00073801567272687,0.00073801535450338,-0.00073801544108799,0.00073801533567154,-0.00073801554713441,0.0007380152289101,-0.00067786402980317,0.00067786373672945,-0.0006778641706746,0.00067786387758889,-0.00067786406449611,0.00067786398373804,-0.00067786392420591,0.00067786384345971,-0.00052428134667436,0.00052428178300676,0.72687224241033,123866,2964,0.0026969230936636,0.00386118315633,0.0025789953903292,15.325958280364,3.7807666242913e-05,3.7807666242913e-05,3.7807666242913e-05,4770126.6946166,0.0091792511531625
21891759,0.54857344105133,0.0097168482517399,0.0029685362130797,0.0038658153709705,0.0028824966676898,-0.0006682766615146,0.00066827724586106,-2.9687718560576e-11,-2.9689187251003e-11,2.9059820179206e-10,1.329369963219e-10,-0.00035186538507358,0.00035186668771376,-0.00046303467246429,0.0004630373571118,-0.00046303443059753,0.00046303711531551,-0.00035186569867486,0.00035186730245383,-0.00035186523580417,0.00035186683965159,-0.00046303452392087,0.00046303750900649,-0.00046303428274963,0.00046303726790527,-0.00082064503476102,0.00082064468148926,-0.00082064490999664,0.00082064455671822,-0.00082064508330682,0.0008206446295278,-0.00082064495805185,0.00082064450426619,-0.00074144722709084,0.00074144682850488,-0.00074144714527873,0.00074144674668002,-0.00074144717549389,0.00074144688112432,-0.00074144709368687,0.00074144679930446,-0.00035186584855597,0.00035186715112731,-5.5603058188269e-11,1.0112606672506e-10,-1.5731888258598e-10,2.0033440187558e-10,-0.00096712733359103,0.00096712737793759,-0.00088307884862048,0.00088307918786898,-0.00094558980172682,0.00094558957299059,-0.00094558843376514,0.0009455885133147,-0.00099039930003004,0.00099039917532123,-0.00099039907894953,0.00099039919208972,-0.00099039907543938,0.00099039905142022,-0.00099039885441018,0.00099039906823977,-0.00088307972196151,0.00088307946850393,-0.00088307892499007,0.00088307936947951,-0.00094558977653012,0.00094558978670826,-0.00094558840857072,0.0009455887270346,-0.00088307964562335,0.0008830792869247,-3.1524632343018e-11,-3.1525978020659e-11,-0.00063685145154785,0.00063685186221915,2.096070388152e-10,-1.4880065934816e-10,-0.00053510051226332,0.00053510076311808,-0.0005693565915211,0.00056935732431529,-0.00056935688999269,0.00056935762276129,-0.000535099724169,0.00053510066619264,-0.00053510016590609,0.00053510110798187,-0.00056935624559744,0.0005693576709738,-0.00056935654219696,0.00056935796754761,-0.00076267080500618,0.0007626706566204,-0.00076267092476467,0.00076267053812936,-0.00076267068920783,0.00076267054082136,-0.0007626708080255,0.00076267042138952,-0.00069935842767421,0.00069935805270885,-0.00069935857124367,0.00069935819626632,-0.00069935845214348,0.00069935831562135,-0.00069935830882581,0.00069935817231557,-0.00053510006934075,0.00053510032014343,0.71778069448609,123866,2964,0.0027813037289587,0.0040210418424635,0.0026503955866478,13.951554067279,2.6812432538236e-05,2.6812432538236e-05,2.6812432538236e-05,4842439.6488006,0.0094978683219884
22391759,0.57169765456491,0.010104899544274,0.0030802662160819,0.0040403356720495,0.0029842976561423,-0.00069431002823665,0.00069431014539398,-1.2736075348111e-10,-1.2736224522966e-10,9.3604617134376e-11,2.723079930895e-11,-0.00035938779879195,0.0003593884705881,-0.00047674987646081,0.00047675164804273,-0.00047674987053068,0.0004767516421838,-0.00035938799512163,0.00035938879784675,-0.0003593877330915,0.00035938853588555,-0.0004767498156768,0.00047675171179806,-0.00047674980939672,0.00047675170558874,-0.00085578918148269,0.00085578864525933,-0.00085578915651107,0.00085578862028099,-0.00085578919965094,0.00085578862417853,-0.00085578917471669,0.00085578859923755,-0.00077175275049373,0.00077175226883035,-0.00077175274033159,0.00077175225865558,-0.0007717527292111,0.00077175229208101,-0.00077175271779702,0.00077175228065423,-0.00035938805920483,0.00035938873093174,-2.3778350822999e-11,4.5871360104451e-11,-1.3471792735318e-10,1.5539418920849e-10,-0.0010122003417454,0.0010122003636681,-0.00092282357895209,0.00092282386004752,-0.00098863021064546,0.00098863006698039,-0.00098862916775596,0.00098862916217635,-0.001037735353241,0.0010377352615036,-0.0010377351991199,0.0010377352965968,-0.001037735120332,0.0010377350675677,-0.0010377349662615,0.0010377351027114,-0.0009228241302609,0.00092282389048838,-0.00092282357816144,0.00092282390530294,-0.00098863016741076,0.00098863021669007,-0.00098862912452288,0.00098862931188764,-0.0009228241310826,0.00092282384526392,-1.6689493565075e-10,-1.668963048148e-10,-0.00065951747097667,0.00065951714992103,-9.3363119236236e-13,-2.8860137962954e-10,-0.00055168340516498,0.00055168314431683,-0.00058779281101299,0.00058779265681915,-0.00058779291525402,0.00058779276103414,-0.00055168286648558,0.00055168316680346,-0.00055168312554667,0.00055168342591614,-0.00058779253218874,0.00058779293529429,-0.00058779263593372,0.00058779303901316,-0.00079295206004667,0.0007929516309544,-0.00079295215523382,0.00079295153623957,-0.0007929520003834,0.00079295157129058,-0.00079295209533478,0.00079295147633997,-0.00072678393661568,0.00072678337674017,-0.00072678407810681,0.00072678351821946,-0.00072678398310477,0.00072678361532177,-0.00072678384017709,0.00072678347240588,-0.00055168314813279,0.00055168288723305,0.72672675763824,123866,2964,0.0028895499798446,0.0042079973971524,0.0027446328486966,14.800851468698,3.3606811749585e-05,3.3606811749585e-05,3.3606811749585e-05,4894982.8868674,0.0098911119348014
22891759,0.59521872913411,0.010477669812971,0.0031880787733476,0.0042082467831975,0.003081344256426,-0.00071830035878432,0.0007183005480762,-1.0901918986211e-10,-1.0902070072772e-10,9.5685131914313e-11,7.3612360325275e-11,-0.00036258583251711,0.00036258663300573,-0.00048654936402787,0.00048655132519049,-0.00048654934535569,0.00048655130659024,-0.00036258608860573,0.00036258693071426,-0.00036258581142937,0.00036258665360738,-0.00048654934647845,0.000486551344522,-0.00048654932767856,0.00048655132579358,-0.00088992979992631,0.00088992927839356,-0.00088992977265884,0.00088992925111928,-0.00088992980410298,0.00088992927204698,-0.0008899297767518,0.000889929244689,-0.00079969191905646,0.00079969148414647,-0.00079969190315882,0.0007996914682363,-0.00079969191228947,0.00079969149236302,-0.00079969189545961,0.00079969147552052,-0.00036258610857359,0.00036258690899236,-8.1004924766917e-12,1.6972728296272e-11,-1.1994414121529e-10,1.2804799330902e-10,-0.0010562429274913,0.0010562429367549,-0.00096065576625994,0.00096065600821568,-0.0010308254072948,0.0010308253085547,-0.0010308243813541,0.0010308243325695,-0.0010840267957226,0.0010840267190532,-0.0010840266753696,0.0010840267610985,-0.0010840265993523,0.0010840265332567,-0.0010840264790494,0.0010840265753518,-0.00096065627753466,0.00096065605188745,-0.00096065579192264,0.00096065605037141,-0.001030825383054,0.0010308254494772,-0.0010308243571143,0.0010308244734929,-0.00096065625190266,0.0009606560097623,-1.4861550360426e-10,-1.4861686944489e-10,-0.00067977164070169,0.00067977139822989,-2.2455288822517e-12,-2.4846693883692e-10,-0.00056360865856667,0.00056360850239519,-0.0006025019675202,0.00060250193939975,-0.00060250208455276,0.0006025020564059,-0.00056360814546195,0.00056360846705049,-0.00056360842066364,0.00056360874230335,-0.00060250172980478,0.0006025021769572,-0.00060250184635239,0.00060250229347833,-0.00082189677912714,0.00082189637178244,-0.0008218968606921,0.00082189629067281,-0.00082189671743308,0.00082189631008793,-0.00082189679872077,0.00082189622870106,-0.00075145160651508,0.00075145109581497,-0.00075145175417649,0.00075145124346454,-0.00075145167306113,0.00075145132665887,-0.00075145152406261,0.00075145117767211,-0.00056360838525843,0.0005636082290358,0.6873665035105,123866,2964,0.0029893118612132,0.0043906401091675,0.0028288502922468,15.341061356925,3.7928490855401e-05,3.7928490855401e-05,3.7928490855401e-05,4919652.8684167,0.010261472357352
23391759,0.61861601469557,0.010858262414076,0.0032980515276564,0.0043798249539481,0.0031803859324714,-0.00074294501431581,0.00074294526331525,-9.6653306013729e-11,-9.6654855142875e-11,1.1026748802158e-10,8.9879719030397e-11,-0.00037225925923375,0.00037226012815639,-0.00050115572867492,0.00050115781859838,-0.00050115569532109,0.0005011577853169,-0.00037225953450545,0.00037226044037957,-0.00037225924059081,0.00037226014653442,-0.00050115571281521,0.00050115783587788,-0.00050115567948323,0.000501157802618,-0.00092296367732363,0.00092296317575712,-0.00092296364518717,0.00092296314361383,-0.0009229636811473,0.00092296316994287,-0.00092296364884845,0.00092296313763707,-0.00082732426554062,0.00082732385176874,-0.00082732424503058,0.00082732383124628,-0.00082732425926472,0.00082732385926409,-0.00082732423801621,0.00082732383800303,-0.0003722595523592,0.00037226042121201,-6.9433765316719e-12,1.5992583284985e-11,-1.1835948358137e-10,1.267308517591e-10,-0.0010977729553283,0.0010977729648124,-0.00099562293570204,0.00099562317562558,-0.0010676928634625,0.0010676927680434,-0.0010676918200678,0.0010676917701463,-0.0011299456833419,0.0011299456078321,-0.0011299455758566,0.0011299456615714,-0.001129945503456,0.0011299454377775,-0.0011299453960201,0.001129945491566,-0.00099562343522547,0.00099562321215219,-0.00099562297316659,0.00099562322826814,-0.0010676928442049,0.0010676929121754,-0.0010676918008106,0.0010676919142787,-0.00099562339779122,0.00099562315953978,-1.3581919862554e-10,-1.3582056530437e-10,-0.00070104856052935,0.00070104838895725,9.4858326058694e-12,-2.3435980777619e-10,-0.00058029878226084,0.00058029868081131,-0.00062088714540281,0.00062088719873331,-0.0006208872773578,0.00062088733066158,-0.00058029825375724,0.00058029862392635,-0.00058029854729926,0.00058029891751929,-0.00062088691037806,0.00062088743374158,-0.0006208870417768,0.00062088756511358,-0.00084988172292522,0.00084988134543684,-0.0008498818038303,0.00084988126501935,-0.00084988165790488,0.00084988128041618,-0.00084988173847423,0.00084988119966297,-0.00077688648747036,0.00077688600260706,-0.00077688663957263,0.00077688615469771,-0.00077688655923084,0.00077688623697163,-0.00077688640593572,0.00077688608368802,-0.0005802984903552,0.0005802983888549,0.70578151991236,123866,2964,0.0030917578929868,0.0045628135321514,0.0029173012403277,15.6340292802,4.0272234241602e-05,4.0272234241602e-05,4.0272234241602e-05,5044110.309113,0.010628359803212
23891759,0.64338180098743,0.011283381579911,0.0034200275362999,0.0045721291710647,0.0032912248725466,-0.00077139331001813,0.00077139331708909,-1.4720097717001e-10,-1.4720261094363e-10,7.5466120003012e-12,3.865078299511e-11,-0.00037611335764788,0.00037611388935051,-0.00051344958596585,0.00051345121656827,-0.00051344968409339,0.00051345131476901,-0.00037611357533367,0.00037611404791455,-0.00037611338619148,0.00037611385884227,-0.00051344961950012,0.00051345118394912,-0.00051344971714783,0.00051345128166955,-0.00096250879106368,0.00096250819039431,-0.00096250881989992,0.00096250821922353,-0.00096250877780843,0.00096250820203396,-0.00096250880674956,0.0009625082309681,-0.00086240932794714,0.00086240887414877,-0.00086240934291603,0.00086240888910517,-0.0008624093387022,0.00086240886503134,-0.00086240935229448,0.00086240887861106,-0.00037611354490351,0.00037611407653563,8.8418353585873e-12,-1.719527400133e-11,-1.0146671959592e-10,9.3157425276479e-11,-0.001150380389151,0.0011503803818629,-0.0010437971312192,0.0010437973220867,-0.0011215379511418,0.0011215379034036,-0.0011215370676504,0.0011215369697351,-0.0011827209268439,0.0011827208696345,-0.0011827208905426,0.0011827209591443,-0.0011827207657434,0.0011827206839442,-0.0011827207294909,0.0011827207735025,-0.0010437974282811,0.0010437972210418,-0.0010437971327132,0.001043797305499,-0.0011215379311582,0.0011215380127055,-0.0011215370476666,0.0011215370790366,-0.0010437974268168,0.0010437972376591,-2.043253122005e-10,-2.0432662725591e-10,-0.00072513615307099,0.00072513558823756,-1.0810367048318e-10,-2.9972728552798e-10,-0.00059647238696993,0.00059647202582812,-0.00063917113358412,0.00063917071764553,-0.00063917115911537,0.00063917074314959,-0.00059647200618912,0.00059647201894234,-0.00059647220188116,0.00059647221468482,-0.00063917094850333,0.00063917090207587,-0.0006391709742567,0.00063917092780204,-0.00088355991472358,0.00088355937879831,-0.00088355997770914,0.00088355931587637,-0.00088355988226286,0.00088355934633739,-0.00088355994530086,0.00088355928346797,-0.00080756690834985,0.00080756633998026,-0.00080756706236152,0.00080756649398006,-0.00080756699972534,0.00080756655958594,-0.00080756684357253,0.00080756640344486,-0.00059647219476507,0.00059647183357286,0.74569511104396,123866,2964,0.0032100507611751,0.0047808917758945,0.0030174484560795,16.930785540238,5.0646284321906e-05,5.0646284321906e-05,5.0646284321906e-05,4973471.0220039,0.011069657681783
24391759,0.66872490214161,0.011709254442072,0.0035422571273233,0.0047660689392499,0.0034009283754991,-0.00079848471741527,0.00079848480391226,-1.2917021685031e-10,-1.2917269353935e-10,2.6057958491373e-11,7.2734490834761e-11,-0.00037553230304851,0.00037553293373528,-0.00052189752269767,0.00052189933464596,-0.00052189760174125,0.00052189941376299,-0.00037553255159547,0.00037553309087258,-0.00037553234782853,0.000375532887175,-0.00052189757138542,0.00052189928612189,-0.00052189765017192,0.0005218993649814,-0.0010018732927468,0.0010018727184918,-0.0010018733181458,0.0010018727438832,-0.0010018732747073,0.0010018727352878,-0.0010018733000982,0.0010018727606711,-0.00089632599590083,0.00089632557695139,-0.00089632600290086,0.00089632558393734,-0.00089632601168874,0.00089632556241202,-0.00089632601760316,0.00089632556831225,-0.00037553250541538,0.00037553313603243,1.3583983136287e-11,-2.8371723079512e-11,-9.2381288877538e-11,7.7934890069076e-11,-0.0012037871167236,0.0012037871032261,-0.0010924422577864,0.0010924424238523,-0.0011767901368709,0.0011767901064928,-0.0011767892266524,0.0011767891145443,-0.0012356561967624,0.0012356561456992,-0.0012356561951257,0.0012356562547556,-0.0012356560698175,0.0012356559846753,-0.0012356560682288,0.0012356560937795,-0.0010924425304283,0.0010924423357732,-0.001092442280069,0.0010924424175986,-0.0011767901314911,0.0011767902144269,-0.0011767892212716,0.0011767892224773,-0.0010924425081749,0.0010924423420561,-1.8205905060333e-10,-1.8205949614854e-10,-0.00074716889074215,0.00074716842136776,-9.6092939014909e-11,-2.6401294934665e-10,-0.00060787881683134,0.00060787854783835,-0.00065355547282873,0.00065355518556827,-0.00065355551618044,0.0006535552288919,-0.00060787845178436,0.00060787850845308,-0.00060787865575571,0.00060787871247289,-0.0006535553113315,0.00065355534654841,-0.00065355535484083,0.00065355539002961,-0.00091654387819584,0.00091654337692615,-0.00091654393348392,0.0009165433217616,-0.00091654384299364,0.00091654334172441,-0.0009165438982608,0.000916543286539,-0.00083639043596832,0.00083638991951078,-0.00083639059349949,0.00083639007702836,-0.00083639053875379,0.00083639013457497,-0.00083639037925706,0.00083638997509172,-0.00060787861608697,0.00060787834704553,0.72902889056787,123866,2964,0.0033227228738499,0.0050022297190346,0.0031090671001352,17.854348962444,5.803479169955e-05,5.803479169955e-05,5.803479169955e-05,4879212.3362914,0.011500149370631
24891759,0.69369492356086,0.0121059191236,0.0036570080290393,0.0049467400627284,0.0035021710318322,-0.00082344743978353,0.0008234476362139,-1.072852972137e-10,-1.0728780975459e-10,6.693362031208e-11,1.0011452367296e-10,-0.00038071963397854,0.00038072040678151,-0.00053308942955991,0.00053309146888357,-0.00053308946607038,0.00053309150546783,-0.00038071990199917,0.00038072060778097,-0.00038071966681771,0.00038072037266888,-0.0005330894652304,0.00053309143310551,-0.00053308950172181,0.00053309146967028,-0.0010372146388937,0.0010372141051357,-0.0010372146488135,0.0010372141150477,-0.0010372146254986,0.0010372141173728,-0.0010372146352851,0.0010372141271516,-0.00092503864088419,0.00092503824546896,-0.00092503863850348,0.0009250382430742,-0.00092503865213399,0.00092503823517359,-0.00092503864896959,0.00092503823199506,-0.00038071986826918,0.00038072064100243,8.3311241369352e-12,-2.0988945474917e-11,-9.5510273197303e-11,8.3125568125181e-11,-0.0012496743002019,0.001249674288731,-0.0011312440204197,0.0011312441921865,-0.0012187147494742,0.0012187147059911,-0.0012187137651724,0.0012187136645246,-0.0012850901788522,0.0012850901217729,-0.001285090183994,0.0012850902442001,-0.0012850900691917,0.0012850899874615,-0.0012850900743809,0.0012850901099359,-0.0011312443363841,0.0011312441401377,-0.0011312440625485,0.0011312442144099,-0.0012187147509446,0.0012187148265472,-0.0012187137666414,0.0012187137850793,-0.0011312442942841,0.0011312441179429,-1.5360626459582e-10,-1.5360671283213e-10,-0.00076745751975442,0.00076745720689282,-5.5528237576929e-11,-2.3263427705201e-10,-0.00062012847518347,0.00062012832121014,-0.00066861714617825,0.00066861705197818,-0.00066861722684792,0.00066861713261955,-0.00062012806730764,0.00062012825471672,-0.0006201283059517,0.00062012849340896,-0.00066861697622608,0.00066861722160706,-0.00066861705685719,0.00066861730220981,-0.00094563765439169,0.00094563721523393,-0.00094563771297364,0.00094563715691125,-0.00094563761017099,0.0009456371710138,-0.00094563766860288,0.0009456371125411,-0.00086174043960755,0.00086173996782736,-0.00086174059763637,0.00086174012584263,-0.00086174053973579,0.00086174018617752,-0.00086174038006322,0.0008617400265184,-0.00062012823922211,0.00062012808520069,0.68841299914998,123866,2964,0.0034265021528655,0.0051923288292986,0.0031934179495164,18.325615068566,6.1804920548531e-05,6.1804920548531e-05,6.1804920548531e-05,4929663.0155588,0.011882845786659
25391759,0.7197656540074,0.01254922343026,0.0037848735582489,0.0051481107940843,0.0036162390779266,-0.00085378519659548,0.00085378512504014,-1.620035895486e-10,-1.6200678318633e-10,-4.6713238780856e-11,3.9237389589388e-11,-0.00039302717347082,0.00039302758776893,-0.0005513476926728,0.00055134920117555,-0.00055134786845387,0.00055134937703035,-0.0003930273944615,0.00039302764355418,-0.00039302725456517,0.00039302750372575,-0.00055134777902289,0.0005513491142908,-0.0005513479542791,0.0005513492896202,-0.0010772608813899,0.001077260241795,-0.0010772609595087,0.0010772603199055,-0.0010772608504776,0.0010772602719437,-0.001077260928748,0.0010772603502059,-0.00096018005582357,0.00096017961389076,-0.00096018009008786,0.00096017964813982,-0.00096018008453284,0.00096017958661424,-0.00096018011730773,0.00096017961937375,-0.00039302731133051,0.00039302772556021,2.3174992666941e-11,-5.6096368105122e-11,-7.7267875508413e-11,4.5363632994761e-11,-0.0013012236661846,0.0013012236351076,-0.0011764370792561,0.001176437194059,-0.0012665835866698,0.0012665835907895,-0.0012665827814979,0.0012665826309216,-0.0013403924799985,0.0013403924407707,-0.0013403925712743,0.0013403926099852,-0.0013403923937676,0.0013403922946769,-0.0013403924850901,0.0013403924639379,-0.0011764371793382,0.001176437001159,-0.001176437083962,0.0011764371449558,-0.0012665835927824,0.0012665836781756,-0.0012665827876087,0.0012665827183057,-0.0011764371746605,0.0011764370502904,-2.2668687615646e-10,-2.2668666811319e-10,-0.00079311469733879,0.00079311394733304,-1.8532631043416e-10,-3.0443427802625e-10,-0.00064105102757643,0.00064105059826332,-0.00069091828495513,0.00069091767368802,-0.00069091825189987,0.00069091764060389,-0.00064105076544673,0.00064105056888903,-0.00064105091369934,0.0006410507171884,-0.00069091817053584,0.00069091778711415,-0.00069091813820309,0.00069091775475242,-0.00097916178055073,0.00097916116694987,-0.00097916181924417,0.0009791611281074,-0.0009791617707603,0.00097916115716058,-0.0009791618097012,0.0009791611185656,-0.00089353365001198,0.00089353308956851,-0.00089353380851818,0.00089353324805993,-0.0008935337702549,0.00089353328983823,-0.00089353360911537,0.00089353312871342,-0.00064105088391695,0.00064105045455716,0.73709758580658,123866,2964,0.0035525839418752,0.0054058384449822,0.0033000584898352,19.829549627794,7.3836397022352e-05,7.3836397022352e-05,7.3836397022352e-05,4993146.633393,0.012334507451326
25891759,0.74567039308925,0.012990226191711,0.0039116015205224,0.0053494773821195,0.0037291472890688,-0.00088093167449674,0.00088093174559885,-1.3108419499723e-10,-1.3108736190049e-10,1.958084814206e-12,8.3390625576572e-11,-0.00038788497833975,0.00038788555952092,-0.00055666981196736,0.00055667161575321,-0.00055666993566937,0.00055667173952967,-0.00038788522743677,0.00038788564945186,-0.0003878850567596,0.00038788547884374,-0.00055666989406774,0.00055667153263578,-0.00055667001758273,0.00055667165622475,-0.0011181486692134,0.001118148085701,-0.0011181487283915,0.0011181481448709,-0.001118148640082,0.0011181481142281,-0.0011181486992367,0.0011181481733746,-0.00099563840345868,0.00099563800510924,-0.00099563842289002,0.00099563802452537,-0.00099563843056754,0.00099563797897923,-0.00099563844895132,0.0009956379973477,-0.00038788514771983,0.00038788572883158,2.1717399960103e-11,-5.4072174016392e-11,-7.3343183985927e-11,4.2013570008761e-11,-0.0013583886072626,0.0013583885767178,-0.0012296271868183,0.001229627293562,-0.0013285210411167,0.0013285210447605,-0.0013285201577081,0.0013285200131517,-0.0013951909478373,0.0013951909088899,-0.0013951910553749,0.0013951910910135,-0.0013951908877595,0.0013951907927886,-0.0013951909953431,0.0013951909749579,-0.0012296273181281,0.0012296271491505,-0.0012296272180605,0.0012296272736229,-0.0013285210601472,0.0013285211405422,-0.0013285201767359,0.0013285201089307,-0.0012296272869134,0.0012296271691171,-1.8662111628682e-10,-1.8662092909401e-10,-0.0008140093106874,0.00081400876180866,-1.397544420867e-10,-2.5265927706257e-10,-0.00064917060251106,0.00064917032186012,-0.00070234491387897,0.00070234455862043,-0.00070234492462878,0.00070234456934105,-0.00064917032504424,0.00064917026210771,-0.00064917049574586,0.00064917043285608,-0.00070234480616556,0.00070234466560859,-0.00070234481736283,0.00070234467677662,-0.0010127123520707,0.0010127118193788,-0.0010127123890346,0.0010127117824489,-0.0010127123316673,0.0010127117989766,-0.0010127123687027,0.0010127117621182,-0.00092245573186493,0.00092245524620454,-0.00092245589282379,0.00092245540714853,-0.00092245585652383,0.00092245544649414,-0.00092245569336534,0.00092245528335043,-0.00064917043562607,0.00064917015492842,0.73853822516441,123866,2964,0.0036655066203972,0.0056425913840023,0.0033869642681781,20.751054995864,8.1208439966909e-05,8.1208439966909e-05,8.1208439966909e-05,4814985.7886838,0.012776652183627
26391759,0.76927733587074,0.013408501979637,0.0040320696377255,0.0055404356668382,0.0038359966750732,-0.00090472776711763,0.00090472818322107,-6.3759996293527e-11,-6.3763221106776e-11,1.4587329306809e-10,1.6070631903227e-10,-0.00038850029542341,0.00038850131490692,-0.00056479396181341,0.00056479646849931,-0.00056479392714252,0.00056479643390323,-0.00038850057640238,0.00038850156077891,-0.00038850031272111,0.00038850129716689,-0.00056479397969915,0.00056479644966446,-0.00056479394546454,0.00056479641550426,-0.0011527898128454,0.0011527893626688,-0.0011527897991181,0.0011527893489332,-0.0011527898059321,0.0011527893686865,-0.0011527897918241,0.0011527893545702,-0.0010260586589487,0.0010260583181122,-0.0010260586459612,0.0010260583051095,-0.0010260586639436,0.0010260583134209,-0.0010260586507805,0.0010260583002425,-0.00038850055919671,0.00038850157861058,1.0260027739666e-13,-1.239606767445e-11,-9.5372348101996e-11,8.3372368827317e-11,-0.0014068526665559,0.0014068526553645,-0.0012739343429793,0.001273934509083,-0.0013772235567532,0.0013772234969675,-0.0013772224138647,0.001377222329457,-0.0014438466780459,0.0014438466133727,-0.0014438467191176,0.0014438467740339,-0.0014438466136886,0.0014438465377755,-0.0014438466548058,0.0014438466984818,-0.0012739347243083,0.0012739345344875,-0.0012739344234814,0.0012739345812617,-0.0013772235749639,0.0013772236347672,-0.0013772224320722,0.0013772224672535,-0.001273934643833,0.0012739344623354,-9.6456940725789e-11,-9.6456705607972e-11,-0.00083213727178974,0.00083213726698551,1.9524610428098e-11,-1.5947321214953e-10,-0.0006590509677479,0.00065905103917043,-0.00071439281896627,0.00071439312744503,-0.00071439296225815,0.00071439327070744,-0.00065905053010803,0.00065905094203121,-0.00065905079845585,0.00065905121042573,-0.00071439264814867,0.00071439329821986,-0.00071439279111593,0.00071439344115778,-0.0010404834058781,0.0010404830913242,-0.0010404834655694,0.0010404830321436,-0.0010404833485314,0.0010404830339787,-0.0010404834078449,0.0010404829744204,-0.00094799808707677,0.0009479977183867,-0.00094799824442277,0.00094799787571766,-0.00094799818574526,0.00094799793616657,-0.00094799802733171,0.00094799777776794,-0.00065905070116651,0.00065905077254243,0.7661436486539,123866,2964,0.0037644653347764,0.0058432210174973,0.0034623532389735,20.418327957016,7.8546623656125e-05,7.8546623656125e-05,7.8546623656125e-05,4767765.6272922,0.013156539328607
26891759,0.79224614887998,0.013805517101326,0.0041468095843917,0.0057218151157493,0.0039368924011853,-0.00092886188981281,0.00092886199481242,-1.284096836429e-10,-1.2841276790162e-10,2.7356014630766e-11,7.253694131094e-11,-0.00038597477877244,0.00038597534076007,-0.00057071658140657,0.00057071842834796,-0.00057071669901601,0.00057071854603277,-0.00038597498608661,0.00038597546048846,-0.00038597482146905,0.00038597529594089,-0.00057071662799969,0.00057071838098155,-0.00057071674542598,0.00057071849848274,-0.0011887094992034,0.0011887089363268,-0.0011887095568428,0.0011887089939579,-0.0011887094817546,0.0011887089528116,-0.0011887095393923,0.0011887090104411,-0.0010569745389441,0.001056974132546,-0.0010569745629966,0.0010569741565835,-0.0010569745541152,0.0010569741185307,-0.0010569745770355,0.0010569741414359,-0.00038597494203277,0.00038597550395001,9.2245717250776e-12,-3.0624424786756e-11,-8.8623612164629e-11,6.7876532592235e-11,-0.0014571269578274,0.0014571269378543,-0.0013202360333239,0.0013202361789417,-0.001429598264753,0.0014295982301347,-0.0014295973052598,0.0014295971932496,-0.0014928979163919,0.0014928978625122,-0.0014928980137404,0.0014928980615574,-0.0014928978458428,0.0014928977596374,-0.0014928979432359,0.0014928979587269,-0.0013202362189303,0.0013202360321622,-0.001320236053852,0.0013202361721941,-0.0014295982699788,0.0014295983393938,-0.0014295973104818,0.0014295973025049,-0.0013202361984283,0.0013202360389359,-1.8564420568224e-10,-1.8564412828755e-10,-0.00085001498074861,0.00085001446686333,-1.1481687906103e-10,-2.6900287045394e-10,-0.00066578866197057,0.00066578835399822,-0.00072413813769911,0.00072413779457797,-0.00072413815621959,0.00072413781306892,-0.00066578835258767,0.00066578834354164,-0.00066578851444312,0.00066578850544401,-0.00072413798953277,0.00072413794201467,-0.00072413800844178,0.00072413796089411,-0.0010693121349439,0.0010693116309292,-0.0010693121856274,0.0010693115803347,-0.0010693121134064,0.0010693116093928,-0.0010693121641313,0.0010693115588399,-0.00097324583450786,0.00097324533997842,-0.00097324599629367,0.00097324550174949,-0.00097324594613385,0.00097324555478074,-0.00097324578222415,0.00097324539088571,-0.00066578850377968,0.00066578819576046,0.74659954591046,123866,2964,0.0038648483764431,0.0060513168092633,0.0035367153330014,21.226273839378,8.5010190715025e-05,8.5010190715025e-05,8.5010190715025e-05,4648448.0505958,0.013544561657668
27391759,0.81460426563526,0.01418757383585,0.004258017497046,0.0058954791637875,0.0040340771750169,-0.0009529848817386,0.00095298493570857,-1.3677997458331e-10,-1.3678307863555e-10,-9.3733401214817e-13,6.656748507079e-11,-0.00039057445712103,0.00039057495432713,-0.00058119808315602,0.0005811998285267,-0.00058119823387064,0.00058119997931685,-0.00039057467004079,0.00039057503673869,-0.00039057452109244,0.00039057488786036,-0.00058119815134771,0.0005811997592392,-0.00058119830181239,0.000581199909779,-0.0012227413878521,0.0012227408059401,-0.0012227414649763,0.001222740883056,-0.0012227413631506,0.001222740829934,-0.0012227414403184,0.0012227409070934,-0.0010859322285248,0.0010859318232823,-0.0010859322613739,0.0010859318561164,-0.0010859322510494,0.001085931801934,-0.0010859322826485,0.0010859318335179,-0.00039057460453977,0.00039057510167556,1.5940107040672e-11,-4.5512594103109e-11,-8.0755396081024e-11,5.2147784244516e-11,-0.0015029480977987,0.0015029480699273,-0.0013604937354132,0.0013604938574104,-0.0014731844369917,0.0014731844233621,-0.0014731835267679,0.001473183393373,-0.0015405022373116,0.0015405021908679,-0.0015405023740881,0.0015405024133548,-0.001540502185606,0.0015405020923045,-0.0015405023224267,0.0015405023148351,-0.0013604938580342,0.0013604936792234,-0.0013604937532265,0.0013604938334613,-0.0014731844498921,0.0014731845245088,-0.0014731835396642,0.0014731834945155,-0.0013604938402466,0.001360493703198,-1.9921904206487e-10,-1.9921896232098e-10,-0.00086840219328419,0.00086840157913094,-1.4944711514947e-10,-2.7961145014485e-10,-0.00067667882804332,0.00067667846980297,-0.00073727464989604,0.00073727419356102,-0.00073727464228197,0.0007372741859173,-0.00067667855683296,0.00067667845136722,-0.0006766787038224,0.00067667859840343,-0.00073727452501666,0.00073727431757377,-0.00073727451795691,0.00073727431048432,-0.001096390504227,0.0010963899628444,-0.0010963905468148,0.0010963899202675,-0.0010963904908716,0.0010963899494903,-0.0010963905335798,0.0010963899070338,-0.00099794914098568,0.00099794863865677,-0.00099794930434134,0.0009979488019977,-0.00099794926225836,0.00099794884719121,-0.00099794909657165,0.00099794868151921,-0.00067667868512424,0.00067667832683715,0.73661848620049,123866,2964,0.0039651298308698,0.0062409048275124,0.003613168185516,22.212867120087,9.2902936960699e-05,9.2902936960699e-05,9.2902936960699e-05,4619918.3115659,0.013915959168479
27891759,0.83572216934814,0.014558049792492,0.0043658778157993,0.0060634661041563,0.0041287058725367,-0.00097544149079952,0.00097544164140208,-1.1626992188664e-10,-1.1627302946817e-10,3.3089130090966e-11,9.6023310377311e-11,-0.00039226384669382,0.00039226447005715,-0.00058938110330603,0.00058938305371557,-0.0005893812163801,0.00058938316686672,-0.00039226407539958,0.00039226457512985,-0.00039226390744124,0.00039226440724252,-0.00058938116720868,0.00058938298846524,-0.00058938128022863,0.00058938310155943,-0.0012551259529419,0.0012551254088419,-0.0012551260148372,0.00125512547073,-0.0012551259299642,0.0012551254312338,-0.0012551259917891,0.0012551254930506,-0.0011139716406423,0.001113971261549,-0.0011139716687237,0.0011139712896152,-0.0011139716615949,0.0011139712414794,-0.0011139716887131,0.0011139712685824,-0.00039226401355747,0.00039226463684744,1.4243574986208e-11,-4.337298122049e-11,-8.1215428913366e-11,5.3043424168258e-11,-0.0015476764974108,0.0015476764699589,-0.001400700022696,0.0014007001449154,-0.001517844607928,0.0015178445905159,-0.0015178436405579,0.0015178435106553,-0.0015856365305015,0.0015856364817483,-0.0015856366690197,0.0015856367078864,-0.0015856364901362,0.0015856363980712,-0.001585636628699,0.0015856366242537,-0.00140070019275,0.0014007000145883,-0.0014007000584145,0.0014007001416276,-0.0015178446274638,0.0015178446994098,-0.0015178436600888,0.0015178436195444,-0.0014007001570591,0.0014007000179006,-1.729989145203e-10,-1.7299877082983e-10,-0.00088501394007331,0.00088501347076535,-1.1304910295692e-10,-2.4534247396916e-10,-0.00068561810715559,0.00068561785835421,-0.00074823219827954,0.0007482319364287,-0.00074823222225828,0.00074823196038034,-0.00068561781385865,0.00068561781982952,-0.00068561798168025,0.00068561798769616,-0.00074823207179057,0.00074823206221133,-0.00074823209615912,0.00074823208655028,-0.0011218931623491,0.0011218926800444,-0.0011218932058736,0.0011218926366536,-0.0011218931408417,0.0011218926585387,-0.001121893184373,0.0011218926151542,-0.0010212417440447,0.0010212412851881,-0.0010212419061262,0.0010212414472547,-0.0010212418632719,0.0010212414929131,-0.0010212416991466,0.0010212413288034,-0.00068561794291559,0.00068561769406465,0.75594141014531,123866,2964,0.0040585029602733,0.0064259409332007,0.0036822551925216,22.881090719097,9.8248725752779e-05,9.8248725752779e-05,9.8248725752779e-05,4553610.5627639,0.014268404269466
28391759,0.85533030761042,0.014914826906991,0.004469671499946,0.006225092903045,0.004220062504,-0.00099615673792631,0.00099615693113322,-1.0817307179867e-10,-1.0817622584938e-10,5.2193303706869e-11,1.0562128368052e-10,-0.00038812502949666,0.00038812569384174,-0.00059332850733002,0.00059333054680126,-0.00059332860479933,0.00059333064434664,-0.00038812525294055,0.00038812581166923,-0.00038812508132973,0.00038812564012903,-0.0005933285619942,0.00059333049076259,-0.00059332865947517,0.00059333058831919,-0.0012864600595818,0.001286459533912,-0.0012864601156257,0.0012864595899474,-0.0012864600397436,0.0012864595531135,-0.0012864600956784,0.0012864596090396,-0.0011416265775197,0.0011416262062855,-0.0011416266059649,0.0011416262347156,-0.0011416265953129,0.0011416261893026,-0.0011416266228912,0.0011416262168658,-0.00038812520015466,0.00038812586442813,1.1182260389621e-11,-3.7296997420345e-11,-8.4154720406793e-11,5.890585171115e-11,-0.0015928431942404,0.0015928431697045,-0.0014433347753472,0.0014433349059542,-0.0015666704071121,0.0015666703807525,-0.001566669398925,0.001566669277974,-0.0016283922920439,0.0016283922398724,-0.0016283924304802,0.0016283924721446,-0.0016283922543383,0.0016283921652615,-0.0016283923928178,0.0016283923975762,-0.0014433349741759,0.0014433347934497,-0.0014433348152497,0.0014433349130031,-0.0015666704270617,0.0015666704959786,-0.0015666694188694,0.001566669393195,-0.0014433349342976,0.0014433347864247,-1.6306621866322e-10,-1.6306607035525e-10,-0.00089932167514106,0.00089932126852208,-9.3932395008854e-11,-2.353953304983e-10,-0.00068983458506713,0.00068983437113198,-0.00075483587571381,0.00075483569440124,-0.00075483591256231,0.00075483573121992,-0.00068983428305357,0.00068983434108241,-0.00068983445086882,0.00068983450894462,-0.00075483574042072,0.00075483582903464,-0.00075483577759599,0.00075483586617996,-0.001146350538923,0.0011463500855239,-0.0011463505855855,0.0011463500390489,-0.0011463505144733,0.0011463500610759,-0.0011463505610967,0.0011463500145616,-0.0010430452183579,0.001043044774058,-0.0010430453800452,0.0010430449357304,-0.0010430453340896,0.0010430449843419,-0.0010430451704777,0.001043044820745,-0.00068983442062767,0.00068983420664536,0.78325232140496,123866,2964,0.0041446862741931,0.0066127750400279,0.003741796103134,23.414457597536,0.00010251566078029,0.00010251566078029,0.00010251566078029,4410107.311568,0.014605836406959
28891759,0.87337627935669,0.015238918797482,0.0045646378668806,0.006371099505656,0.0043031814249455,-0.0010146008617675,0.0010146010585752,-1.0793391863405e-10,-1.0793724773823e-10,5.7175187660793e-11,1.0323173026797e-10,-0.0003823452005771,0.00038234585488143,-0.00059532965636899,0.00059533170056795,-0.0005953297549596,0.00059533179923487,-0.00038234541291384,0.00038234597630116,-0.00038234524505831,0.00038234580851631,-0.00059532970378672,0.00059533165181193,-0.00059532980238169,0.00059533175048266,-0.001315183400781,0.0013151828792097,-0.0013151834589837,0.0013151829374039,-0.0013151833833018,0.0013151828959686,-0.0013151834414057,0.0013151829540639,-0.0011663664147875,0.0011663660422043,-0.0011663664468309,0.0011663660742322,-0.001166366430147,0.0011663660277007,-0.0011663664612966,0.0011663660588347,-0.00038234536743872,0.0003823460216715,8.7559119246657e-12,-3.2360451287265e-11,-8.7970372653736e-11,6.5158377755918e-11,-0.0016345490155101,0.001634548993407,-0.0014826497973806,0.0014826499378322,-0.0016117287010923,0.0016117286666036,-0.0016117276765725,0.0016117275620204,-0.0016675159427621,0.0016675158872527,-0.0016675160858175,0.0016675161307903,-0.0016675159067222,0.0016675158191681,-0.0016675160498201,0.0016675160627478,-0.0014826500046695,0.0014826498189545,-0.0014826498348785,0.0014826499473668,-0.0016117287192872,0.0016117287867443,-0.0016117276947621,0.0016117276821557,-0.0014826499671952,0.0014826498094435,-1.6436714415245e-10,-1.643668140596e-10,-0.00091124508166261,0.00091124467437844,-9.0110513137884e-11,-2.4165311386224e-10,-0.00069077880096762,0.00069077857280744,-0.00075857087868732,0.00075857069151643,-0.00075857091476029,0.00075857072755961,-0.00069077849540677,0.00069077855912819,-0.00069077865679164,0.0006907787205595,-0.00075857073349698,0.00075857083602722,-0.00075857076990252,0.00075857087240275,-0.0011683753480421,0.0011683748997173,-0.0011683753980527,0.0011683748499018,-0.001168375324325,0.0011683748760018,-0.0011683753742953,0.001168374826146,-0.0010620810689334,0.0010620806208601,-0.0010620812311998,0.0010620807831112,-0.0010620811818571,0.001062080835088,-0.001062081017666,0.0010620806709124,-0.00069077864296202,0.00069077841475488,0.770967173416,123866,2964,0.0042214440960671,0.0067852563936661,0.0037914399364676,23.939372279449,0.00010671497823559,0.00010671497823559,0.00010671497823559,4256700.4235119,0.014909209419727
29391759,0.89009289138954,0.015514602645362,0.0046465987964979,0.0064939876571888,0.004374016191675,-0.001031029098157,0.0010310292117769,-1.2300984339843e-10,-1.2301326035287e-10,2.2337235730428e-11,8.1258416464096e-11,-0.00038235640775941,0.00038235694403503,-0.00060005510008254,0.00060005696175444,-0.00060005524136435,0.00060005710311265,-0.00038235661639072,0.00038235703835213,-0.00038235646373261,0.00038235688576454,-0.00060005515980812,0.00060005690063255,-0.000600055300969,0.00060005704186932,-0.0013399721725145,0.0013399716227681,-0.0013399722541588,0.0013399717044038,-0.0013399721507117,0.0013399716439122,-0.00133997223235,0.0013399717255417,-0.0011861859051693,0.0011861855215134,-0.0011861859463423,0.0011861855626708,-0.0011861859248013,0.0011861855029319,-0.0011861859648363,0.0011861855429513,-0.00038235655909623,0.00038235709530061,1.2572664384322e-11,-4.0558193491573e-11,-8.4146330023408e-11,5.7120069039482e-11,-0.0016684044954073,0.0016684044690737,-0.001511540545486,0.0015115406743619,-0.001643686322658,0.0016436862995564,-0.001643685359439,0.001643685232912,-0.0017025307538254,0.0017025307027851,-0.0017025309286232,0.0017025309693883,-0.0017025307260938,0.0017025306343722,-0.0017025309009336,0.001702530901017,-0.0015115406843858,0.0015115405018476,-0.0015115405702365,0.0015115406629811,-0.0016436863424647,0.0016436864132307,-0.0016436853792399,0.0016436853465807,-0.0015115406596583,0.0015115405132515,-1.8759928900358e-10,-1.8759888242409e-10,-0.0009220967078033,0.00092209614962167,-1.326352061866e-10,-2.7162391230203e-10,-0.00069395764076977,0.00069395730980406,-0.00076418314570644,0.00076418276416766,-0.00076418314785693,0.00076418276628837,-0.00069395736513818,0.00069395730340537,-0.00069395750816692,0.0006939574464803,-0.00076418301237705,0.00076418289665802,-0.00076418301502519,0.00076418289927584,-0.0011868972054332,0.0011868967037686,-0.0011868972510736,0.0011868966582257,-0.0011868971913905,0.0011868966897275,-0.0011868972370921,0.0011868966442459,-0.0010780511245788,0.0010780506485112,-0.0010780512905872,0.001078050814504,-0.0010780512454866,0.0010780508625309,-0.0010780510772801,0.00107805069434,-0.00069395750159435,0.00069395717058228,0.70574332940808,123866,2964,0.00428976517874,0.0069252061746142,0.0038365999674503,24.733628309753,0.00011306902647802,0.00011306902647802,0.00011306902647802,4182087.8117907,0.01516650573217
29891759,0.90533344192367,0.015772660674958,0.0047235387340076,0.0066081320333901,0.0044409899075608,-0.0010469300567949,0.001046930207232,-1.145480809877e-10,-1.1455145564931e-10,3.2783954163881e-11,9.2477329042842e-11,-0.0003920686545948,0.00039206924372319,-0.00061106373683183,0.0006110656739343,-0.00061106386625927,0.00061106580343801,-0.00039206887109525,0.00039206934346142,-0.00039206871185607,0.00039206918429236,-0.0006110637973966,0.00061106561184405,-0.00061106392677097,0.00061106574129411,-0.0013612554724419,0.0013612549376573,-0.0013612555499632,0.00136125501517,-0.0013612554505188,0.0013612549590324,-0.00136125552799,0.001361255036495,-0.0012036988901656,0.0012036985184541,-0.0012036989315821,0.001203698559855,-0.0012036989100224,0.0012036984995192,-0.0012036989504077,0.0012036985398888,-0.00039206881266981,0.00039206940172721,1.2321670287313e-11,-4.1842730310517e-11,-8.3405708531239e-11,5.4889353595315e-11,-0.0016955624899163,0.0016955624620849,-0.0015319252417305,0.001531925366445,-0.0016646267808992,0.0016646267582931,-0.0016646258041246,0.0016646256759319,-0.0017346134774453,0.0017346134258278,-0.0017346136582139,0.0017346136968427,-0.0017346134565905,0.0017346133640401,-0.0017346136374007,0.0017346136350962,-0.001531925399654,0.0015319252183078,-0.0015319252748358,0.0015319253628116,-0.0016646268041501,0.0016646268735171,-0.00166462582737,0.0016646257911503,-0.0015319253665716,0.0015319252219639,-1.7750911785433e-10,-1.7750879543403e-10,-0.00093407509522277,0.00093407458964033,-1.2006231208871e-10,-2.5639310794238e-10,-0.00070573438530135,0.00070573410259156,-0.00077633341560907,0.0007763331132435,-0.00077633342910759,0.00077633312671236,-0.00070573409735841,0.00070573407772973,-0.00070573425570245,0.00070573423612021,-0.00077633328508021,0.00077633324298459,-0.00077633329902499,0.00077633325689944,-0.0012025835427089,0.0012025830631036,-0.0012025835875538,0.0012025830184032,-0.0012025835256157,0.001202583046012,-0.0012025835704822,0.0012025830013333,-0.0010937127520291,0.0010937122941029,-0.0010937129170141,0.0010937124590726,-0.00109371287279,0.001093712506127,-0.0010937127057057,0.0010937123390583,-0.00070573423065775,0.00070573394790101,0.72403000921985,123866,2964,0.0043557992526199,0.0070374039730255,0.0038863849527638,25.429627963812,0.00011863702371049,0.00011863702371049,0.00011863702371049,4222454.8173482,0.015398010237802
30391759,0.91905679717207,0.015990026074727,0.0047886752755752,0.0067037747451799,0.0044975760539723,-0.0010589094823728,0.0010589096499578,-1.1078095192384e-10,-1.1078434464373e-10,4.0460338435022e-11,9.8933953797387e-11,-0.00038296766684358,0.00038296827489775,-0.00060858867418436,0.00060859065067514,-0.00060858879766226,0.00060859077422984,-0.0003829678825371,0.00038296837600598,-0.00038296772305388,0.00038296821659357,-0.00060858873355565,0.00060859058972975,-0.00060858885701521,0.00060859071326438,-0.0013820307891209,0.0013820302621101,-0.0013820308652906,0.0013820303382717,-0.0013820307676058,0.0013820302830774,-0.0013820308437066,0.0013820303591703,-0.0012198490391576,0.0012198486730672,-0.001219849082384,0.0012198487162782,-0.0012198490586027,0.0012198486544976,-0.0012198491008502,0.0012198486967298,-0.00038296782523028,0.00038296843321214,1.2130625947116e-11,-4.0892608782769e-11,-8.3616877120624e-11,5.5847587871548e-11,-0.0017255166429801,0.0017255166158909,-0.0015590333441256,0.0015590334703083,-0.0016981530834665,0.0016981530600821,-0.001698152092133,0.0016981519654009,-0.0017624580594776,0.0017624580076563,-0.0017624582442828,0.0017624582836828,-0.0017624580416999,0.0017624579498591,-0.0017624582265453,0.0017624582259259,-0.0015590335077857,0.0015590333264607,-0.0015590333794353,0.0015590334696607,-0.0016981531089791,0.0016981531783737,-0.001698152117641,0.0016981520836861,-0.0015590334724987,0.001559033327131,-1.7352628979905e-10,-1.735260694271e-10,-0.00094050771716887,0.00094050723617023,-1.1374760383878e-10,-2.5139459121394e-10,-0.0007014602615674,0.00070145999304035,-0.00077486853094024,0.0007748682626464,-0.0007748685488301,0.00077486828050691,-0.00070145997710564,0.00070145997387403,-0.00070146013081507,0.00070146012763038,-0.00077486839919548,0.00077486839361483,-0.00077486841751445,0.00077486841190356,-0.0012178078419897,0.0012178073753467,-0.0012178078873128,0.0012178073301867,-0.0012178078242601,0.0012178073576185,-0.0012178078695898,0.0012178073124653,-0.0011050530184776,0.0011050525681208,-0.0011050531839157,0.0011050527335446,-0.0011050531392424,0.0011050527809978,-0.0011050529717449,0.0011050526135148,-0.00070146011148821,0.00070145984291424,0.67708915342413,123866,2964,0.0044056961816302,0.0071612432354197,0.0039132240835372,26.075243270398,0.00012380194616318,0.00012380194616318,0.00012380194616318,4055287.1789155,0.01560178477463
30891759,0.93152132823597,0.016201549954769,0.0048520712822104,0.0067962533146471,0.0045532253579115,-0.0010722216154745,0.0010722216679366,-1.3187791666135e-10,-1.318795183183e-10,-9.0214556066062e-12,7.3543485870518e-11,-0.00038990477471676,0.00038990524123423,-0.00061714645223702,0.00061714819429868,-0.00061714663134784,0.00061714837348717,-0.00038990500067868,0.00038990530765204,-0.00038990485311741,0.00038990516016472,-0.00061714653485351,0.00061714810997021,-0.00061714671378796,0.00061714828898164,-0.0014001402324151,0.0014001396598027,-0.00140014033995,0.0014001397673302,-0.0014001402029107,0.001400139688936,-0.0014001403104927,0.0014001397965104,-0.0012349992557449,0.0012349988728293,-0.0012349993076571,0.0012349989247292,-0.0012349992831694,0.0012349988465063,-0.0012349993337887,0.0012349988971133,-0.00038990492076247,0.00038990538720501,1.8780334567788e-11,-5.7057061863205e-11,-7.4716707871303e-11,3.7745032254328e-11,-0.0017489850211639,0.0017489849848523,-0.0015773885504309,0.0015773886488907,-0.0017176818473084,0.0017176818458583,-0.0017176809367561,0.001717680787414,-0.0017893489903359,0.0017893489468866,-0.0017893492227826,0.0017893492515678,-0.0017893489860942,0.0017893488865974,-0.0017893492185817,0.001789349191319,-0.0015773886283451,0.0015773884564009,-0.0015773885720542,0.0015773886191577,-0.0017176818801498,0.001717681953308,-0.0017176809695917,0.0017176808948578,-0.001577388606744,0.0015773884861559,-2.0357486322179e-10,-2.0357635405859e-10,-0.00095015059668434,0.0009501499112905,-1.7353250139789e-10,-2.8316649298329e-10,-0.00071043168890786,0.00071043130658672,-0.00078415562344683,0.00078415511314958,-0.00078415559704618,0.00078415508672045,-0.00071043144948958,0.00071043127999197,-0.00071043158476839,0.00071043141532094,-0.00078415551861318,0.00078415521699074,-0.0007841554928671,0.00078415519121588,-0.0012309558172684,0.0012309552666095,-0.0012309558530128,0.0012309552308953,-0.0012309558121648,0.0012309552615063,-0.0012309558480556,0.0012309552259385,-0.0011182026520358,0.0011182021659325,-0.0011182028225724,0.0011182023364572,-0.0011182027873382,0.0011182023749033,-0.0011182026143566,0.0011182022019336,-0.00071043155794276,0.00071043117557113,0.72443258075666,123866,2964,0.0044609885792242,0.0072581804784261,0.0039533106745135,27.063720736303,0.00013170976589042,0.00013170976589042,0.00013170976589042,4050770.8632764,0.015797130126164
31391759,0.94287152117907,0.016396592002763,0.0049103962768607,0.006881511496905,0.0046046842289977,-0.0010840926103637,0.0010840925615257,-1.4721573763086e-10,-1.4721712902953e-10,-6.028216215662e-11,6.3934679810007e-11,-0.00037678354936556,0.00037678389046665,-0.00061244991634631,0.00061245145677166,-0.00061245014703555,0.00061245168753904,-0.00037678380791724,0.00037678390956967,-0.00037678366750504,0.00037678376923286,-0.0006124500393234,0.00061245133171401,-0.00061245026976792,0.00061245156223608,-0.0014209176203485,0.0014209170101932,-0.0014209177577273,0.0014209171475647,-0.0014209175771853,0.0014209170533241,-0.0014209177146841,0.0014209171908156,-0.0012526079550885,0.0012526075753926,-0.0012526080130355,0.0012526076333276,-0.0012526079963023,0.0012526075353531,-0.0012526080527668,0.0012526075918057,-0.00037678368803699,0.00037678402906195,3.2558015433801e-11,-8.3678912333947e-11,-5.4910008967065e-11,5.5624906873748e-12,-0.0017802383352414,0.0017802382865186,-0.0016093459428713,0.0016093459918068,-0.0017575960037045,0.0017575960464791,-0.0017575951901491,0.0017575950059212,-0.001814647922222,0.0018146478978241,-0.0018146482087025,0.0018146482212738,-0.0018146479357694,0.001814647827898,-0.0018146482222904,0.0018146481513878,-0.0016093459016909,0.001609345754602,-0.0016093459546932,0.0016093459252084,-0.0017575960533023,0.0017575961359584,-0.0017575952397406,0.0017575950953941,-0.0016093458898905,0.0016093458212218,-2.2729012147222e-10,-2.2729180092091e-10,-0.00095600415621121,0.00095600328309344,-2.4199082189981e-10,-2.9880592523005e-10,-0.00070295662106881,0.00070295614928142,-0.00077953391835515,0.0007795331937584,-0.00077953384916032,0.00077953312453502,-0.00070295646757602,0.00070295610697323,-0.00070295656804984,0.00070295620749755,-0.00077953386479105,0.00077953324616401,-0.00077953379643506,0.00077953317777911,-0.0012466537693377,0.001246653145082,-0.0012466537873044,0.0012466531270181,-0.0012466537766896,0.0012466531524343,-0.0012466537949303,0.0012466531346444,-0.0011299309105602,0.0011299304134815,-0.0011299310893043,0.001129930592214,-0.0011299310718164,0.0011299306133045,-0.0011299308902961,0.001129930431796,-0.00070295652543057,0.00070295605359214,0.73350948678505,123866,2964,0.0045104828534427,0.007387410743015,0.0039777700479231,28.357122927302,0.00014205698341842,0.00014205698341842,0.00014205698341842,3809405.3627383,0.016003660836434
31891759,0.95284489789198,0.01656932303825,0.0049625630975697,0.0069560882635506,0.0046506716771297,-0.0010943003076433,0.0010943003968993,-1.1850566588031e-10,-1.1850704127947e-10,-1.103693865263e-11,1.0761914977944e-10,-0.00037315312481163,0.00037315366110828,-0.00061327389465027,0.00061327573264728,-0.00061327406636211,0.00061327590443917,-0.00037315339379808,0.00037315369828781,-0.00037315323942905,0.00037315354399374,-0.0006132740125319,0.00061327561249032,-0.00061327418422035,0.00061327578425706,-0.0014372266608093,0.0014372261040009,-0.0014372267685701,0.0014372262117556,-0.00143722661978,0.0014372261451328,-0.001437226727496,0.0014372262528414,-0.001266166393785,0.0012661660495225,-0.0012661664465404,0.0012661661022644,-0.0012661664330968,0.0012661660109498,-0.0012661664848148,0.0012661660626537,-0.00037315327800614,0.00037315381422921,3.1097760102422e-11,-8.0817162102202e-11,-5.3615956709032e-11,5.6267920796291e-12,-0.0018036464981191,0.0018036464507509,-0.0016314440586133,0.0016314441058492,-0.0017826453241186,0.0017826453644915,-0.0017826444343687,0.0017826442558017,-0.0018365474451048,0.0018365474195441,-0.0018365477093683,0.0018365477215373,-0.0018365474624993,0.0018365473577183,-0.0018365477268034,0.0018365476597523,-0.0016314440901421,0.0016314439474619,-0.0016314440963852,0.0016314440683424,-0.0017826453792985,0.0017826454590435,-0.0017826444895426,0.0017826443503461,-0.0016314440523939,0.0016314439849905,-1.8887493903703e-10,-1.8887664327173e-10,-0.00096136581009099,0.00096136516702591,-1.8678457608184e-10,-2.4365205586441e-10,-0.00070108417692406,0.00070108387417961,-0.000779532667263,0.00077953225263325,-0.00077953264695332,0.00077953223229503,-0.00070108399667567,0.00070108380162177,-0.00070108412529812,0.00070108393029548,-0.00077953261436434,0.00077953230457316,-0.00077953259468841,0.00077953228486973,-0.0012582877806816,0.0012582872496868,-0.0012582877990167,0.0012582872314069,-0.0012582877746704,0.0012582872436753,-0.0012582877931317,0.0012582872255214,-0.0011399421190171,0.0011399416838303,-0.0011399422926054,0.0011399418574058,-0.0011399422750476,0.0011399418781326,-0.0011399420991011,0.0011399417021998,-0.00070108405245098,0.00070108374965471,0.73628229609007,123866,2964,0.0045529814116683,0.0074841256069244,0.0040001314854993,29.265819794473,0.00014932655835578,0.00014932655835578,0.00014932655835578,3683076.222663,0.016167894368594
32391759,0.96113610076307,0.016719113378669,0.0050079420876784,0.00702028750901,0.0046908837819807,-0.0011015478840976,0.0011015482865445,-6.0355344773882e-11,-6.0356730408023e-11,1.2014653379704e-10,1.8274534644628e-10,-0.00036920884578232,0.00036920979040665,-0.0006129406875032,0.00061294318677467,-0.00061294071778342,0.00061294321713336,-0.00036920908162151,0.00036920989786839,-0.00036920890935825,0.00036920972568072,-0.00061294075140903,0.00061294312073213,-0.00061294078204935,0.00061294315145025,-0.0014495306461575,0.0014495302107452,-0.00144953067739,0.0014495302419703,-0.0014495306238927,0.0014495302328748,-0.0014495306547609,0.0014495302637357,-0.0012764097661104,0.0012764094701368,-0.0012764098086333,0.0012764095126478,-0.0012764097867942,0.0012764094494842,-0.0012764098291503,0.0012764094918282,-0.00036920901793549,0.00036920996248327,1.3783923381191e-11,-4.5166684471881e-11,-7.2737290899957e-11,4.2456617011663e-11,-0.0018220978430709,0.0018220978134424,-0.001648731171127,0.0016487312722949,-0.0018023498205721,0.0018023498085394,-0.0018023487072377,0.001802348579499,-0.0018538068576086,0.0018538068105842,-0.0018538070270569,0.0018538070580741,-0.0018538068572982,0.0018538067688309,-0.0018538070267864,0.0018538070163604,-0.0016487314391932,0.0016487312778771,-0.0016487312536991,0.001648731315397,-0.0018023498653989,0.0018023499305356,-0.0018023487520579,0.0018023487014885,-0.0016487313566419,0.0016487312347957,-1.0722283546377e-10,-1.0722454554021e-10,-0.00096445229525697,0.00096445220247094,-2.8880945892589e-11,-1.4448098784654e-10,-0.00069873720974325,0.00069873724854723,-0.00077849651450763,0.00077849680414155,-0.0007784966099006,0.0007784968995058,-0.00069873691585666,0.00069873717008982,-0.00069873710339236,0.00069873735767611,-0.00077849640560639,0.00077849691253477,-0.00077849650115116,0.00077849700805056,-0.0012664998261138,0.0012664995184278,-0.0012664998647148,0.0012664994802309,-0.0012664997884849,0.0012664994807993,-0.0012664998268662,0.0012664994423826,-0.0011471835508035,0.0011471832184051,-0.00114718370744,0.0011471833750298,-0.0011471836701035,0.0011471834144795,-0.0011471835120637,0.0011471832564516,-0.00069873702479628,0.00069873706354923,0.76665023430994,123866,2964,0.0045831754576412,0.007560340576016,0.0040130358254086,29.297792604377,0.00014958234083501,0.00014958234083501,0.00014958234083501,3583133.1567992,0.016289191469058
32891759,0.96796209406045,0.016832321569759,0.0050425756656777,0.0070684072812696,0.0047213386228113,-0.0011062500649878,0.0011062505115786,-5.614874090039e-11,-5.6150163503989e-11,1.5467310213702e-10,1.7728568260291e-10,-0.00035963663298254,0.00035963761532664,-0.00060801913443986,0.00060802172141319,-0.00060801913893262,0.00060802172598459,-0.00035963682708216,0.00035963775930984,-0.00035963665752868,0.00035963758983263,-0.00060801915938928,0.00060802169471981,-0.00060801916423897,0.00060802169964767,-0.0014596820374224,0.0014596816205463,-0.0014596820548619,0.0014596816379785,-0.0014596820280719,0.0014596816293235,-0.0014596820451394,0.0014596816463836,-0.0012840746683756,0.0012840743579101,-0.0012840747122635,0.0012840744017859,-0.0012840746758421,0.0012840743505692,-0.0012840747195952,0.0012840743943102,-0.00035963680242129,0.00035963778468898,9.7231282592236e-13,-1.8816785893563e-11,-9.0706756805402e-11,7.3499885279692e-11,-0.0018382730989603,0.001838273082432,-0.0016649515435178,0.0016649516925655,-0.0018222359004364,0.0018222358469984,-0.0018222347096804,0.0018222346174797,-0.0018669318461137,0.0018669317826705,-0.0018669319859829,0.0018669320333353,-0.0018669318333243,0.0018669317544927,-0.0018669319732334,0.0018669320051969,-0.0016649518873659,0.0016649517042282,-0.0016649516246776,0.001664951760369,-0.0018222359318904,0.0018222359882336,-0.0018222347411273,0.0018222347587077,-0.0016649518062266,0.0016649516364453,-1.0063255222255e-10,-1.0063423101685e-10,-0.00096495930096835,0.00096495929555932,1.2926335372195e-11,-1.5222076609418e-10,-0.00069072263505471,0.00069072268473297,-0.00077243501464288,0.00077243539189248,-0.0007724351305501,0.00077243550777082,-0.00069072228568846,0.00069072264740065,-0.00069072248022504,0.00069072284198818,-0.00077243485739178,0.0007724355487034,-0.00077243497335753,0.00077243566463997,-0.001273144500194,0.0012731442307871,-0.0012731445553477,0.0012731441761022,-0.0012731444574925,0.0012731441880861,-0.0012731445123632,0.0012731441331181,-0.0011515291683127,0.0011515288240806,-0.0011515293212831,0.0011515289770393,-0.0011515292673091,0.0011515290328985,-0.0011515291130884,0.0011515288786897,-0.00069072244287102,0.00069072249249864,0.70183472909765,123866,2964,0.0046028388920976,0.0076271833809519,0.0040152510604979,29.182801189254,0.00014866240951403,0.00014866240951403,0.00014866240951403,3444341.6073289,0.016379436702158
33391759,0.97363582016681,0.016933126765173,0.0050734938663667,0.0071108628425702,0.0047487700562361,-0.0011114334650039,0.0011114338355004,-7.2693351915057e-11,-7.2694407088704e-11,1.3755406720002e-10,1.2991106986481e-10,-0.00036929262193111,0.00036929344822328,-0.00061567023171033,0.00061567260445031,-0.00061567026946791,0.00061567264228656,-0.00036929278440011,0.00036929362246449,-0.00036929261542581,0.00036929345356634,-0.00061567022686164,0.00061567260804032,-0.00061567026483889,0.00061567264609558,-0.0014657132679881,0.0014657128342619,-0.001465713302422,0.0014657128686887,-0.0014657132681729,0.0014657128330206,-0.0014657133023693,0.0014657128672098,-0.0012889035392969,0.0012889031989577,-0.0012889035838121,0.0012889032434615,-0.001288903536828,0.0012889032020269,-0.0012889035808313,0.0012889032460188,-0.00036929279039508,0.00036929361661022,-8.7048968949046e-12,2.1502412785167e-12,-1.095292909774e-10,1.0322754932676e-10,-0.0018451130734673,0.0018451130678684,-0.0016667719635632,0.0016667721611379,-0.0018219386232589,0.0018219385347022,-0.0018219374597377,0.0018219373929997,-0.0018790728041786,0.001879072726436,-0.0018790729429108,0.0018790730068867,-0.0018790727788845,0.0018790727050863,-0.0018790729176563,0.0018790729855763,-0.0016667722963459,0.0016667720864126,-0.0016667720193393,0.0016667722238118,-0.0018219386328964,0.0018219386861302,-0.0018219374693685,0.0018219375444209,-0.0016667722405903,0.0016667720237591,-1.2709286149591e-10,-1.2709493751337e-10,-0.00096878725957613,0.00096878711123818,-3.6770621351876e-12,-2.1650378591935e-10,-0.00069958208460809,0.00069958197020012,-0.0007805586793788,0.00078055880554978,-0.0007805587712329,0.00078055889737542,-0.00069958169049886,0.00069958198476938,-0.00069958188150768,0.00069958217582941,-0.0007805584748667,0.00078055900959476,-0.00078055856678729,0.00078055910148661,-0.0012762621525709,0.0012762618435161,-0.0012762622233552,0.0012762617731601,-0.0012762621158086,0.001276261806754,-0.0012762621863508,0.0012762617361559,-0.0011566018005106,0.0011566014007436,-0.0011566019585052,0.0011566015587272,-0.0011566018885165,0.0011566016306958,-0.0011566017291172,0.0011566014713077,-0.0006995818961485,0.00069958178168892,0.75084859171131,123866,2964,0.0046243029694167,0.0076553275766726,0.0040311324109442,29.274746267433,0.00014939797013946,0.00014939797013946,0.00014939797013946,3498604.0749445,0.016445960693614
33891759,0.97849335058176,0.017018804675402,0.005099674014905,0.0071470752999734,0.0047720553605236,-0.0011166324733553,0.001116632599016,-1.178680835639e-10,-1.1786965954516e-10,4.048955370428e-11,7.271920702226e-11,-0.00035707115229273,0.00035707166748598,-0.00060949769745135,0.00060949956588015,-0.00060949784240268,0.00060949971091013,-0.00035707134459297,0.00035707179874113,-0.00035707118165858,0.00035707163588266,-0.00060949773089684,0.00060949953106209,-0.00060949787577355,0.00060949967601678,-0.0014761995707145,0.0014761990414209,-0.0014761996666745,0.0014761991373734,-0.0014761995574594,0.0014761990537434,-0.0014761996534447,0.0014761991497212,-0.001297794336595,0.001297793956281,-0.0012977943899469,0.0012977940096205,-0.0012977943474028,0.0012977939466844,-0.0012977943995207,0.0012977939987898,-0.00035707131384674,0.0003570718289632,3.0760362644977e-12,-2.330525034207e-11,-1.0237056389587e-10,8.2859373698415e-11,-0.0018618810665332,0.0018618810476991,-0.0016858863794089,0.0016858865499499,-0.0018469627547501,0.0018469626982843,-0.0018469617452361,0.0018469616381467,-0.0018899651617909,0.001889965094788,-0.0018899653787432,0.0018899654325836,-0.0018899651540266,0.0018899650641445,-0.0018899653710184,0.0018899654019793,-0.0016858865447827,0.0016858863355529,-0.0016858864007058,0.0016858865529139,-0.0018469627721944,0.0018469628387207,-0.0018469617626735,0.001846961778576,-0.0016858865235059,0.0016858863326088,-1.9394794872183e-10,-1.9394948894683e-10,-0.00097017872924002,0.00097017814180271,-1.2277315185713e-10,-3.0571815528216e-10,-0.00069047096644007,0.00069047056421318,-0.00077330284568577,0.00077330240150951,-0.00077330284931596,0.00077330240511067,-0.00069047064736815,0.00069047060138499,-0.00069047079021347,0.00069047074428051,-0.00077330266922831,0.00077330257714483,-0.00077330267328851,0.00077330258117575,-0.0012842668798707,0.0012842663948623,-0.0012842669401221,0.0012842663347753,-0.0012842668679811,0.0012842663829732,-0.0012842669282579,0.0012842663229116,-0.0011616141394967,0.0011616136482076,-0.0011616143131928,0.0011616138218915,-0.0011616142532957,0.0011616138846006,-0.0011616140774331,0.0011616137087504,-0.00069047082736095,0.00069047042508345,0.74591026498378,123866,2964,0.0046460502824419,0.0077246857255378,0.0040370303233274,30.02692720898,0.00015541541767184,0.00015541541767184,0.00015541541767184,3322300.9743607,0.016544662017786
34391759,0.9827320736997,0.017091852455571,0.0051221980200362,0.0071776180415561,0.0047920363939788,-0.0011226622458055,0.001122662147389,-1.5757795883682e-10,-1.575796331092e-10,-5.508913937343e-11,1.9910987541822e-11,-0.00035915483473665,0.00035915506162095,-0.00061271148682672,0.000612712877166,-0.00061271173324639,0.00061271312366401,-0.00035915506782518,0.00035915515444109,-0.0003591549032626,0.0003591549899549,-0.00061271156147908,0.00061271280098376,-0.00061271180759201,0.00061271304717581,-0.0014845479419925,0.0014845473280416,-0.001484548096339,0.001484547482381,-0.0014845479144677,0.0014845473548432,-0.0014845480690621,0.0014845475094296,-0.0013047827401579,0.0013047823297437,-0.0013047827990661,0.0013047823886385,-0.0013047827651655,0.0013047823064526,-0.0013047828222104,0.0013047823634848,-0.00035915499720794,0.00035915522401606,1.6185558601118e-11,-5.0552587598003e-11,-8.7038290745846e-11,5.3870600157791e-11,-0.0018727963901704,0.0018727963576544,-0.0016957030748387,0.0016957032024252,-0.0018568606583959,0.0018568606422525,-0.001856859812145,0.001856859666682,-0.0019011736073228,0.0019011735569329,-0.0019011739050901,0.0019011739438125,-0.0019011736182676,0.0019011735163855,-0.0019011739160739,0.0019011739033055,-0.0016957030636021,0.001695702870104,-0.0016957030665729,0.001695703148597,-0.0018568606868569,0.0018568607638213,-0.0018568598405986,0.0018568597882439,-0.0016957030718887,0.0016957029239511,-2.5267103267633e-10,-2.5267248670544e-10,-0.00097381003773377,0.00097380903868865,-2.4273520414657e-10,-3.7917465664685e-10,-0.00069182775418528,0.00069182710258427,-0.00077538475715625,0.00077538378249387,-0.00077538468008695,0.00077538370539571,-0.00069182750862996,0.00069182712754894,-0.00069182762139798,0.00069182724036652,-0.00077538462516021,0.00077538391337876,-0.00077538454881999,0.00077538383701057,-0.0012902260844125,0.0012902254358088,-0.0012902261286808,0.0012902253914736,-0.0012902260945579,0.0012902254459547,-0.0012902261390861,0.0012902254018795,-0.0011673492424525,0.0011673486809736,-0.0011673494307967,0.0011673488693059,-0.0011673493865181,0.0011673489171351,-0.0011673491953408,0.0011673487259702,-0.00069182764623887,0.00069182699459049,0.72645274455035,123866,2964,0.0046711144431742,0.0077697474997652,0.0040521430538011,31.389189214671,0.00016631351371736,0.00016631351371736,0.00016631351371736,3265418.7957577,0.016631331917749
34891759,0.98647836038637,0.017158504763058,0.0051427679410862,0.0072053642435494,0.0048103725784223,-0.0011298944063261,0.0011298940555502,-2.0108392852401e-10,-2.0108556688573e-10,-1.6934023124276e-10,-2.7648521106659e-11,-0.00036526065556319,0.00036526058614976,-0.00061901430495861,0.00061901518046778,-0.00061901466605903,0.0006190155416501,-0.00036526095483286,0.00036526061913104,-0.00036526078657257,0.00036526045094631,-0.00061901444416917,0.00061901503934228,-0.00061901480471973,0.00061901539997495,-0.0014932009511857,0.0014932002353972,-0.0014932011726161,0.0014932004568199,-0.0014932009016546,0.0014932002846884,-0.0014932011235587,0.0014932005065849,-0.0013124881125943,0.0013124876756143,-0.0013124881771569,0.0013124877401629,-0.0013124881596987,0.0013124876306695,-0.0013124882217548,0.0013124876927127,-0.00036526082098848,0.00036526075149746,3.6424761542656e-11,-9.4096672054642e-11,-5.9659116204952e-11,3.9631171271025e-12,-0.0018830700687476,0.0018830700136631,-0.0017040487675533,0.0017040488188845,-0.0018651176456461,0.0018651176947298,-0.0018651169938239,0.0018651167888473,-0.0019128699664885,0.0019128699426906,-0.0019128703694658,0.0019128703810946,-0.0019128700073194,0.0019128698878023,-0.0019128704103336,0.0019128703262465,-0.0017040485419672,0.0017040483798171,-0.0017040487326112,0.0017040486955218,-0.0018651176973594,0.0018651177877573,-0.0018651170455254,0.0018651168818657,-0.0017040485769284,0.0017040485031959,-3.1559135263243e-10,-3.1559286988387e-10,-0.00097940335189023,0.00097940189057275,-3.8708700936603e-10,-4.4382113593246e-10,-0.00069762171781949,0.00069762082518016,-0.00078129199170538,0.00078129045594839,-0.00078129182246509,0.0007812902866802,-0.00069762158104802,0.00069762080818356,-0.00069762166112739,0.00069762088830566,-0.00078129193665107,0.00078129050952435,-0.00078129176852201,0.00078129034136877,-0.0012968431082062,0.0012968422659397,-0.0012968431254042,0.0012968422484038,-0.0012968431434717,0.001296842301206,-0.0012968431612089,0.0012968422842075,-0.0011743524869042,0.0011743518597606,-0.001174352692284,0.0011743520651287,-0.0011743526747786,0.0011743520870866,-0.0011743524657817,0.0011743518781025,-0.00069762164383909,0.00069762075115428,0.74954793555005,123866,2964,0.0047011273530275,0.0078121546783213,0.0040753773847973,33.428025956835,0.00018262420765468,0.00018262420765468,0.00018262420765468,3236840.7914737,0.016728581082435
35391759,0.98974607965574,0.017213390221868,0.0051597792944759,0.0072281200192275,0.0048254909081644,-0.001137154703217,0.001137154223721,-2.1756827079161e-10,-2.1756992806451e-10,-2.4388421928392e-10,-3.5261943095373e-11,-0.00036383551742222,0.0003638353035222,-0.0006205410978079,0.00062054170670664,-0.00062054152402701,0.00062054213300341,-0.00036383589162463,0.00036383528197479,-0.00036383571292596,0.00036383510335439,-0.00062054130204853,0.00062054149999572,-0.00062054172767797,0.00062054192570096,-0.0015033249086344,0.0015033241452307,-0.0015033251685199,0.0015033244051082,-0.0015033248372921,0.0015033242169456,-0.0015033250977258,0.0015033244773711,-0.0013214167361622,0.001321416314107,-0.0013214168006796,0.0013214163786131,-0.0013214168054187,0.0013214162470257,-0.0013214168672207,0.0013214163088162,-0.00036383569310011,0.00036383547912224,5.8331036615107e-11,-1.3747285795297e-10,-2.6548470624211e-11,-4.9868171879595e-11,-0.0018964360851222,0.0018964360092714,-0.0017182262199057,0.0017182261875188,-0.0018818968791853,0.0018818970000429,-0.001881896381406,0.0018818961202062,-0.0019236882054517,0.0019236882123897,-0.0019236886814682,0.0019236886651725,-0.0019236882706804,0.0019236881379254,-0.0019236887467366,0.0019236885907481,-0.0017182258218915,0.0017182257021513,-0.0017182261768224,0.001718226012394,-0.0018818969575378,0.0018818970617503,-0.0018818964597545,0.0018818961819055,-0.0017182258649939,0.0017182258772954,-3.4248216956657e-10,-3.4248366244744e-10,-0.0009842516435174,0.00098424993080818,-4.8648893039675e-10,-4.5513995736439e-10,-0.0006969121648563,0.00069691117722059,-0.00078163293058987,0.00078163110615982,-0.00078163270941811,0.00078163088495862,-0.00069691213746867,0.0006969110992405,-0.00069691219370555,0.00069691115552757,-0.00078163296123358,0.00078163107387569,-0.00078163274135608,0.00078163085396946,-0.001305266595942,0.0013052656536364,-0.0013052665835923,0.0013052656654987,-0.0013052666451758,0.0013052657028727,-0.0013052666335167,0.0013052657154239,-0.0011812639304574,0.0011812633036082,-0.0011812641488536,0.0011812635219927,-0.0011812641609123,0.0011812635148898,-0.0011812639385077,0.001181263292497,-0.00069691211528791,0.00069691112760065,0.70668892154927,123866,2964,0.0047313327340699,0.0078674109234603,0.0040955654942548,35.836486807593,0.00020189189446074,0.00020189189446074,0.00020189189446074,3131278.3199967,0.016836054360541
35891759,0.99240218113397,0.017259353852134,0.0051740647969455,0.0072470496028575,0.004838239452331,-0.0011425341456955,0.001142533981196,-1.5467711704378e-10,-1.5467897207534e-10,-1.4132937396993e-10,8.2532205212489e-11,-0.00037375327283594,0.00037375355212089,-0.00062863672918891,0.00062863806845004,-0.00062863702502305,0.00062863836436271,-0.00037375366355138,0.00037375350886144,-0.00037375348800116,0.00037375333338658,-0.00062863694918498,0.0006286378452953,-0.00062863724484157,0.00062863814102978,-0.001508592124276,0.0015085914665733,-0.0015085923111696,0.0015085916534592,-0.0015085920488889,0.0015085915430635,-0.001508592235922,0.0015085917300888,-0.0013260806490806,0.00132608030808,-0.0013260807096061,0.0013260803685925,-0.0013260807232033,0.0013260802349037,-0.0013260807821538,0.0013260802938412,-0.00037375344662019,0.00037375372582895,6.2402971808517e-11,-1.513611207496e-10,-5.2445677599961e-12,-8.0698844248901e-11,-0.0019013691027983,0.0019013690174034,-0.0017197756969217,0.0017197756089463,-0.0018817599174938,0.0018817600637528,-0.001881759260949,0.0018817589887309,-0.0019324407598629,0.0019324407768928,-0.0019324411793922,0.0019324411427056,-0.0019324408318807,0.0019324407006051,-0.0019324412514492,0.0019324410664566,-0.0017197754609203,0.0017197753777891,-0.001719775720698,0.0017197754892742,-0.0018817600200778,0.0018817601157997,-0.0018817593635261,0.0018817590407708,-0.0017197754371637,0.0017197754974807,-2.4856284481468e-10,-2.4856416224135e-10,-0.0009891439648357,0.00098914282016721,-3.6419237717838e-10,-2.8404741508735e-10,-0.00070590412636793,0.00070590362265637,-0.00079006093447128,0.00079005995752881,-0.00079006081899446,0.00079005984202276,-0.00070590409573261,0.00070590343586434,-0.00070590420744842,0.00070590354762959,-0.00079006101469233,0.00079005987594622,-0.0007900609002465,0.00079005976147096,-0.0013089917126894,0.0013089909747493,-0.0013089916849295,0.001308991002294,-0.0013089917333483,0.0013089909954089,-0.0013089917060136,0.0013089910233787,-0.0011864046708863,0.0011864042033884,-0.0011864048678546,0.001186404400344,-0.001186404896304,0.0011864043760782,-0.0011864046961451,0.0011864041759321,-0.00070590402012858,0.00070590351636719,0.72723604127964,123866,2964,0.0047535983721698,0.0078877182664667,0.0041158512230575,37.445351194474,0.0002147628095558,0.0002147628095558,0.0002147628095558,3161145.5852877,0.016899938209181
36391759,0.99437954142047,0.017293301469115,0.0051846009753776,0.0072610417796482,0.0048476587140892,-0.0011440157518542,0.0011440161786459,-4.4306576464502e-11,-4.4308411967252e-11,9.1424775462337e-11,2.4030319709346e-10,-0.00036723187664422,0.00036723293325682,-0.00062486540345961,0.00062486800510295,-0.0006248654432663,0.00062486804498793,-0.0003672321933969,0.00036723294992732,-0.00036723202604185,0.00036723278264803,-0.00062486555170922,0.00062486785372602,-0.00062486559198852,0.00062486789408453,-0.0015124817094308,0.0015124812794138,-0.0015124817483028,0.0015124813182777,-0.0015124816595349,0.0015124813302823,-0.0015124816979214,0.0015124813686609,-0.0013291781142588,0.0013291778823977,-0.0013291781638186,0.0013291779319451,-0.0013291781634196,0.0013291778326312,-0.0013291782131765,0.0013291778823759,-0.0003672320442283,0.00036723310076434,4.1477166195162e-11,-1.0341792530043e-10,-2.4713280092434e-11,-3.5087364427712e-11,-0.0019079912369732,0.0019079911777577,-0.0017275018584194,0.0017275018356177,-0.0018922823789869,0.001892282462951,-0.0018922813514347,0.0018922811505343,-0.001936315026349,0.0019363150189904,-0.001936315256756,0.0019363152453788,-0.0019363150630656,0.0019363149583617,-0.0019363152935113,0.0019363151847886,-0.0017275020203818,0.0017275019241888,-0.0017275019693518,0.001727501849946,-0.0018922824669232,0.0018922825447723,-0.0018922814393625,0.0018922812323487,-0.0017275019094693,0.0017275019098792,-9.0983925385886e-11,-9.0985256521692e-11,-0.0009888320331364,0.00098883195513594,-7.783241550475e-11,-6.8590228676718e-11,-0.00070060445617354,0.00070060463624072,-0.00078560041164164,0.00078560083340655,-0.00078560050299979,0.00078560092473515,-0.00070060428227102,0.00070060443003016,-0.00070060447385088,0.00070060462165797,-0.00078560042531774,0.00078560081910678,-0.00078560051696051,0.00078560091072019,-0.0013117446284768,0.0013117443215806,-0.0013117446257181,0.0013117443247059,-0.0013117445929416,0.0013117442860467,-0.0013117445900132,0.0013117442890015,-0.0011877352542831,0.0011877350039459,-0.0011877354141902,0.001187735163841,-0.001187735418783,0.0011877351615371,-0.0011877352574372,0.0011877350002029,-0.00070060426731551,0.00070060444733374,0.72169184868424,123866,2964,0.0047598305207105,0.0079151104284489,0.0041146193090083,37.533422772649,0.00021546738218119,0.00021546738218119,0.00021546738218119,3079927.9879997,0.016932926753925
36891759,0.9958003833142,0.0173166208292,0.005191881053186,0.007270593784519,0.0048541459914948,-0.0011433547822844,0.0011433555065265,5.1397388668586e-12,5.13792412818e-12,2.3338774176763e-10,2.8781211793442e-10,-0.00036503307864987,0.00036503447797894,-0.00062306319866612,0.0006230664038403,-0.00062306310158815,0.00062306630684127,-0.00036503329782721,0.00036503457698346,-0.00036503313872724,0.00036503441795931,-0.00062306325533578,0.00062306634463859,-0.00062306315899852,0.00062306624837934,-0.0015127855232133,0.0015127852141954,-0.0015127854825057,0.00151278517348,-0.0015127855043654,0.0015127852332894,-0.0015127854629105,0.0015127851918266,-0.0013288838688209,0.0013288836570792,-0.0013288839146257,0.0013288837028712,-0.0013288838866738,0.0013288836381502,-0.001328883933423,0.0013288836848869,-0.00036503323882213,0.00036503463807515,1.2060144570862e-11,-4.1943416661089e-11,-6.0001933169629e-11,3.1175759950279e-11,-0.0019092362450586,0.0019092362168754,-0.0017280641109897,0.0017280641874683,-0.0018930841517746,0.0018930841444671,-0.0018930828733788,0.0018930827591275,-0.0019378025534381,0.0019378025104813,-0.001937802659293,0.0019378026825662,-0.0019378025533094,0.0019378024754623,-0.0019378026592031,0.0019378026475859,-0.001728064536288,0.0017280644025585,-0.0017280642513846,0.0017280642922174,-0.0018930842093372,0.0018930842639031,-0.0018930829309348,0.0018930828785562,-0.0017280643959125,0.0017280642978284,-1.772063300712e-11,-1.7721992370004e-11,-0.00098723506042459,0.0009872355323572,9.8443824196981e-11,3.1998413660685e-12,-0.00069828561750929,0.00069828607665821,-0.00078351686398874,0.0007835179525431,-0.0007835170663929,0.00078351815491776,-0.00069828529885172,0.00069828592396916,-0.00069828553518758,0.00069828616035465,-0.00078351677667994,0.00078351803965459,-0.00078351697891412,0.00078351824185937,-0.0013110263267615,0.0013110262511143,-0.0013110263594242,0.0013110262191495,-0.0013110262612299,0.0013110261855834,-0.0013110262933853,0.0013110261531111,-0.001186952133728,0.0011869519539003,-0.0011869522717369,0.0011869520918965,-0.0011869522412301,0.0011869521235948,-0.0011869521027127,0.00118695198509,-0.00069828538240887,0.00069828584150862,0.68857595763942,123866,2964,0.0047571122035539,0.007920229934848,0.0041080114419133,36.818508665849,0.00020974806932679,0.00020974806932679,0.00020974806932679,3062619.8667634,0.016928656361169
37391759,0.99689905155904,0.017335130466685,0.0051976543661161,0.0072781665398341,0.0048593095607347,-0.0011457840022742,0.0011457841162143,-1.1430640440016e-10,-1.1430844707305e-10,1.863146163046e-11,9.0689683536538e-11,-0.00037181456682397,0.00037181510638452,-0.00062817973445318,0.00062818159819535,-0.00062817989184926,0.00062818175566989,-0.00037181480647508,0.00037181520618989,-0.00037181463562672,0.00037181503541663,-0.00062817980677787,0.00062818152397683,-0.00062817996420766,0.00062818168148445,-0.0015146243745066,0.0015146238389879,-0.0015146244817106,0.0015146239461842,-0.0015146243485031,0.0015146238646191,-0.0015146244556505,0.0015146239717585,-0.001330550516498,0.0013305501593042,-0.001330550572114,0.0013305502149069,-0.0013305505403685,0.0013305501362932,-0.0013305505949693,0.0013305501908806,-0.0003718147365578,0.00037181527604241,1.5205718828669e-11,-5.0555027880071e-11,-6.1511235237957e-11,2.7370747321318e-11,-0.0019102881007872,0.0019102880672925,-0.0017266315225478,0.0017266315971791,-0.0018904557544814,0.001890455753747,-0.0018904547964419,0.0018904546676014,-0.0019417865121913,0.0019417864751676,-0.0019417867877126,0.0019417868082819,-0.0019417865288616,0.001941786443194,-0.0019417868044219,0.0019417867763469,-0.0017266315870265,0.0017266314445426,-0.0017266315562823,0.0017266315863955,-0.0018904558060548,0.0018904558643999,-0.0018904548480083,0.0018904547782473,-0.0017266315533117,0.0017266314553455,-1.8580374385625e-10,-1.8580489169987e-10,-0.00098980651866141,0.00098980589996009,-1.6893316867089e-10,-2.5571919135635e-10,-0.00070461413606633,0.00070461382230452,-0.00078921964039332,0.00078921924137204,-0.00078921963746683,0.00078921923841619,-0.00070461389841273,0.00070461375071008,-0.00070461405504116,0.00070461390738753,-0.00078921955830726,0.00078921932259486,-0.00078921955585826,0.00078921932011629,-0.001312141817393,0.0013121413118044,-0.0013121418457538,0.0013121412835935,-0.0013121418076568,0.0013121413020691,-0.0013121418360676,0.0013121412739081,-0.0011892455688597,0.001189245131244,-0.0011892457457447,0.001189245308116,-0.0011892457180816,0.0011892453387108,-0.0011892455389743,0.0011892451596167,-0.00070461398332885,0.00070461366951756,0.70704502303651,123866,2964,0.0047671374383199,0.0079245277068366,0.0041186565085382,37.627176020391,0.00021621740816313,0.00021621740816313,0.00021621740816313,3097486.8533747,0.01695401599177
37891759,0.99771339727647,0.017348263136703,0.0052017543174831,0.0072835386054541,0.0048629702137659,-0.001146350330419,0.0011463507260162,-6.1641087318859e-11,-6.1643167343551e-11,1.2949009944576e-10,1.6695286830742e-10,-0.00036617489104647,0.00036617580591856,-0.00062469773539921,0.00062470020152672,-0.00062469777252807,0.00062470023873396,-0.00036617509592321,0.00036617593261191,-0.00036617492953539,0.00036617576630276,-0.00062469777461819,0.00062470016041616,-0.00062469781206865,0.00062470019794317,-0.0015168132690644,0.001516812841731,-0.0015168133061751,0.0015168128788335,-0.0015168132548365,0.001516812855527,-0.0015168132916091,0.0015168128922913,-0.001332285639155,0.0013322853347292,-0.0013322856898045,0.001332285385365,-0.0013322856515244,0.0013322853225163,-0.0013322857019587,0.0013322853729376,-0.00036617505720843,0.00036617597200354,5.3770664401936e-12,-2.8648063589705e-11,-7.6920237610129e-11,5.4468531311441e-11,-0.0019142728573934,0.0019142728356033,-0.0017319450695769,0.0017319451861416,-0.001898071466877,0.0018980714329182,-0.0018980703305145,0.0018980702300097,-0.0019432413405237,0.0019432412877253,-0.0019432415225353,0.0019432415585207,-0.001943241340899,0.0019432412630139,-0.0019432415229492,0.0019432415338479,-0.001731945334959,0.0017319451738431,-0.0017319451450912,0.0017319452387218,-0.0018980715076992,0.0018980715615912,-0.0018980703713314,0.0018980703586757,-0.0017319452594634,0.0017319451212812,-1.1318821483582e-10,-1.1318932067336e-10,-0.00098923678558106,0.00098923667036265,-2.9708540378528e-11,-1.6170058141834e-10,-0.00069994113890367,0.00069994113501586,-0.00078517310468161,0.0007851733520956,-0.00078517319903384,0.00078517344641783,-0.00069994082279657,0.00069994106674018,-0.00069994101630771,0.00069994126030142,-0.00078517297963779,0.000785173476613,-0.00078517307412812,0.00078517357107305,-0.0013138219921549,0.0013138216918286,-0.0013138220362043,0.0013138216481985,-0.0013138219560133,0.0013138216556883,-0.0013138219998368,0.0013138216118323,-0.001189685562244,0.0011896852202546,-0.0011896857215225,0.0011896853795196,-0.0011896856786747,0.0011896854244207,-0.0011896855179901,0.0011896852637488,-0.00069994094800109,0.00069994094406382,0.67665412985274,123866,2964,0.0047695521713817,0.0079410296290153,0.0041163369361262,37.709266808768,0.00021687413447014,0.00021687413447014,0.00021687413447014,3034266.2674889,0.01697093389546
38391759,0.99830151233574,0.017358234574454,0.0052048648992194,0.0072876091712082,0.0048657605040263,-0.0011456428753327,0.0011456435011236,-2.0358271362902e-11,-2.0360377886784e-11,2.2971385738463e-10,2.0927546792517e-10,-0.00036967188890548,0.00036967306568891,-0.00062659414870832,0.00062659706835858,-0.00062659408542379,0.00062659700514568,-0.00036967203593984,0.00036967324364051,-0.00036967187332964,0.00036967308110087,-0.00062659413187986,0.00062659708360883,-0.00062659406913485,0.00062659702094157,-0.0015154680141324,0.0015154676847684,-0.001515467991601,0.0015154676622294,-0.0015154680190581,0.0015154676790116,-0.0015154679959868,0.0015154676559319,-0.0013308619868058,0.0013308617128926,-0.0013308620326156,0.0013308617586891,-0.0013308619799987,0.0013308617194554,-0.0013308620261646,0.0013308617656066,-0.00036967205198395,0.00036967322868674,-1.1912614783678e-11,9.2279805841746e-12,-1.0319171162287e-10,1.0065164638832e-10,-0.0019120984252556,0.0019120984234117,-0.0017276342772548,0.0017276344656913,-0.0018924996774571,0.001892499585689,-0.0018924983808954,0.001892498330414,-0.0019437071141846,0.0019437070368374,-0.0019437072005832,0.00194370726224,-0.0019437070883173,0.0019437070242931,-0.0019437071747571,0.0019437072497343,-0.0017276347298673,0.0017276345365736,-0.0017276343770237,0.0017276345796093,-0.0018924996935541,0.0018924997381474,-0.0018924983969851,0.0018924984828687,-0.0017276346301197,0.0017276344226778,-5.6594426185746e-11,-5.6595494164149e-11,-0.00098878792755736,0.00098878822236171,9.8726620668037e-11,-1.0796239592723e-10,-0.00070299887079892,0.00070299907069771,-0.00078766033314699,0.0007876610633276,-0.0007876605101415,0.00078766124029226,-0.00070299844857348,0.00070299903793059,-0.00070299867671595,0.00070299926611831,-0.00078766013590817,0.00078766126038348,-0.00078766031268519,0.00078766143713392,-0.0013119329117905,0.0013119327918409,-0.0013119329811892,0.0013119327231091,-0.0013119328527172,0.001311932732767,-0.0013119329216331,0.0013119326635537,-0.0011889296399762,0.0011889293591695,-0.0011889297838981,0.0011889295030804,-0.0011889297159563,0.0011889295722423,-0.0011889295713525,0.0011889294276507,-0.00070299864407625,0.00070299884392268,0.7114433866615,123866,2964,0.0047665747743241,0.0079319966262484,0.0041144505575823,37.199249795357,0.00021279399836285,0.00021279399836285,0.00021279399836285,3076150.2093212,0.016956771710804
38880000,0.99873068409179,0.017365655699062,0.0052071711491156,0.0072906503660774,0.0048678341838691,-0.0011458004866171,0.0011458008912755,-6.8292235219092e-11,-6.8294331949156e-11,1.6848692691357e-10,1.2704071450808e-10,-0.00036118531137333,0.00036118617584461,-0.00062117937690664,0.00062118182574721,-0.00062117939703147,0.00062118184595066,-0.0003611854353882,0.00036118637802451,-0.00036118527172518,0.00036118621443702,-0.0006211793390089,0.00062118186259236,-0.00062117935935502,0.00062118188301647,-0.0015176312926681,0.0015176308766336,-0.0015176313201767,0.0015176309041343,-0.0015176313037641,0.0015176308641246,-0.0015176313310288,0.0015176308913813,-0.001332643717658,0.0013326433674449,-0.0013326437695947,0.0013326434193681,-0.0013326437039867,0.0013326433817802,-0.0013326437554469,0.0013326434332269,-0.0003611854745155,0.00036118633891035,-2.0010250230003e-11,2.4210964941493e-11,-1.2766186484487e-10,1.317595986086e-10,-0.0019165887928289,0.0019165887976397,-0.0017347441224197,0.0017347443648483,-0.001902596130593,0.001902596004333,-0.0019025948950388,0.0019025948561828,-0.0019441023296253,0.0019441022354365,-0.0019441024595241,0.001944102538329,-0.0019441023044617,0.0019441022364893,-0.0019441024343994,0.0019441025394204,-0.0017347445084433,0.0017347442743857,-0.0017347441795656,0.0017347444511076,-0.0019025961306618,0.0019025961772089,-0.0019025948951005,0.0019025950290515,-0.0017347444513168,0.0017347441881455,-1.25051362627e-10,-1.2505244767474e-10,-0.00098757709662153,0.00098757700541095,2.8135498547847e-11,-2.316990764439e-10,-0.00069566968241803,0.00069566955511374,-0.00078124909300926,0.00078124926766591,-0.00078124920067643,0.00078124937530352,-0.0006956692371206,0.00069566961025043,-0.00069566943332164,0.00069566980650038,-0.0007812488425897,0.00078124951765764,-0.00078124895026718,0.00078124962530537,-0.0013138083155263,0.0013138080407606,-0.0013138084020293,0.0013138079547388,-0.0013138082761601,0.0013138080013953,-0.0013138083623708,0.0013138079150811,-0.001189011367262,0.0011890109532397,-0.001189011523484,0.0011890111094485,-0.0011890114377022,0.0011890111970349,-0.0011890112801809,0.001189011039527,-0.00069566948863221,0.00069566936127858,0.72623818496451,123866,2964,0.0047673211341775,0.0079506132757927,0.0041094832611303,37.193707631709,0.00021274966105367,0.00021274966105367,0.00021274966105367,2989274.7565766,0.016971468131784
