time,plastic_strain,stress_xx,stress_xy,stress_xz,stress_yy,stress_yz,stress_zz
0,0,0,0,0,0,0,0
1,0.096403178407915,5.769331895733e-05,1.4308306673134e-12,1.4308306673134e-12,5.9059810004314e-05,1.6308992544231e-07,539.52327383881
